# Hz S MA R 50
! CMT, C4420, 21421029, 25.1.2/3
! Date: 8/4/2025 4:30:58 PM
! Data: Format (Calibration Info)
! Freq	S33:Mag/Ang(F2)	S43:Mag/Ang(F2)	S34:Mag/Ang(F2)	S44:Mag/Ang(F2)
7.50000000000E+10	3.83182644798E-01	6.08352526238E+01	2.26919762271E-04	-8.73611294572E+01	2.70500361809E-04	-6.82228029970E+01	3.52455846928E-01	2.84482612900E+01
7.50060120240E+10	3.83954653908E-01	5.95454878859E+01	2.06469922685E-04	-8.87766689158E+01	2.54118460102E-04	-7.52697969067E+01	3.46328111623E-01	2.83940221810E+01
7.50120240481E+10	3.88654985684E-01	5.94532663874E+01	2.46756912687E-04	-9.98343389331E+01	2.43456544588E-04	-7.24211035466E+01	3.46201371324E-01	2.62522098307E+01
7.50180360721E+10	3.83231979666E-01	5.55920950931E+01	2.53206207583E-04	-8.65977484121E+01	2.50948432114E-04	-7.55216153006E+01	3.44160187802E-01	2.34674369373E+01
7.50240480962E+10	3.82173182271E-01	5.40493681986E+01	1.63237419641E-04	-8.85822382467E+01	2.03153415364E-04	-8.50876634376E+01	3.41253678765E-01	2.05990966577E+01
7.50300601202E+10	3.83460356993E-01	5.42759086360E+01	2.47156792112E-04	-9.10378139675E+01	2.63307785568E-04	-8.85926785371E+01	3.37675277006E-01	2.05900987854E+01
7.50360721443E+10	3.85425954754E-01	5.29851380082E+01	2.38619430419E-04	-1.11522773293E+02	2.71748058164E-04	-9.13998229382E+01	3.33726104203E-01	1.96346127698E+01
7.50420841683E+10	3.85275068290E-01	5.24718610156E+01	2.26463105082E-04	-1.14102022458E+02	2.76822039755E-04	-9.13213843464E+01	3.31268092970E-01	1.68097251420E+01
7.50480961924E+10	3.78885221616E-01	4.90184464856E+01	2.01703498543E-04	-1.13496796070E+02	2.69182929180E-04	-1.09088795523E+02	3.24467651568E-01	1.45260145570E+01
7.50541082164E+10	3.75240763239E-01	4.81787438628E+01	2.31231136939E-04	-1.20806657724E+02	2.45694522640E-04	-1.06450509485E+02	3.24628999407E-01	1.33936650000E+01
7.50601202405E+10	3.84810119011E-01	4.72199122529E+01	2.62912888508E-04	-1.18211886519E+02	2.56855451456E-04	-1.08407900938E+02	3.24007513573E-01	1.19726930926E+01
7.50661322645E+10	3.88785255649E-01	4.54712921252E+01	2.22822314640E-04	-1.19978921127E+02	3.49139326253E-04	-1.06186961025E+02	3.20759658229E-01	8.40383556190E+00
7.50721442886E+10	3.82088693632E-01	4.48878096101E+01	2.92583053325E-04	-1.34696251815E+02	3.51716802170E-04	-1.19220445909E+02	3.17085064410E-01	6.41022565316E+00
7.50781563126E+10	3.82290872044E-01	4.23980505568E+01	2.78905699213E-04	-1.28771141666E+02	3.18959162734E-04	-1.28021916477E+02	3.10862379918E-01	6.23109792512E+00
7.50841683367E+10	3.77915535672E-01	4.21873610439E+01	2.64125818493E-04	-1.38515899528E+02	2.76202833282E-04	-1.33595938137E+02	3.09817505774E-01	4.31065439816E+00
7.50901803607E+10	3.83322977887E-01	4.10302403101E+01	2.49912796138E-04	-1.50598123156E+02	3.54957889194E-04	-1.35956144919E+02	3.07661461263E-01	2.25838083158E+00
7.50961923848E+10	3.87928563953E-01	4.02145938749E+01	2.67350071171E-04	-1.47549696974E+02	3.39679121605E-04	-1.44725121293E+02	2.98540040385E-01	-1.26019570337E-01
7.51022044088E+10	3.83644760428E-01	3.79288783855E+01	2.73450846326E-04	-1.47642847642E+02	3.37218562843E-04	-1.51326062810E+02	2.95767348047E-01	-1.58588238570E+00
7.51082164329E+10	3.80889560543E-01	3.68281824102E+01	2.29891182157E-04	-1.63371170600E+02	3.93121359552E-04	-1.46574601804E+02	2.91858821707E-01	-3.71527213204E+00
7.51142284569E+10	3.79566717334E-01	3.66812197139E+01	3.18386561673E-04	-1.69421016922E+02	3.91264805113E-04	-1.59949496452E+02	2.86426850833E-01	-5.77758791639E+00
7.51202404810E+10	3.84767642893E-01	3.39134499717E+01	3.25911763299E-04	-1.66101421003E+02	3.39773373965E-04	-1.65378380453E+02	2.79849736796E-01	-7.18028274236E+00
7.51262525050E+10	3.82145560353E-01	3.24603325853E+01	2.49957364200E-04	-1.76991547792E+02	4.03917917691E-04	-1.66166988294E+02	2.70658366306E-01	-8.69159564481E+00
7.51322645291E+10	3.86497648714E-01	3.06201947073E+01	2.92738312353E-04	-1.70865530214E+02	3.95179758308E-04	1.79836737328E+02	2.67850430316E-01	-9.98516422083E+00
7.51382765531E+10	3.86728282840E-01	2.99117230702E+01	2.85930660364E-04	1.72296662440E+02	3.78447008345E-04	1.78929809064E+02	2.62001871319E-01	-1.30303302956E+01
7.51442885772E+10	3.85070761835E-01	2.89801397205E+01	2.49988980186E-04	1.60241786393E+02	3.85027859594E-04	1.68207261887E+02	2.58502028066E-01	-1.41091719233E+01
7.51503006012E+10	3.83048985087E-01	2.85835909710E+01	3.20857239251E-04	1.64769054632E+02	4.25290977146E-04	1.59062288661E+02	2.48933044265E-01	-1.60152573242E+01
7.51563126253E+10	3.81196349938E-01	2.64084352082E+01	2.71484261970E-04	1.47805860986E+02	3.89607410734E-04	1.59404783678E+02	2.41080613793E-01	-1.64041217258E+01
7.51623246493E+10	3.92243696435E-01	2.46307172745E+01	2.54324986343E-04	1.54073040132E+02	4.52737996355E-04	1.41059605539E+02	2.34070266774E-01	-1.68112354776E+01
7.51683366733E+10	3.85561795036E-01	2.36392268046E+01	2.56565433238E-04	1.57708453859E+02	3.15337045232E-04	1.47043674448E+02	2.29339084501E-01	-1.75124264704E+01
7.51743486974E+10	3.99382735439E-01	2.10075411809E+01	2.92278303822E-04	1.45821150431E+02	4.33872399205E-04	1.44500802129E+02	2.23657809434E-01	-2.01430815867E+01
7.51803607214E+10	3.93215610060E-01	2.21811207376E+01	3.04646765696E-04	1.33160435451E+02	4.10295865016E-04	1.31809930207E+02	2.14650047370E-01	-2.04721766799E+01
7.51863727455E+10	3.99498311350E-01	1.93599686387E+01	2.74582534338E-04	1.39042884701E+02	4.37210628624E-04	1.19853409979E+02	2.08674275928E-01	-2.01789162673E+01
7.51923847695E+10	3.92926299512E-01	1.78022649447E+01	3.45255284648E-04	1.31069423388E+02	4.63856650706E-04	1.24127198625E+02	2.05112954702E-01	-2.02924285807E+01
7.51983967936E+10	3.97640562803E-01	1.70537129771E+01	3.24626033345E-04	1.22166499254E+02	5.07760565927E-04	1.04841027889E+02	1.98359716878E-01	-1.98655302082E+01
7.52044088176E+10	4.07441934192E-01	1.52366151376E+01	3.20435768778E-04	1.13505990530E+02	4.32179633931E-04	1.04363979581E+02	1.93610254599E-01	-2.00069213958E+01
7.52104208417E+10	4.00641263527E-01	1.42783514611E+01	2.79557104006E-04	1.11008115886E+02	4.31826252247E-04	1.08732054749E+02	1.88835613877E-01	-2.01153498620E+01
7.52164328657E+10	4.05538561928E-01	1.27750052907E+01	3.34850769024E-04	1.02621236219E+02	4.72115483399E-04	8.54294437103E+01	1.86929442751E-01	-1.99215756559E+01
7.52224448898E+10	4.05257943510E-01	1.09742095643E+01	2.88282179878E-04	9.21210878235E+01	4.22269649666E-04	9.11349850483E+01	1.80903218227E-01	-1.75632829982E+01
7.52284569138E+10	4.17572773955E-01	9.08612768056E+00	3.25514132236E-04	9.02476617864E+01	4.73225628345E-04	8.14099183758E+01	1.80521682095E-01	-1.84232715924E+01
7.52344689379E+10	4.06661205353E-01	8.87507320791E+00	2.99149729744E-04	8.50259259675E+01	4.24826478508E-04	7.52954287849E+01	1.79756766069E-01	-1.72512273729E+01
7.52404809619E+10	4.17670647615E-01	7.53835281050E+00	3.22019701425E-04	7.66802722023E+01	4.32479229291E-04	6.19284868106E+01	1.81507652800E-01	-1.69703243027E+01
7.52464929860E+10	4.14879522701E-01	6.72454886403E+00	3.15621688897E-04	6.47517568688E+01	4.34012295770E-04	5.83996688093E+01	1.81757860096E-01	-1.57293196790E+01
7.52525050100E+10	4.12958010230E-01	3.97047489315E+00	2.94104526018E-04	6.11592677018E+01	4.29012486322E-04	4.59745525663E+01	1.81567587793E-01	-1.49850636942E+01
7.52585170341E+10	4.16901866188E-01	2.99957499246E+00	3.37268763030E-04	5.81961865511E+01	4.25537030039E-04	4.95082196155E+01	1.87355038993E-01	-1.57156881540E+01
7.52645290581E+10	4.26686536668E-01	1.37043583742E+00	2.90072728143E-04	6.49746002716E+01	4.20350896745E-04	4.23250693642E+01	1.89702410323E-01	-1.44320154196E+01
7.52705410822E+10	4.18424013592E-01	1.87762730967E+00	2.46122033865E-04	5.38147903330E+01	3.54339451147E-04	4.17656392253E+01	1.91059415224E-01	-1.39794689394E+01
7.52765531062E+10	4.24010680570E-01	-9.99868722577E-01	2.75272653623E-04	4.03812481394E+01	3.78943566299E-04	2.65091838267E+01	1.93220563746E-01	-1.36898601614E+01
7.52825651303E+10	4.21578380785E-01	-2.15175125947E+00	2.66986813460E-04	5.40062984866E+01	2.87580824223E-04	3.53720219809E+01	1.97940844302E-01	-1.34867616364E+01
7.52885771543E+10	4.34723834011E-01	-4.59683803291E+00	3.47168248856E-04	2.97325194486E+01	3.61103168157E-04	1.92771672019E+01	2.06188549619E-01	-1.47055067872E+01
7.52945891784E+10	4.44839695463E-01	-6.12263495810E+00	2.90195441473E-04	2.10413348895E+01	3.90083055574E-04	8.17903945885E+00	2.13103017596E-01	-1.51898937148E+01
7.53006012024E+10	4.38910012135E-01	-6.41558995930E+00	2.97774817204E-04	2.25598410506E+01	3.44305559559E-04	7.36924247748E+00	2.16845688170E-01	-1.55518431726E+01
7.53066132265E+10	4.36883213889E-01	-8.20296570085E+00	2.74139450638E-04	1.44689844069E+01	3.22138559221E-04	8.88908388374E-01	2.18047808970E-01	-1.43442374465E+01
7.53126252505E+10	4.42271080427E-01	-1.02401284255E+01	2.97727799213E-04	7.50280791374E+00	3.28099032567E-04	7.38357163729E-01	2.24613222656E-01	-1.67087960445E+01
7.53186372745E+10	4.57649780895E-01	-1.25087990907E+01	3.09309817016E-04	1.46998382494E+01	2.75341079069E-04	2.25789474290E+00	2.33430021277E-01	-1.81931960892E+01
7.53246492986E+10	4.57688071915E-01	-1.34428769695E+01	3.09547312364E-04	-1.69559710543E+00	3.51947664522E-04	-1.72875869047E+01	2.38639577149E-01	-1.73774979073E+01
7.53306613226E+10	4.58720222739E-01	-1.45298520425E+01	2.36632584950E-04	-7.00032475480E+00	3.54086840191E-04	-2.07720438115E+01	2.49144097355E-01	-1.98678386943E+01
7.53366733467E+10	4.54753414954E-01	-1.59911561149E+01	2.68358928151E-04	4.06809948138E+00	3.23930463366E-04	-3.08660865040E+01	2.50814828739E-01	-2.15863615819E+01
7.53426853707E+10	4.59266485914E-01	-1.67354499391E+01	2.37302627380E-04	-1.32537731450E+01	3.19764980085E-04	-2.15306668099E+01	2.55333513021E-01	-2.06358716718E+01
7.53486973948E+10	4.85561097383E-01	-2.06047400829E+01	3.35388007920E-04	-1.52820434726E+01	2.86664625954E-04	-4.29117575952E+01	2.62510045842E-01	-2.23317554883E+01
7.53547094188E+10	4.73329473713E-01	-2.03987509844E+01	2.97536462165E-04	-2.78929948909E+01	3.11385823879E-04	-3.54229967016E+01	2.72557816852E-01	-2.48296284705E+01
7.53607214429E+10	4.78783489854E-01	-2.20980732309E+01	3.30556579554E-04	-2.86314902577E+01	3.15442351789E-04	-3.67547479688E+01	2.80138057655E-01	-2.67236785796E+01
7.53667334669E+10	4.84821047277E-01	-2.40050643481E+01	2.33607614587E-04	-4.30353477189E+01	3.69839545345E-04	-5.28866074388E+01	2.82341239066E-01	-2.70887286394E+01
7.53727454910E+10	4.94976730039E-01	-2.58219699382E+01	2.84633033664E-04	-4.23946364309E+01	3.60379521387E-04	-5.98527747941E+01	2.91450946522E-01	-2.88599338560E+01
7.53787575150E+10	4.99423715484E-01	-2.82446439869E+01	2.90012575491E-04	-5.24294189998E+01	3.44365013686E-04	-7.39162337965E+01	3.00902195294E-01	-3.14420888930E+01
7.53847695391E+10	4.97194769511E-01	-2.81170099224E+01	2.51394990270E-04	-5.45724561491E+01	3.24431239838E-04	-6.18405291253E+01	3.08859488532E-01	-3.30486357224E+01
7.53907815631E+10	5.11571762099E-01	-3.12825580383E+01	2.80896596927E-04	-6.54582926535E+01	2.71583643467E-04	-7.10347547759E+01	3.15304375953E-01	-3.47728414603E+01
7.53967935872E+10	5.18001820647E-01	-3.28278698147E+01	2.86387580729E-04	-7.12784092092E+01	2.82205595955E-04	-8.18925218427E+01	3.23147101131E-01	-3.55104148402E+01
7.54028056112E+10	5.22482331180E-01	-3.44167887416E+01	3.62192412773E-04	-6.65880659048E+01	2.75162766358E-04	-7.91134301728E+01	3.32468251053E-01	-3.78076157628E+01
7.54088176353E+10	5.15509355110E-01	-3.49995619657E+01	2.95875120636E-04	-6.15857977588E+01	2.47981762499E-04	-9.59559413110E+01	3.40067992979E-01	-4.02805679787E+01
7.54148296593E+10	5.14898781403E-01	-3.50811337245E+01	2.39768083951E-04	-8.13631964247E+01	3.27733417909E-04	-8.49353682559E+01	3.44240029457E-01	-4.23412770852E+01
7.54208416834E+10	5.51557298181E-01	-4.00885805674E+01	3.29531270570E-04	-7.05376131292E+01	3.79589171960E-04	-1.06715617528E+02	3.56678490181E-01	-4.38928729532E+01
7.54268537074E+10	5.55380193662E-01	-4.18695070054E+01	3.39689639854E-04	-8.93038382367E+01	3.80714906010E-04	-1.06582055311E+02	3.68164093371E-01	-4.61125731169E+01
7.54328657315E+10	5.57951791936E-01	-4.36402899162E+01	3.49366264421E-04	-1.03100743064E+02	2.95663012978E-04	-1.05925974477E+02	3.72254208088E-01	-4.76441457797E+01
7.54388777555E+10	5.50358060756E-01	-4.36806145210E+01	3.41976888978E-04	-1.12639620359E+02	4.08251070229E-04	-1.13227357791E+02	3.78595158444E-01	-4.98446887059E+01
7.54448897796E+10	5.68202680430E-01	-4.70767049476E+01	3.68279016970E-04	-1.08810054767E+02	3.44252808242E-04	-1.18345977174E+02	3.98538969111E-01	-5.39195644015E+01
7.54509018036E+10	6.03647410043E-01	-5.08978906959E+01	3.74448871315E-04	-1.07225410554E+02	4.46206095180E-04	-1.21727005423E+02	4.05211647095E-01	-5.54321299476E+01
7.54569138277E+10	5.96270980648E-01	-5.14060029738E+01	4.44540212157E-04	-1.22299888215E+02	3.30702865470E-04	-1.17483596084E+02	4.14572763329E-01	-5.78371784880E+01
7.54629258517E+10	6.05121248496E-01	-5.28674904759E+01	3.87888943041E-04	-1.16264190864E+02	4.37579829099E-04	-1.26733729968E+02	4.31855358068E-01	-6.12519469516E+01
7.54689378758E+10	6.13564585027E-01	-5.53856040427E+01	4.93169609510E-04	-1.28886763566E+02	4.65564789775E-04	-1.28718633266E+02	4.43276513701E-01	-6.37053133100E+01
7.54749498998E+10	6.27428952795E-01	-5.71094292836E+01	5.01743032111E-04	-1.34096764505E+02	4.21183054703E-04	-1.38059411769E+02	4.47593985368E-01	-6.48570759991E+01
7.54809619238E+10	6.38763684969E-01	-5.93694923354E+01	5.13558526160E-04	-1.36957833678E+02	4.92095713720E-04	-1.55561892584E+02	4.60133151515E-01	-6.78720241128E+01
7.54869739479E+10	6.63188554706E-01	-6.26757930733E+01	4.35493351731E-04	-1.45036143520E+02	5.08168226267E-04	-1.55566357891E+02	4.82061851358E-01	-7.30543868973E+01
7.54929859719E+10	6.63328962994E-01	-6.36775720330E+01	5.02266719730E-04	-1.55135072615E+02	5.47596508273E-04	-1.66067226322E+02	4.97159100741E-01	-7.59684162049E+01
7.54989979960E+10	6.65314114325E-01	-6.52902803894E+01	5.21074293664E-04	-1.61736540920E+02	6.06939788047E-04	-1.78456100585E+02	5.00196196628E-01	-7.72258900906E+01
7.55050100200E+10	6.94819123377E-01	-6.87974762666E+01	5.19188184437E-04	-1.63438331939E+02	5.62051915475E-04	-1.75114259109E+02	5.17384752366E-01	-8.09182874409E+01
7.55110220441E+10	7.03241065243E-01	-7.03764312925E+01	5.19681049703E-04	-1.72829733114E+02	4.64837105590E-04	1.79498124058E+02	5.27630320992E-01	-8.41790491739E+01
7.55170340681E+10	7.22041574891E-01	-7.35745313566E+01	4.64087390433E-04	1.79865242396E+02	4.45344578724E-04	1.74685806474E+02	5.47303693010E-01	-8.85419408025E+01
7.55230460922E+10	7.43683468849E-01	-7.65486347005E+01	5.12495991485E-04	-1.79434787704E+02	5.03347157824E-04	1.64935009227E+02	5.59807877810E-01	-9.21386621956E+01
7.55290581162E+10	7.62265556684E-01	-7.94893331452E+01	5.27249083947E-04	-1.79337001580E+02	5.10803817742E-04	1.62471117819E+02	5.72220343965E-01	-9.58672601121E+01
7.55350701403E+10	7.94063542038E-01	-8.32695134122E+01	5.70962493782E-04	1.71882251574E+02	6.58671797515E-04	1.52390105068E+02	5.71213465827E-01	-9.74204487245E+01
7.55410821643E+10	8.07208202654E-01	-8.55607927183E+01	7.60327545139E-04	1.58277864775E+02	7.00259726526E-04	1.51971073317E+02	6.00308828966E-01	-1.04378645493E+02
7.55470941884E+10	7.93241070368E-01	-8.54926223208E+01	5.66501249310E-04	1.58944160143E+02	6.74086218729E-04	1.40652598055E+02	6.04974271472E-01	-1.07288473842E+02
7.55531062124E+10	8.08199787967E-01	-8.81127614731E+01	6.68246598407E-04	1.54473835172E+02	6.07776628044E-04	1.31339440079E+02	6.16048540259E-01	-1.11761911975E+02
7.55591182365E+10	8.62633195941E-01	-9.47352559322E+01	6.62451802480E-04	1.40500988883E+02	6.20407178858E-04	1.23968715399E+02	6.30154669008E-01	-1.17487265335E+02
7.55651302605E+10	8.45085247132E-01	-9.43600023724E+01	5.80507616736E-04	1.35211491165E+02	5.39360967931E-04	1.28351812568E+02	6.35903950941E-01	-1.21762164705E+02
7.55711422846E+10	8.89089417477E-01	-1.00544037363E+02	6.56204696843E-04	1.34195250293E+02	6.38210566832E-04	1.16625919942E+02	6.42866496062E-01	-1.25691404255E+02
7.55771543086E+10	8.98553715691E-01	-1.02970758367E+02	7.61196352389E-04	1.36934499797E+02	7.79917932786E-04	1.25603393717E+02	6.47866984527E-01	-1.31587582893E+02
7.55831663327E+10	9.13427905725E-01	-1.06232760654E+02	7.51914590336E-04	1.32388381449E+02	7.80887449542E-04	1.09504300413E+02	6.43760247568E-01	-1.34865098770E+02
7.55891783567E+10	9.50174889603E-01	-1.11880581851E+02	8.16203547449E-04	1.16115729927E+02	9.01843321124E-04	9.77633698476E+01	6.48765691481E-01	-1.41635359053E+02
7.55951903808E+10	9.56844962209E-01	-1.14747429919E+02	9.19576757662E-04	1.18363147365E+02	7.84990854937E-04	9.32021018831E+01	6.48983613889E-01	-1.46767747566E+02
7.56012024048E+10	9.96076947117E-01	-1.22580299897E+02	9.68156264001E-04	1.01931304247E+02	8.96675662536E-04	8.23206054600E+01	6.40093123779E-01	-1.49548009313E+02
7.56072144289E+10	9.88192335544E-01	-1.23978267985E+02	1.03666474579E-03	9.43433842423E+01	8.47177229453E-04	7.06423085760E+01	6.32824219773E-01	-1.54768880849E+02
7.56132264529E+10	9.93715047704E-01	-1.26647659800E+02	1.07280211246E-03	8.05363107598E+01	9.47397503702E-04	6.55735943062E+01	6.27305190184E-01	-1.61198388251E+02
7.56192384770E+10	1.00392906544E+00	-1.30670122204E+02	1.07865194106E-03	8.36334112238E+01	9.13214525600E-04	5.74791360382E+01	6.18817870833E-01	-1.65984512751E+02
7.56252505010E+10	1.02012447865E+00	-1.37740874669E+02	1.07313450568E-03	7.50711269641E+01	7.95869619089E-04	4.75781940601E+01	6.08649622100E-01	-1.69570366011E+02
7.56312625251E+10	1.03286895064E+00	-1.44695385043E+02	1.20207197933E-03	5.94698270649E+01	8.90130370265E-04	4.07826196548E+01	5.99089945182E-01	-1.73711968076E+02
7.56372745491E+10	1.02402270977E+00	-1.46774094036E+02	1.28972487680E-03	6.01802189548E+01	9.19218703453E-04	3.75020575388E+01	5.87557065641E-01	-1.75689014463E+02
7.56432865731E+10	1.02707267142E+00	-1.52095075580E+02	1.39173977491E-03	5.17891039006E+01	9.32337319296E-04	2.90241694837E+01	5.79550258634E-01	1.77122805553E+02
7.56492985972E+10	1.01219947316E+00	-1.54178219753E+02	1.18480385846E-03	4.24528590246E+01	9.19907845065E-04	2.42288267098E+01	5.64507401011E-01	1.73708045982E+02
7.56553106212E+10	1.00457550166E+00	-1.60065093552E+02	1.32762350855E-03	3.18630859733E+01	9.09503319929E-04	1.34077783506E+01	5.51446555167E-01	1.67183784440E+02
7.56613226453E+10	9.89688560195E-01	-1.62677399462E+02	1.43199253857E-03	2.66840514740E+01	9.02750265023E-04	7.92160043609E+00	5.41316963440E-01	1.66199571228E+02
7.56673346693E+10	9.80502537910E-01	-1.68804852842E+02	1.41574368829E-03	1.40571367093E+01	8.98281389112E-04	9.49385717628E-01	5.30961647390E-01	1.59043541144E+02
7.56733466934E+10	9.61288960944E-01	-1.74701023316E+02	1.31182542198E-03	9.14212947365E+00	7.79271665576E-04	-9.09138728219E+00	5.16513720756E-01	1.53291650678E+02
7.56793587174E+10	9.47039670384E-01	-1.79297976063E+02	1.36292378866E-03	-4.73408288067E+00	8.58872224081E-04	-1.18005887383E+01	5.04454966065E-01	1.52341725663E+02
7.56853707415E+10	9.23989046169E-01	1.78166736725E+02	1.38142067475E-03	-1.13503485679E+01	7.31642610260E-04	-1.64591832922E+01	4.93721827938E-01	1.47080739648E+02
7.56913827655E+10	9.03612125504E-01	1.73122930116E+02	1.33477312618E-03	-2.09163218028E+01	7.86951959809E-04	-2.28294967734E+01	4.80380615687E-01	1.42786312837E+02
7.56973947896E+10	8.81596703650E-01	1.69967922559E+02	1.36757166129E-03	-2.76953980700E+01	8.48223817372E-04	-3.84692089150E+01	4.65668980365E-01	1.39601231900E+02
7.57034068136E+10	8.62987128712E-01	1.68453060484E+02	1.33101825285E-03	-3.55507958189E+01	8.68095864147E-04	-3.95638383090E+01	4.53586038715E-01	1.34808147574E+02
7.57094188377E+10	8.29614064116E-01	1.60416946987E+02	1.30620687394E-03	-4.59773091799E+01	8.59869975396E-04	-4.70793420037E+01	4.41884787302E-01	1.29271959754E+02
7.57154308617E+10	8.09427307484E-01	1.56692017834E+02	1.34401843267E-03	-5.79367351723E+01	7.97886319642E-04	-5.46835199262E+01	4.33786311089E-01	1.27177372443E+02
7.57214428858E+10	7.91523568458E-01	1.54963285700E+02	1.33475915784E-03	-6.37272914448E+01	7.98671982032E-04	-6.62958334382E+01	4.21842836537E-01	1.22857827283E+02
7.57274549098E+10	7.65958801924E-01	1.50647134048E+02	1.13699960782E-03	-7.15853042158E+01	6.51525911288E-04	-7.15281252034E+01	4.04461884932E-01	1.17011309680E+02
7.57334669339E+10	7.43931119360E-01	1.47071980518E+02	1.06735416800E-03	-7.80572777696E+01	6.90014565749E-04	-6.89989713668E+01	3.93344489816E-01	1.11227992357E+02
7.57394789579E+10	7.29430278261E-01	1.46552590584E+02	1.11938728971E-03	-8.67355257805E+01	6.71186243036E-04	-7.71421591043E+01	3.84671830763E-01	1.07727796387E+02
7.57454909820E+10	7.02942677518E-01	1.41496499604E+02	1.00531650679E-03	-8.79996132107E+01	6.93054984761E-04	-8.11849349315E+01	3.73250419844E-01	1.06060348533E+02
7.57515030060E+10	6.83447588947E-01	1.38019679088E+02	9.77907969708E-04	-9.51911092177E+01	7.14484600718E-04	-8.82073385666E+01	3.63865259103E-01	9.98342553486E+01
7.57575150301E+10	6.67881658996E-01	1.35907694934E+02	1.04585427894E-03	-1.07638813615E+02	6.51098305677E-04	-1.03830524934E+02	3.49894532819E-01	9.48622832303E+01
7.57635270541E+10	6.46835639218E-01	1.33332473077E+02	9.69260277589E-04	-1.19263966553E+02	6.42398764718E-04	-1.11639433643E+02	3.39134731286E-01	9.03631934748E+01
7.57695390782E+10	6.30385351778E-01	1.30842245234E+02	9.68703568197E-04	-1.25429349177E+02	6.26246638436E-04	-1.17834854458E+02	3.34352265530E-01	8.77208350543E+01
7.57755511022E+10	6.01992735347E-01	1.24247730280E+02	8.83404504525E-04	-1.33994328528E+02	6.45209137189E-04	-1.21897277170E+02	3.22833219130E-01	8.38777835242E+01
7.57815631263E+10	6.06662684809E-01	1.27871968195E+02	8.38627438273E-04	-1.38856723029E+02	5.67645473633E-04	-1.35513092991E+02	3.10553342663E-01	7.88596986992E+01
7.57875751503E+10	5.76432333354E-01	1.21801485210E+02	7.81448790932E-04	-1.48256385301E+02	5.23197355498E-04	-1.40609876796E+02	3.00746388697E-01	7.29557845069E+01
7.57935871743E+10	5.70639662481E-01	1.20211995866E+02	7.57492382051E-04	-1.55861592797E+02	5.01167620218E-04	-1.37018267401E+02	2.94550202568E-01	6.88892569758E+01
7.57995991984E+10	5.40544265946E-01	1.14999512409E+02	6.95206253440E-04	-1.69150607752E+02	4.82166408258E-04	-1.44710017512E+02	2.86598069182E-01	6.51409000721E+01
7.58056112224E+10	5.38466848536E-01	1.15095452788E+02	7.01972648008E-04	1.78352190286E+02	4.13680841622E-04	-1.63049874595E+02	2.74387023689E-01	5.98393114326E+01
7.58116232465E+10	5.27108441693E-01	1.12058612117E+02	6.18366648110E-04	1.75944227667E+02	4.06289299616E-04	-1.64114919879E+02	2.65098517794E-01	5.58208491516E+01
7.58176352705E+10	5.09614629031E-01	1.09644644124E+02	5.25120657714E-04	1.64642313672E+02	3.59091450781E-04	-1.72874245178E+02	2.55304542438E-01	5.04233162449E+01
7.58236472946E+10	4.90214888803E-01	1.03612551339E+02	4.28215052972E-04	1.64972531038E+02	3.25839962296E-04	-1.77734482889E+02	2.47298101242E-01	4.53830404189E+01
7.58296593186E+10	4.85950424255E-01	1.04267848843E+02	3.81504703910E-04	1.49541052127E+02	2.91441569548E-04	1.63470408435E+02	2.40058059788E-01	4.09977321987E+01
7.58356713427E+10	4.76185311422E-01	1.02104467492E+02	3.51299380384E-04	1.31406234867E+02	2.20212256667E-04	1.65312845652E+02	2.26705614714E-01	3.55446361361E+01
7.58416833667E+10	4.66546446696E-01	1.00107340495E+02	2.30262877172E-04	1.26536344521E+02	2.15859226470E-04	1.46848675989E+02	2.14478951024E-01	3.02967752333E+01
7.58476953908E+10	4.49157781473E-01	9.53127012445E+01	1.83688670374E-04	1.14977783089E+02	1.44130090144E-04	1.21748727835E+02	2.01514077274E-01	2.41967319266E+01
7.58537074148E+10	4.48228952113E-01	9.41257158974E+01	1.07286881765E-04	8.43170564174E+01	8.43504140690E-05	1.40189439847E+02	1.92529971398E-01	1.92586835027E+01
7.58597194389E+10	4.38470662797E-01	9.14371671594E+01	5.36961794523E-05	1.49679884387E+00	4.61311671826E-05	1.65370943399E+01	1.76298646485E-01	1.43015422510E+01
7.58657314629E+10	4.31621447808E-01	9.12880142495E+01	1.13923086708E-04	-3.39228886380E+01	6.82303721149E-05	-7.66389450835E+01	1.63619846352E-01	1.11338951935E+01
7.58717434870E+10	4.13112677442E-01	8.65632128838E+01	1.33458639076E-04	-5.38183753050E+01	1.72489454301E-04	-6.07666603715E+01	1.49051811847E-01	8.89704875472E+00
7.58777555110E+10	4.12358399046E-01	8.56061752784E+01	1.91828021526E-04	-1.11865052830E+02	9.32295130884E-05	-1.09878143771E+02	1.36670603250E-01	7.23098596619E+00
7.58837675351E+10	3.96018063470E-01	8.08271786924E+01	2.13418130216E-04	-1.14335622692E+02	2.20803975760E-04	-9.81413195374E+01	1.24407774566E-01	6.89348483185E+00
7.58897795591E+10	3.96553232811E-01	8.11472294682E+01	2.40624544307E-04	-1.25581732185E+02	2.76804231795E-04	-1.12307633810E+02	1.17986968245E-01	9.92146511853E+00
7.58957915832E+10	3.87357835483E-01	7.75021145355E+01	2.85987979229E-04	-1.45297563468E+02	3.02633161220E-04	-1.08980216756E+02	1.15300268448E-01	1.13642653314E+01
7.59018036072E+10	3.82944341063E-01	7.49659282524E+01	3.11711329402E-04	-1.46857409420E+02	2.99279433621E-04	-1.22483320763E+02	1.18580016321E-01	1.14800437679E+01
7.59078156313E+10	3.75253153557E-01	7.34214631073E+01	3.73010963556E-04	-1.52341550888E+02	3.38334482844E-04	-1.38584446247E+02	1.23699672867E-01	1.16629699137E+01
7.59138276553E+10	3.65136177429E-01	6.97461176119E+01	2.86394824822E-04	-1.70111474830E+02	3.63080862674E-04	-1.41685692527E+02	1.28819947012E-01	1.09718488338E+01
7.59198396794E+10	3.68018561410E-01	6.83981726477E+01	3.22171888458E-04	-1.70983549485E+02	3.52749983093E-04	-1.50592147961E+02	1.34193992572E-01	8.52094114253E+00
7.59258517034E+10	3.61027741010E-01	6.66217899601E+01	3.19783941091E-04	-1.66635835797E+02	2.67355597542E-04	-1.59799906195E+02	1.39720702764E-01	5.06263459850E+00
7.59318637275E+10	3.52733498392E-01	6.40806833459E+01	2.60046258650E-04	-1.70256673692E+02	3.13959747460E-04	-1.59938215135E+02	1.44840455021E-01	2.31520972590E+00
7.59378757515E+10	3.42986109543E-01	6.26677232875E+01	2.89283443982E-04	1.73418777550E+02	3.43810224410E-04	-1.71434915385E+02	1.46776478188E-01	-2.26348317336E-01
7.59438877756E+10	3.46545616683E-01	5.99961338052E+01	2.95163443625E-04	-1.73296180451E+02	3.12819554716E-04	-1.54583254197E+02	1.52365280939E-01	-2.63236357767E+00
7.59498997996E+10	3.43526994428E-01	5.73790811667E+01	3.62549178920E-04	1.73132211989E+02	3.63219535748E-04	-1.61413198872E+02	1.55803537198E-01	-6.40454255216E+00
7.59559118236E+10	3.37302295835E-01	5.49657707283E+01	4.08145931573E-04	1.77724941254E+02	4.91035293423E-04	-1.64713437778E+02	1.59586247195E-01	-8.90538268223E+00
7.59619238477E+10	3.27572659454E-01	5.14788487669E+01	4.25813054465E-04	1.70707560881E+02	4.83277036929E-04	-1.76992976636E+02	1.63242395819E-01	-1.22606107688E+01
7.59679358717E+10	3.26717819075E-01	5.07741344235E+01	4.53788216092E-04	1.60566175860E+02	5.12935101235E-04	1.73992044495E+02	1.68784358732E-01	-1.57290705907E+01
7.59739478958E+10	3.26911788186E-01	5.01717271158E+01	4.68139156839E-04	1.53487160089E+02	4.90296083964E-04	1.66270693399E+02	1.75386584492E-01	-1.85594395287E+01
7.59799599198E+10	3.21925064258E-01	4.57316779401E+01	4.44674101279E-04	1.40250127966E+02	5.75967821030E-04	1.60355012936E+02	1.82617839000E-01	-2.03822727211E+01
7.59859719439E+10	3.10289044467E-01	4.36163198894E+01	4.69660083230E-04	1.32425971305E+02	5.11326798113E-04	1.51597985235E+02	1.86437162416E-01	-2.34886027426E+01
7.59919839679E+10	3.14770421746E-01	4.08152679577E+01	4.10987412936E-04	1.28525501022E+02	5.15206157255E-04	1.43017814020E+02	1.95304848988E-01	-2.82805769993E+01
7.59979959920E+10	3.13258374504E-01	3.93434599790E+01	4.44916122389E-04	1.24274932182E+02	5.04167811890E-04	1.43131099908E+02	1.99465765630E-01	-3.16511476766E+01
7.60040080160E+10	3.06150280324E-01	3.75494719849E+01	4.49043330070E-04	1.20088086925E+02	4.75104398791E-04	1.34751496979E+02	2.10342574984E-01	-3.58090588494E+01
7.60100200401E+10	3.04199010862E-01	3.37814986548E+01	5.10907253610E-04	1.06735700791E+02	5.28609859628E-04	1.26452451770E+02	2.13696649931E-01	-3.88217442448E+01
7.60160320641E+10	2.99248226277E-01	3.40318895082E+01	4.76182018904E-04	1.00031251651E+02	5.71474086629E-04	1.17911699388E+02	2.23832576705E-01	-4.17855764553E+01
7.60220440882E+10	2.97591323655E-01	3.07388550216E+01	5.04650153299E-04	9.36605730709E+01	5.63905444338E-04	1.14514207383E+02	2.28986664022E-01	-4.45454212041E+01
7.60280561122E+10	2.96719068706E-01	2.76932962932E+01	4.02330607836E-04	8.31966600567E+01	5.45098782451E-04	1.05069282379E+02	2.34318004481E-01	-4.98017767637E+01
7.60340681363E+10	2.96451101147E-01	2.63179051411E+01	3.66846098275E-04	7.97073473078E+01	5.26646812561E-04	1.01364269384E+02	2.37308214217E-01	-5.13968968012E+01
7.60400801603E+10	2.93767836627E-01	2.41015815913E+01	3.67111825910E-04	7.80077436426E+01	4.74677740570E-04	9.54457793143E+01	2.49140949297E-01	-5.73033448023E+01
7.60460921844E+10	2.90207901246E-01	2.35663325918E+01	3.85462534818E-04	7.26786824525E+01	5.15929126631E-04	8.70798999282E+01	2.54871211805E-01	-6.03888532247E+01
7.60521042084E+10	2.85834069223E-01	1.98293368031E+01	3.62498614536E-04	6.31539609239E+01	4.54496439392E-04	8.68308571937E+01	2.56437810296E-01	-6.15306528844E+01
7.60581162325E+10	2.87110969441E-01	1.66786910797E+01	3.45258909201E-04	7.31558804885E+01	5.06136499867E-04	8.30852302254E+01	2.66187611874E-01	-6.67357957701E+01
7.60641282565E+10	2.91515406283E-01	1.43417390944E+01	4.16583880362E-04	6.22196377053E+01	5.44001950711E-04	6.43188035339E+01	2.69843563248E-01	-7.04399458195E+01
7.60701402806E+10	2.86325201896E-01	1.23089843993E+01	4.15693617550E-04	4.96284204626E+01	5.15785174429E-04	5.40531350772E+01	2.73314386934E-01	-7.22277210883E+01
7.60761523046E+10	2.86024923474E-01	8.75332827530E+00	4.21924799807E-04	4.26609537793E+01	5.68360548329E-04	5.73901274939E+01	2.75459599919E-01	-7.37553676425E+01
7.60821643287E+10	2.88536764781E-01	8.18269876224E+00	3.54714735870E-04	3.83563028672E+01	5.13351644737E-04	4.97178291581E+01	2.81234037057E-01	-7.64140957904E+01
7.60881763527E+10	2.86678333771E-01	5.88262530861E+00	3.24068982877E-04	3.15258014540E+01	4.96909543337E-04	3.33499393252E+01	2.89569657525E-01	-7.89999549419E+01
7.60941883768E+10	2.80574379681E-01	3.06805260350E+00	3.75055026495E-04	2.81363051790E+01	4.92668635646E-04	2.88677332559E+01	2.95271860772E-01	-8.01267544834E+01
7.61002004008E+10	2.85671625829E-01	-1.05428479220E-02	3.11534063993E-04	2.04918189625E+01	4.14946560327E-04	2.62082561749E+01	3.06850510906E-01	-8.19248057129E+01
7.61062124248E+10	2.90379826371E-01	-2.95895649015E+00	3.23988710238E-04	8.41678695694E+00	4.63693725592E-04	1.62899260709E+01	3.19889774022E-01	-8.35014459613E+01
7.61122244489E+10	2.82055680910E-01	-5.60575869507E+00	2.99855088170E-04	3.38900188793E+00	4.08290952333E-04	1.19689739268E+01	3.33758910299E-01	-8.52259506932E+01
7.61182364729E+10	2.87566089006E-01	-7.27927532331E+00	2.60263270731E-04	1.57732329002E+00	3.66413009984E-04	2.20992915075E+00	3.54230991395E-01	-8.75455339920E+01
7.61242484970E+10	2.83340259631E-01	-9.33183000616E+00	2.70799016646E-04	-5.70556108697E+00	3.78114805428E-04	-1.25664311487E+01	3.73232065484E-01	-8.94452850563E+01
7.61302605210E+10	2.85427781920E-01	-1.20208596474E+01	2.78638883857E-04	-8.06392725446E+00	4.14411438568E-04	-1.46740431131E+01	3.90915794917E-01	-9.06927641016E+01
7.61362725451E+10	2.86425657798E-01	-1.62118234498E+01	2.60935851487E-04	-2.18012322158E+01	2.79629307195E-04	-1.66944750589E+01	4.19859141786E-01	-9.47486045249E+01
7.61422845691E+10	2.93208200832E-01	-1.96757618904E+01	1.82117477009E-04	-2.71520540865E+01	3.64110672228E-04	-1.70461686364E+01	4.41418498209E-01	-9.68454983926E+01
7.61482965932E+10	2.86372576108E-01	-2.04999515788E+01	2.41978334515E-04	-3.08417772802E+01	2.80084996144E-04	-2.08194616025E+01	4.72333842497E-01	-1.00049056461E+02
7.61543086172E+10	2.96390876568E-01	-2.28570456475E+01	2.14385132264E-04	-3.28334859787E+01	3.26884519929E-04	-2.90831022839E+01	5.01038863975E-01	-1.03164853632E+02
7.61603206413E+10	2.93762494969E-01	-2.51507318065E+01	2.15938699261E-04	-4.36823356778E+01	2.68104440994E-04	-3.22422731931E+01	5.43834895640E-01	-1.08613329087E+02
7.61663326653E+10	2.93459623688E-01	-2.73714707324E+01	2.49985665134E-04	-4.98580895982E+01	2.69661144093E-04	-4.93795980771E+01	5.60667725919E-01	-1.10307479446E+02
7.61723446894E+10	3.01739984390E-01	-3.16095124108E+01	2.39485663616E-04	-4.32526992362E+01	2.68458932935E-04	-3.49629350540E+01	5.98982801733E-01	-1.14819432346E+02
7.61783567134E+10	3.05467323202E-01	-3.56940150040E+01	1.88897225509E-04	-4.94422800695E+01	3.08175352416E-04	-5.08351734160E+01	6.37351309343E-01	-1.19449545975E+02
7.61843687375E+10	3.05600002706E-01	-3.85523639560E+01	2.19994811019E-04	-7.35242663746E+01	3.68028647832E-04	-5.87593043950E+01	6.79017256232E-01	-1.24764206758E+02
7.61903807615E+10	3.07814080745E-01	-4.08747229186E+01	2.58689224928E-04	-6.77872753916E+01	3.19523569504E-04	-7.09014098923E+01	7.18185525540E-01	-1.29525745320E+02
7.61963927856E+10	3.09730270497E-01	-4.18065378565E+01	1.69926249589E-04	-9.84642106805E+01	3.45649563991E-04	-7.43457272052E+01	7.30956364161E-01	-1.31040344626E+02
7.62024048096E+10	3.12159318598E-01	-4.73590513448E+01	1.93906112178E-04	-9.00833298578E+01	3.99979585981E-04	-9.84958477874E+01	7.89210489895E-01	-1.38815495289E+02
7.62084168337E+10	3.15718952758E-01	-4.95205259942E+01	1.85575295649E-04	-9.16528122104E+01	3.42194538467E-04	-1.12309005256E+02	8.31323459740E-01	-1.44672883337E+02
7.62144288577E+10	3.19060902526E-01	-5.06253714815E+01	2.38762679829E-04	-8.85995647341E+01	4.29303313243E-04	-1.05778172452E+02	8.59855907323E-01	-1.49496475432E+02
7.62204408818E+10	3.27860678137E-01	-5.55263162187E+01	2.35350008647E-04	-9.24975426533E+01	2.80019853253E-04	-1.21723342502E+02	8.94099090319E-01	-1.55294318692E+02
7.62264529058E+10	3.37926372350E-01	-6.04052014509E+01	2.46352452512E-04	-1.14356026050E+02	4.13112356833E-04	-1.23193238057E+02	9.14502426083E-01	-1.59424231731E+02
7.62324649299E+10	3.39802429389E-01	-6.31143159775E+01	2.44807358903E-04	-1.19677370938E+02	3.96668593345E-04	-1.55341482252E+02	9.38826512515E-01	-1.65091937714E+02
7.62384769539E+10	3.40915185977E-01	-6.46446488194E+01	2.73103030003E-04	-1.29491711772E+02	3.74580195241E-04	-1.58008496586E+02	9.63156741715E-01	-1.71869676909E+02
7.62444889780E+10	3.47453701997E-01	-6.76614546206E+01	3.14638806746E-04	-1.26121312044E+02	4.69423430353E-04	-1.63899510401E+02	9.81046291838E-01	-1.78483177141E+02
7.62505010020E+10	3.52826938821E-01	-6.91787539079E+01	3.23944362854E-04	-1.41777820780E+02	6.51070976902E-04	-1.66614163265E+02	9.89231955841E-01	1.75320777611E+02
7.62565130261E+10	3.64664314753E-01	-7.44623275068E+01	2.74309161155E-04	-1.45887974081E+02	4.14996946875E-04	1.78643315293E+02	9.93323471502E-01	1.69872198529E+02
7.62625250501E+10	3.76157017741E-01	-7.98308860770E+01	2.81582063285E-04	-1.55336127256E+02	5.09673062756E-04	1.63460170579E+02	9.91078607318E-01	1.64710335474E+02
7.62685370741E+10	3.83776620188E-01	-8.35237764941E+01	3.35859277173E-04	-1.63248761957E+02	5.18143548156E-04	1.59561395268E+02	9.87292188919E-01	1.59112763799E+02
7.62745490982E+10	3.95345956236E-01	-8.79643387572E+01	2.61729386363E-04	-1.74057346767E+02	4.00972054219E-04	1.48582137768E+02	9.75864591432E-01	1.53689862475E+02
7.62805611222E+10	4.08478750829E-01	-9.16147016367E+01	4.18231973277E-04	-1.76938310685E+02	4.11911061849E-04	1.45830179295E+02	9.60274453764E-01	1.46261747711E+02
7.62865731463E+10	4.06774012319E-01	-9.22454829650E+01	3.56313468736E-04	1.74531278210E+02	4.08501968736E-04	1.27889161276E+02	9.48634837274E-01	1.43625022355E+02
7.62925851703E+10	4.17168190938E-01	-9.68687990311E+01	3.67816255433E-04	1.57146165878E+02	5.65686743712E-04	1.21884536790E+02	9.26806952795E-01	1.38215350107E+02
7.62985971944E+10	4.31193964987E-01	-1.01363525879E+02	4.14340713911E-04	1.58773301482E+02	4.75098791560E-04	1.19427487163E+02	9.05861583226E-01	1.33286398496E+02
7.63046092184E+10	4.45786760266E-01	-1.07238819829E+02	4.91610650145E-04	1.44486071906E+02	4.38617668903E-04	1.05798279794E+02	8.81982944697E-01	1.27320010474E+02
7.63106212425E+10	4.56060497935E-01	-1.10409850553E+02	4.78954503714E-04	1.35295884221E+02	4.02871678867E-04	9.75639010939E+01	8.59367606692E-01	1.22759725090E+02
7.63166332665E+10	4.68362239151E-01	-1.14876018516E+02	5.60933925393E-04	1.29867708572E+02	4.81377041186E-04	9.13316089135E+01	8.38827445091E-01	1.19216808785E+02
7.63226452906E+10	4.91994897538E-01	-1.21374428977E+02	4.65868400793E-04	1.32032748830E+02	4.73837474691E-04	8.84164764668E+01	8.23568148139E-01	1.16740008653E+02
7.63286573146E+10	4.96735450126E-01	-1.24491023536E+02	5.18370558230E-04	1.21596583601E+02	4.94804072740E-04	7.64439329924E+01	8.08198327137E-01	1.14225358645E+02
7.63346693387E+10	5.10718744717E-01	-1.29712800489E+02	5.12715542841E-04	9.98652245694E+01	5.42262198561E-04	6.54162811670E+01	7.81654828165E-01	1.08884255551E+02
7.63406813627E+10	5.22537696271E-01	-1.34044574948E+02	5.39790154895E-04	1.05839614675E+02	3.83351129002E-04	5.53947241752E+01	7.56032906770E-01	1.04736675131E+02
7.63466933868E+10	5.36148218706E-01	-1.39241526583E+02	5.06766543124E-04	8.60928865503E+01	4.65793442240E-04	4.91074214820E+01	7.38982381495E-01	1.01680595261E+02
7.63527054108E+10	5.39243932479E-01	-1.41319357776E+02	5.05257774785E-04	7.75417914928E+01	4.67602839767E-04	4.29690456569E+01	7.27366087448E-01	9.94858951143E+01
7.63587174349E+10	5.55726884751E-01	-1.47668426082E+02	5.28504863828E-04	8.28450048785E+01	4.37434075342E-04	2.25298223974E+01	7.12046673154E-01	9.66818063606E+01
7.63647294589E+10	5.71880466955E-01	-1.54497729131E+02	6.43011276876E-04	6.12225864183E+01	4.31927651449E-04	3.97391111304E+01	6.95194710994E-01	9.37795797835E+01
7.63707414830E+10	5.79623705014E-01	-1.59874847148E+02	5.50532482219E-04	5.32275703224E+01	3.65265685067E-04	3.20814698909E+01	6.70900697860E-01	8.93026013483E+01
7.63767535070E+10	5.92971911068E-01	-1.66617206932E+02	6.43298481510E-04	5.43634695450E+01	4.46553333601E-04	2.32114320021E+01	6.56041740479E-01	8.61274276581E+01
7.63827655311E+10	6.01654430126E-01	-1.74164981538E+02	6.42970735431E-04	4.86142224453E+01	3.94560302553E-04	1.53451485361E+01	6.42952624483E-01	8.38387274606E+01
7.63887775551E+10	6.03988329315E-01	-1.77132272005E+02	6.30468184006E-04	4.85519320445E+01	4.06298818592E-04	3.83892325779E+00	6.35265817776E-01	8.25123149680E+01
7.63947895792E+10	6.02204796659E-01	1.77677032885E+02	6.23410520998E-04	3.87848591581E+01	3.36772160972E-04	4.37958083717E+00	6.25953236299E-01	8.09639540902E+01
7.64008016032E+10	6.00712626119E-01	1.74447598989E+02	5.70188559900E-04	3.13152009139E+01	4.51727818747E-04	6.19118272667E+00	6.06383591607E-01	7.73150326088E+01
7.64068136273E+10	6.01478530083E-01	1.69022304862E+02	6.76960974091E-04	1.67433237543E+01	4.06051175800E-04	1.44420943165E+00	5.90628225977E-01	7.39738399410E+01
7.64128256513E+10	6.01423193657E-01	1.60770152034E+02	5.50914230106E-04	1.42064866510E+01	4.46775472728E-04	-2.48729332785E-01	5.84419762581E-01	7.21568195721E+01
7.64188376754E+10	5.96437418995E-01	1.57282506785E+02	6.22200654439E-04	3.60163893791E+00	3.74573921432E-04	-7.48380593978E+00	5.78824397936E-01	7.09290386672E+01
7.64248496994E+10	5.92309984399E-01	1.52038439260E+02	4.69751201136E-04	-3.24147920525E+00	3.76401684993E-04	-1.73709867714E+01	5.62840422475E-01	6.79918033484E+01
7.64308617234E+10	5.87595336039E-01	1.46151568115E+02	6.57381590802E-04	4.05776021722E+00	4.29902601681E-04	-1.66566543709E+01	5.53564947230E-01	6.57704475195E+01
7.64368737475E+10	5.80674577014E-01	1.40270603628E+02	6.18552580533E-04	-9.18104900676E+00	3.74686678728E-04	-1.17863519258E+01	5.50365121422E-01	6.32440145251E+01
7.64428857715E+10	5.72571397872E-01	1.35249336529E+02	6.40991274273E-04	-1.55062911987E+01	3.91130778328E-04	-2.58761942386E+01	5.39095258364E-01	6.11748412325E+01
7.64488977956E+10	5.62439000458E-01	1.32112046249E+02	6.26976334833E-04	-1.52932589109E+01	3.68018238286E-04	-3.32212358423E+01	5.33480930340E-01	6.01398563039E+01
7.64549098196E+10	5.53607825395E-01	1.27931846061E+02	6.56149620969E-04	-1.83685466435E+01	4.42471470995E-04	-2.80643747238E+01	5.26108053880E-01	5.79814408278E+01
7.64609218437E+10	5.42274730711E-01	1.23221646881E+02	6.72105733830E-04	-2.88958331732E+01	4.10458406826E-04	-4.15256752774E+01	5.16667912644E-01	5.57629511431E+01
7.64669338677E+10	5.33530958088E-01	1.18744982406E+02	7.17026800644E-04	-4.35174796037E+01	4.07227523838E-04	-4.21442258060E+01	5.05478898324E-01	5.18049930450E+01
7.64729458918E+10	5.26589806583E-01	1.14900331654E+02	6.65966916722E-04	-4.39877434708E+01	4.82241384705E-04	-4.83066270782E+01	5.05940919011E-01	5.20069474065E+01
7.64789579158E+10	5.19195599114E-01	1.11994362924E+02	6.46872136626E-04	-4.14938137147E+01	4.40336130819E-04	-4.54217950593E+01	4.98011737034E-01	4.99909321161E+01
7.64849699399E+10	5.09616367530E-01	1.07657099518E+02	6.40230416468E-04	-4.88945535839E+01	4.46899024207E-04	-5.05543259703E+01	4.93300725446E-01	4.76850672887E+01
7.64909819639E+10	5.01190173573E-01	1.05538123941E+02	6.53699674946E-04	-6.01615569387E+01	4.64000319491E-04	-5.82447656313E+01	4.84608389257E-01	4.44313820391E+01
7.64969939880E+10	4.88538850092E-01	9.87926247349E+01	7.19436868497E-04	-6.70861498343E+01	4.85039825571E-04	-6.54568073046E+01	4.77376488221E-01	4.28813780096E+01
7.65030060120E+10	4.74828085045E-01	9.38452016209E+01	6.43519767066E-04	-7.27626655328E+01	4.84947741507E-04	-7.57875716009E+01	4.74366790948E-01	4.19784991879E+01
7.65090180361E+10	4.72068305748E-01	9.10401944887E+01	6.64286582150E-04	-7.51876264521E+01	5.26179521523E-04	-7.69826698588E+01	4.70228812368E-01	4.05442534403E+01
7.65150300601E+10	4.68644239162E-01	9.11357530267E+01	6.75477283306E-04	-8.01934364819E+01	4.87681746337E-04	-8.36851213176E+01	4.63808070637E-01	3.77644054417E+01
7.65210420842E+10	4.51179943250E-01	8.40176414846E+01	6.53340550832E-04	-8.95232157042E+01	4.69120093352E-04	-8.72173352475E+01	4.63490984565E-01	3.55679205564E+01
7.65270541082E+10	4.45698028181E-01	8.18999629593E+01	6.82768567047E-04	-9.33745235877E+01	5.00252705803E-04	-8.65530236668E+01	4.61320960049E-01	3.43442204118E+01
7.65330661323E+10	4.42665907060E-01	7.89399569020E+01	5.99405736708E-04	-9.90913660794E+01	4.38112173215E-04	-9.81996554008E+01	4.57314940850E-01	3.22471103162E+01
7.65390781563E+10	4.36425821632E-01	7.66159609661E+01	5.80516656891E-04	-1.08591033370E+02	4.17937052909E-04	-9.32845885454E+01	4.49708416740E-01	3.13221990526E+01
7.65450901804E+10	4.35619529145E-01	7.48656436308E+01	5.33724287426E-04	-9.46452879053E+01	4.16991023583E-04	-1.14539932452E+02	4.46558858889E-01	2.88450591892E+01
7.65511022044E+10	4.27046144687E-01	7.27088738980E+01	5.18394475124E-04	-1.10617921971E+02	4.14012364697E-04	-1.10942019485E+02	4.43007502220E-01	2.69387555740E+01
7.65571142285E+10	4.17984082857E-01	6.84408820804E+01	4.81848969779E-04	-1.13984891190E+02	4.40404710735E-04	-1.13815206417E+02	4.44216982322E-01	2.56580928448E+01
7.65631262525E+10	4.13154125187E-01	6.55977800019E+01	5.01670689028E-04	-1.22933436665E+02	4.42011603583E-04	-1.17832517487E+02	4.42837452167E-01	2.37196144966E+01
7.65691382766E+10	4.07001261108E-01	6.30898075214E+01	5.06354663264E-04	-1.27157536042E+02	4.07275176838E-04	-1.24231510377E+02	4.33727978628E-01	2.22936709040E+01
7.65751503006E+10	4.03050201458E-01	6.06504822045E+01	4.82157413071E-04	-1.28425438114E+02	4.67716397731E-04	-1.29069937159E+02	4.36589430134E-01	2.04227897397E+01
7.65811623246E+10	3.96584416222E-01	5.74274582096E+01	4.77175226958E-04	-1.27735418731E+02	3.75977752947E-04	-1.25291113815E+02	4.35316941349E-01	1.93466339615E+01
7.65871743487E+10	3.92406517676E-01	5.48339059795E+01	4.46659797096E-04	-1.39510534459E+02	3.48626818142E-04	-1.39350272875E+02	4.32374712641E-01	1.65009773493E+01
7.65931863727E+10	3.91498316556E-01	5.50379995782E+01	4.73395893307E-04	-1.43408836392E+02	4.02180309042E-04	-1.39832394045E+02	4.29422425665E-01	1.52665074860E+01
7.65991983968E+10	3.87611672549E-01	5.01259274085E+01	4.62570398455E-04	-1.41991437632E+02	3.50145852315E-04	-1.43462130398E+02	4.29669332850E-01	1.38467398527E+01
7.66052104208E+10	3.82363020307E-01	4.75014626604E+01	4.51845828565E-04	-1.46858269051E+02	3.24438413921E-04	-1.46816350228E+02	4.25095827498E-01	1.15229708510E+01
7.66112224449E+10	3.73759765651E-01	4.47153283541E+01	5.01805478668E-04	-1.54198773781E+02	3.76007231545E-04	-1.48534491616E+02	4.27387557645E-01	9.32951354365E+00
7.66172344689E+10	3.74951108935E-01	4.32182539451E+01	4.40063354547E-04	-1.58487722776E+02	3.10110753875E-04	-1.51480490161E+02	4.25896724661E-01	8.14525391688E+00
7.66232464930E+10	3.74353411673E-01	4.17037022055E+01	4.59555523882E-04	-1.61134210115E+02	3.54400445873E-04	-1.53407063219E+02	4.23546443723E-01	7.12540391540E+00
7.66292585170E+10	3.73024504910E-01	3.99491676750E+01	4.50270371607E-04	-1.53679678795E+02	3.77330254893E-04	-1.62100478675E+02	4.20500514929E-01	4.96575453288E+00
7.66352705411E+10	3.69275188444E-01	3.80585731524E+01	4.84708642790E-04	-1.60792898692E+02	3.79667392582E-04	-1.69926223464E+02	4.18252888407E-01	4.20857577599E+00
7.66412825651E+10	3.64236311752E-01	3.34983824591E+01	4.62794001911E-04	-1.73837223821E+02	3.97645734288E-04	-1.64884140507E+02	4.18469371815E-01	2.21655621504E+00
7.66472945892E+10	3.62259832381E-01	3.35093460860E+01	4.47966902049E-04	1.79775888900E+02	3.56019934621E-04	-1.69701651550E+02	4.21301415405E-01	7.07964145795E-01
7.66533066132E+10	3.61031131319E-01	3.02306967541E+01	4.21071375959E-04	1.77054445934E+02	3.36894549195E-04	-1.74431555372E+02	4.23855517420E-01	-1.41155749693E+00
7.66593186373E+10	3.53019779766E-01	2.79589270092E+01	3.69301616851E-04	1.68613171904E+02	3.57766637173E-04	-1.75020111076E+02	4.18795941012E-01	-3.16502029513E+00
7.66653306613E+10	3.55923514073E-01	2.70502074534E+01	4.43174006331E-04	1.68766840090E+02	3.32495633172E-04	1.78557707813E+02	4.21341315997E-01	-4.59577742501E+00
7.66713426854E+10	3.57010098528E-01	2.44298267128E+01	4.03772539917E-04	1.61625924613E+02	3.32870189082E-04	1.72738257629E+02	4.22241013472E-01	-6.22771137041E+00
7.66773547094E+10	3.56417048609E-01	2.26052509978E+01	4.42752333962E-04	1.65972620867E+02	3.41524884525E-04	1.70368355985E+02	4.15519616969E-01	-7.57835915832E+00
7.66833667335E+10	3.53540429205E-01	2.05160714336E+01	4.01887061871E-04	1.63195341233E+02	3.42400456151E-04	1.73115913847E+02	4.27314000998E-01	-9.60742432879E+00
7.66893787575E+10	3.48219291021E-01	1.72431051637E+01	3.86495366916E-04	1.53834843417E+02	3.04489766832E-04	1.66390169836E+02	4.24093111253E-01	-1.14051316565E+01
7.66953907816E+10	3.50545771707E-01	1.73112486664E+01	3.65253716169E-04	1.50876122604E+02	3.12340786604E-04	1.62046798221E+02	4.25970729471E-01	-1.32047304670E+01
7.67014028056E+10	3.52273748809E-01	1.54746927425E+01	4.19259652790E-04	1.55642682200E+02	3.21556369184E-04	1.65380040099E+02	4.22681774382E-01	-1.39605717548E+01
7.67074148297E+10	3.48486424602E-01	1.32456956900E+01	3.70413411987E-04	1.52506425637E+02	2.78334208807E-04	1.54506647856E+02	4.26885282398E-01	-1.66081592854E+01
7.67134268537E+10	3.42801027700E-01	1.09765232767E+01	3.94773889460E-04	1.41634108263E+02	3.04394818163E-04	1.53586588300E+02	4.23348469350E-01	-1.73357071530E+01
7.67194388778E+10	3.48729983690E-01	8.50898540960E+00	3.97230706490E-04	1.35421933556E+02	3.44096036256E-04	1.44730051306E+02	4.25474463454E-01	-1.85248047797E+01
7.67254509018E+10	3.48768982037E-01	7.73591892197E+00	3.79445428019E-04	1.26939878326E+02	3.24389735435E-04	1.44046701547E+02	4.33963340803E-01	-2.07652402675E+01
7.67314629259E+10	3.43642815463E-01	4.85640925267E+00	3.84221206520E-04	1.28738992670E+02	3.33709376033E-04	1.39754191885E+02	4.38203316443E-01	-2.26880169287E+01
7.67374749499E+10	3.47013817433E-01	3.32956669470E+00	3.17251100187E-04	1.21211592771E+02	3.13983042271E-04	1.25362131573E+02	4.32363672172E-01	-2.41302962687E+01
7.67434869739E+10	3.49238228818E-01	1.45973374080E+00	3.23710590576E-04	1.13582620886E+02	2.98782130247E-04	1.26629884449E+02	4.30753366441E-01	-2.48001637171E+01
7.67494989980E+10	3.44829450840E-01	3.12790429637E-01	3.60375153176E-04	1.11428312527E+02	3.35154637591E-04	1.19671351009E+02	4.34850509530E-01	-2.76151752211E+01
7.67555110220E+10	3.37058842843E-01	-1.35426947462E+00	3.18964507607E-04	1.04705614975E+02	2.50397832868E-04	1.19358286018E+02	4.41773317220E-01	-2.93491345934E+01
7.67615230461E+10	3.39733160878E-01	-3.43320774822E+00	3.11806913210E-04	1.01880047141E+02	2.42268255098E-04	1.12037445872E+02	4.42991827308E-01	-3.07424283838E+01
7.67675350701E+10	3.42798107387E-01	-5.67927802947E+00	2.51574408044E-04	1.10924371575E+02	2.64649641982E-04	1.05345906186E+02	4.40835045427E-01	-3.20736139575E+01
7.67735470942E+10	3.43264951140E-01	-5.23283742691E+00	2.77943365095E-04	8.11337291933E+01	2.27207714519E-04	1.10025092432E+02	4.47894199809E-01	-3.39340667912E+01
7.67795591182E+10	3.49156504772E-01	-8.77137318968E+00	2.70263709305E-04	8.70557589996E+01	2.22796239181E-04	1.14206733642E+02	4.51152377226E-01	-3.59694321058E+01
7.67855711423E+10	3.47737206217E-01	-1.01831951319E+01	2.48952363084E-04	9.95625414948E+01	1.96907765871E-04	1.11248269009E+02	4.47060315531E-01	-3.64475455586E+01
7.67915831663E+10	3.41904245539E-01	-1.28240075392E+01	2.51979325316E-04	8.97036904216E+01	1.95845561084E-04	1.05170115787E+02	4.62307131454E-01	-3.98972451740E+01
7.67975951904E+10	3.44821943993E-01	-1.35161550144E+01	1.98069185127E-04	7.98645021026E+01	1.90859249820E-04	1.11044778367E+02	4.59978790988E-01	-4.05214878689E+01
7.68036072144E+10	3.40500733984E-01	-1.59577054905E+01	1.98742333129E-04	8.75915760298E+01	1.98785836382E-04	9.12745892352E+01	4.66304359177E-01	-4.20470301193E+01
7.68096192385E+10	3.50489372354E-01	-1.84137240545E+01	1.96477786975E-04	8.32092314619E+01	1.49925272560E-04	8.17230447033E+01	4.71144324186E-01	-4.35754769013E+01
7.68156312625E+10	3.47991169955E-01	-1.95538088560E+01	2.02941847177E-04	7.30085564352E+01	1.91766078380E-04	8.23873751258E+01	4.73468422649E-01	-4.57183211241E+01
7.68216432866E+10	3.47452736218E-01	-2.16719550954E+01	1.82271611774E-04	8.09975766882E+01	1.39996589152E-04	9.14020763738E+01	4.73996351105E-01	-4.76634867184E+01
7.68276553106E+10	3.45156662410E-01	-2.16730000997E+01	2.02902511035E-04	7.53438982961E+01	1.63718929204E-04	9.41899661964E+01	4.77054184933E-01	-4.80159319257E+01
7.68336673347E+10	3.51075323452E-01	-2.56235995953E+01	1.60909097217E-04	8.38786295114E+01	1.51641611469E-04	8.45712259006E+01	4.86676716823E-01	-5.02686080194E+01
7.68396793587E+10	3.56449420496E-01	-2.59898667634E+01	1.76799544541E-04	7.65614441156E+01	1.76055508400E-04	1.08754095066E+02	4.90753489535E-01	-5.27638943670E+01
7.68456913828E+10	3.56105712244E-01	-2.73670484718E+01	1.54138307671E-04	8.37866430256E+01	1.67980679736E-04	9.40416913907E+01	5.03499129535E-01	-5.49433706132E+01
7.68517034068E+10	3.56025062217E-01	-2.84968466393E+01	1.46317139896E-04	7.77040800320E+01	1.45458856437E-04	8.40490076477E+01	4.97776553510E-01	-5.48610536444E+01
7.68577154309E+10	3.51520667670E-01	-3.15688210625E+01	1.59985155010E-04	9.94658031617E+01	1.60165165595E-04	9.81852696984E+01	5.08199403046E-01	-5.69702135271E+01
7.68637274549E+10	3.65012657809E-01	-3.41935755908E+01	1.31245240067E-04	7.87879467168E+01	1.80115646695E-04	9.94480720415E+01	5.16966810004E-01	-5.90596609920E+01
7.68697394790E+10	3.55425385923E-01	-3.30914681343E+01	1.35004709223E-04	6.84727321666E+01	2.05656459386E-04	9.38812538793E+01	5.28011384293E-01	-6.15858288731E+01
7.68757515030E+10	3.62871260818E-01	-3.62468417386E+01	1.31587862941E-04	5.50097610777E+01	2.06172696779E-04	7.96523915795E+01	5.26680430480E-01	-6.28784836466E+01
7.68817635271E+10	3.73207393214E-01	-3.89949441833E+01	1.27086006680E-04	6.98185318056E+01	1.49373529109E-04	7.92184302812E+01	5.26468459239E-01	-6.41057999678E+01
7.68877755511E+10	3.62364621361E-01	-3.82699158394E+01	1.61721897343E-04	7.90242294224E+01	1.46946602180E-04	8.18868273573E+01	5.41426957053E-01	-6.64137530519E+01
7.68937875752E+10	3.74053492136E-01	-4.15364027293E+01	1.37958643668E-04	7.00087165188E+01	1.40781196473E-04	9.31123670145E+01	5.53625318492E-01	-6.86552535606E+01
7.68997995992E+10	3.70932969476E-01	-4.32092881785E+01	9.64772717870E-05	8.37149401537E+01	1.54003082860E-04	9.33357215198E+01	5.67606198467E-01	-7.12875544992E+01
7.69058116232E+10	3.74908164045E-01	-4.46335328409E+01	1.17734223695E-04	7.92904093557E+01	1.93709715290E-04	1.18799270789E+02	5.75349625576E-01	-7.30618206576E+01
7.69118236473E+10	3.76135406768E-01	-4.75592934548E+01	1.83175039820E-04	7.42242538917E+01	1.81707163805E-04	9.80968122139E+01	5.82008334393E-01	-7.42598658281E+01
7.69178356713E+10	3.82871175829E-01	-4.95958880209E+01	1.60430546625E-04	6.98320022937E+01	1.69194601999E-04	9.00961697945E+01	5.77900245889E-01	-7.51569720742E+01
7.69238476954E+10	3.82688181479E-01	-4.99387118899E+01	2.06063538139E-04	6.95552712220E+01	1.82442077682E-04	8.60893647429E+01	5.99816670129E-01	-7.81352898073E+01
7.69298597194E+10	3.94354266089E-01	-5.24880033535E+01	1.12002602930E-04	6.05887392376E+01	1.79935235364E-04	8.25011346850E+01	6.19722682697E-01	-8.11365295118E+01
7.69358717435E+10	3.81776733088E-01	-5.29750269058E+01	2.00343220743E-04	6.15590862533E+01	2.12586509168E-04	9.35187090170E+01	6.19490502379E-01	-8.17085743112E+01
7.69418837675E+10	3.86405199489E-01	-5.53366477137E+01	1.72655922035E-04	7.74636089384E+01	2.42289483101E-04	8.83543546615E+01	6.39723673221E-01	-8.50949502337E+01
7.69478957916E+10	3.95731968176E-01	-5.63156832955E+01	1.57986169861E-04	6.67648905134E+01	3.03262198515E-04	7.23609313949E+01	6.43984316948E-01	-8.65464027874E+01
7.69539078156E+10	3.95069534768E-01	-5.79126579619E+01	1.52846242808E-04	5.60008481212E+01	2.67258580710E-04	9.08233501617E+01	6.54164683101E-01	-8.78393615570E+01
7.69599198397E+10	3.95879537950E-01	-6.01758789590E+01	2.18048951677E-04	5.69276337399E+01	3.25162975266E-04	6.41991189800E+01	6.68568339157E-01	-9.00632478245E+01
7.69659318637E+10	4.09471639975E-01	-6.33791488441E+01	2.04737269525E-04	4.45673199136E+01	2.59454856716E-04	6.10759647465E+01	6.87809666775E-01	-9.31126558970E+01
7.69719438878E+10	4.00423623286E-01	-6.30683292878E+01	1.81535533232E-04	5.62273922711E+01	3.14077049188E-04	6.71307261336E+01	7.02553491470E-01	-9.52661443817E+01
7.69779559118E+10	4.09622278173E-01	-6.58915100430E+01	1.71618411712E-04	4.20203032150E+01	2.70259148020E-04	5.81894154356E+01	7.18576096645E-01	-9.77777523623E+01
7.69839679359E+10	4.12652783657E-01	-6.76886903206E+01	1.76910101590E-04	3.40737404997E+01	3.61303772556E-04	5.57653852091E+01	7.30493788202E-01	-9.96073250853E+01
7.69899799599E+10	4.16824532587E-01	-6.93163558669E+01	2.47643235525E-04	4.27533766141E+01	4.09840702430E-04	5.24331912072E+01	7.31593992360E-01	-1.00994686694E+02
7.69959919840E+10	4.19962344075E-01	-7.12221204585E+01	2.21412040636E-04	3.69868613969E+01	3.58070054419E-04	4.23923475985E+01	7.68756849170E-01	-1.04576421129E+02
7.70020040080E+10	4.23693959058E-01	-7.27704662675E+01	2.10248341494E-04	2.96085284132E+01	3.37923607233E-04	3.48329317498E+01	8.04253170713E-01	-1.08317779048E+02
7.70080160321E+10	4.30676957280E-01	-7.43162673970E+01	2.03503600736E-04	2.06151574178E+01	3.38993416241E-04	2.96715898222E+01	7.88681476056E-01	-1.08350291620E+02
7.70140280561E+10	4.41769442776E-01	-7.65023447079E+01	2.85546861284E-04	2.31232112394E+01	3.57889899473E-04	3.13488535980E+01	8.14952626911E-01	-1.11440122573E+02
7.70200400802E+10	4.45319882456E-01	-7.88222806238E+01	1.90005208234E-04	9.50357474663E+00	3.51043963882E-04	1.61158808171E+01	8.29410642728E-01	-1.13941952566E+02
7.70260521042E+10	4.43999165262E-01	-8.05384657587E+01	1.91372016115E-04	2.02112543631E+01	2.92010340846E-04	3.71603946233E+01	8.48193182985E-01	-1.16466423888E+02
7.70320641283E+10	4.49591947839E-01	-8.20925837057E+01	2.39062136450E-04	3.49780609893E+01	3.85671178248E-04	2.97032033027E+01	8.80374068849E-01	-1.20076513611E+02
7.70380761523E+10	4.63254058544E-01	-8.44240212476E+01	2.47800171848E-04	1.30718935544E+01	4.20813120339E-04	3.27841978793E+01	9.36739142166E-01	-1.25273364025E+02
7.70440881764E+10	4.57324448483E-01	-8.55839407834E+01	2.46942132434E-04	8.56640429121E+00	4.10400032578E-04	1.67842143420E+01	9.53049789154E-01	-1.27727237869E+02
7.70501002004E+10	4.60330682160E-01	-8.60775637004E+01	2.79513566627E-04	-1.13361317020E+01	4.85290912949E-04	5.39424286132E+00	9.74988040567E-01	-1.30489337036E+02
7.70561122244E+10	4.81767436459E-01	-9.01730586258E+01	2.91894863501E-04	-2.20838080041E+01	5.34558916450E-04	-9.65763122595E-01	9.61816460181E-01	-1.31636229743E+02
7.70621242485E+10	4.89335417046E-01	-9.23995313213E+01	2.39581924863E-04	-1.28950628725E+01	4.31702267926E-04	-9.98493422418E+00	1.00145667203E+00	-1.35364869286E+02
7.70681362725E+10	4.91832473968E-01	-9.45428061161E+01	2.46102071383E-04	-1.61258545078E+01	3.67970683244E-04	-1.71139957346E+01	1.04902134615E+00	-1.41015655254E+02
7.70741482966E+10	4.91991968684E-01	-9.50506619837E+01	2.19891210001E-04	-1.57239900579E+01	3.15241621474E-04	-5.43627806269E+00	1.07638399148E+00	-1.45091323885E+02
7.70801603206E+10	4.95965085143E-01	-9.65159047482E+01	2.03383475780E-04	-2.31914821203E+01	3.94588557807E-04	-1.78520327487E+01	1.09066805115E+00	-1.48170396801E+02
7.70861723447E+10	4.98460050313E-01	-9.84462886836E+01	2.01568734706E-04	-1.52729317517E+01	3.53949010055E-04	2.77465734244E-02	1.10672450784E+00	-1.51512222493E+02
7.70921843687E+10	5.01500240628E-01	-9.94926030087E+01	2.78511523826E-04	-2.30754532177E+01	3.62340625007E-04	-1.54588032507E+01	1.14709882342E+00	-1.56520117398E+02
7.70981963928E+10	5.29534637470E-01	-1.03694636328E+02	1.82897234115E-04	-2.87681446392E+01	4.48054859005E-04	-1.66693414742E+01	1.17341027809E+00	-1.61735623005E+02
7.71042084168E+10	5.40595343344E-01	-1.05993115032E+02	2.25746417369E-04	-3.46768249150E+01	2.71558581219E-04	-3.35371782810E+01	1.19238233685E+00	-1.65915205118E+02
7.71102204409E+10	5.51245179238E-01	-1.08494496665E+02	2.39359823540E-04	-2.21009224624E+01	4.05906796391E-04	-4.77452204289E+01	1.21096601656E+00	-1.70846933740E+02
7.71162324649E+10	5.48909269647E-01	-1.09388439183E+02	3.01455422956E-04	-3.08014414854E+01	4.67443688596E-04	-2.60268997960E+01	1.22468522630E+00	-1.75856311107E+02
7.71222444890E+10	5.49557361673E-01	-1.11017127244E+02	1.71970847118E-04	-2.76138919038E+01	3.36610569103E-04	-1.81369166951E+01	1.21882246745E+00	-1.79618471464E+02
7.71282565130E+10	5.56336828674E-01	-1.12414249039E+02	2.19031986141E-04	-3.26486314337E+01	4.30018125332E-04	-5.17667463946E+01	1.22259110389E+00	1.76075126973E+02
7.71342685371E+10	5.58185602791E-01	-1.13229871648E+02	1.61898847066E-04	-4.04760507267E+01	3.31251585760E-04	-4.87109404067E+01	1.23464316130E+00	1.69382280867E+02
7.71402805611E+10	6.02323246896E-01	-1.19962683966E+02	1.87045960747E-04	-3.13445197001E+01	4.40130995500E-04	-5.99611678189E+01	1.23565778201E+00	1.62923281778E+02
7.71462925852E+10	5.75536704786E-01	-1.18092945431E+02	1.84177116640E-04	-2.55247850950E+01	4.49770659214E-04	-7.20883294461E+01	1.20770858965E+00	1.59724802818E+02
7.71523046092E+10	5.93312507037E-01	-1.21283552925E+02	2.51626389672E-04	-3.48133849063E+01	3.34930195342E-04	-4.37008994628E+01	1.20722094220E+00	1.54628314537E+02
7.71583166333E+10	6.18921697645E-01	-1.25238548151E+02	2.43883401811E-04	-3.65022092960E+01	3.92711608507E-04	-8.67048007517E+01	1.16843793154E+00	1.51040638901E+02
7.71643286573E+10	6.09880352915E-01	-1.24888030078E+02	2.24355259331E-04	-2.53168725279E+01	4.71751059522E-04	-8.34862457028E+01	1.14818759018E+00	1.44562436316E+02
7.71703406814E+10	6.31245962570E-01	-1.29076117900E+02	2.99856392148E-04	-3.69309664805E+01	4.76942906069E-04	-7.10097671594E+01	1.12169523739E+00	1.41720786934E+02
7.71763527054E+10	6.41896673113E-01	-1.31523999283E+02	2.63224770693E-04	-3.26609342581E+01	4.40426036324E-04	-7.89710281652E+01	1.08079847399E+00	1.36341231685E+02
7.71823647295E+10	6.47218626447E-01	-1.33220517574E+02	2.56655581084E-04	-4.09468238389E+01	4.67384835694E-04	-9.44127993292E+01	1.05644157996E+00	1.32078520753E+02
7.71883767535E+10	6.45853297165E-01	-1.33509531445E+02	3.25995266806E-04	-3.55421444442E+01	4.03897311416E-04	-8.99032363895E+01	1.02567920916E+00	1.26123065564E+02
7.71943887776E+10	6.82939788270E-01	-1.39245942329E+02	3.19218346217E-04	-3.50464605170E+01	5.26892111374E-04	-9.20302458874E+01	9.91321027959E-01	1.20716292619E+02
7.72004008016E+10	6.83725960669E-01	-1.41080725590E+02	2.94242793618E-04	-5.82296195108E+01	5.52160788684E-04	-8.95372877007E+01	9.54856905080E-01	1.17390090990E+02
7.72064128257E+10	6.86773521335E-01	-1.42016842063E+02	4.37351343883E-04	-5.82378617503E+01	4.57259023281E-04	-1.03379503537E+02	9.19914966895E-01	1.14575753941E+02
7.72124248497E+10	6.96854099342E-01	-1.44131416283E+02	4.06909172128E-04	-6.69492323458E+01	4.57347963081E-04	-1.05976810856E+02	8.84030395471E-01	1.11139732986E+02
7.72184368737E+10	7.40653371852E-01	-1.51490877907E+02	3.86703988821E-04	-6.29090511378E+01	4.09125296129E-04	-1.30122148264E+02	8.50928320103E-01	1.07794888414E+02
7.72244488978E+10	7.40597814055E-01	-1.52603252717E+02	3.72874170084E-04	-7.95447915646E+01	5.29417697628E-04	-1.29052310803E+02	8.11845004116E-01	1.02877480348E+02
7.72304609218E+10	7.41825662233E-01	-1.54229254191E+02	3.76822557033E-04	-7.36676693340E+01	4.78129736699E-04	-1.35536301444E+02	7.84105442631E-01	1.00692112093E+02
7.72364729459E+10	7.57471153642E-01	-1.57076574094E+02	4.09870058024E-04	-7.50084655845E+01	4.48646889964E-04	-1.31510506299E+02	7.52925281001E-01	9.86431691881E+01
7.72424849699E+10	7.78867282277E-01	-1.61090677875E+02	4.14885586849E-04	-1.00362104851E+02	4.59294315220E-04	-1.40999746277E+02	7.22954678854E-01	9.56535564158E+01
7.72484969940E+10	7.96801602386E-01	-1.65934462314E+02	4.70768720805E-04	-9.44238406489E+01	4.08311044287E-04	-1.34002322978E+02	6.88451975032E-01	9.00044029916E+01
7.72545090180E+10	8.08524894222E-01	-1.69217969194E+02	4.34348039925E-04	-1.05921196750E+02	3.34228163188E-04	-1.43407260310E+02	6.61466614004E-01	8.76743472038E+01
7.72605210421E+10	8.11077811962E-01	-1.70952307147E+02	6.01032559617E-04	-9.65881504089E+01	4.04916042247E-04	-1.56596355837E+02	6.30013267556E-01	8.47694842339E+01
7.72665330661E+10	8.26101154066E-01	-1.75676725537E+02	5.36506897728E-04	-1.18778696562E+02	4.05561268127E-04	-1.60580664802E+02	6.05677560942E-01	8.22649141954E+01
7.72725450902E+10	8.26821877924E-01	-1.77364822605E+02	5.86935609908E-04	-1.16157559240E+02	4.63625574024E-04	-1.71344837433E+02	5.80834107340E-01	8.01052999407E+01
7.72785571142E+10	8.26781970926E-01	-1.78372787758E+02	5.33087494784E-04	-1.30216321633E+02	4.57276990677E-04	-1.67388621156E+02	5.54765590504E-01	7.67441557476E+01
7.72845691383E+10	8.53176937966E-01	1.75126602908E+02	6.22577065408E-04	-1.41430648770E+02	4.10116767799E-04	-1.60164852300E+02	5.28423161827E-01	7.31661875090E+01
7.72905811623E+10	8.54844623581E-01	1.72804162249E+02	5.54704018557E-04	-1.49614148020E+02	4.21022179060E-04	-1.77165376458E+02	5.04959446664E-01	6.97956331233E+01
7.72965931864E+10	8.61860547236E-01	1.69091407863E+02	5.79020033019E-04	-1.48388833653E+02	3.31864688381E-04	1.73828214028E+02	4.80459801100E-01	6.78185581688E+01
7.73026052104E+10	8.62287992207E-01	1.66617016299E+02	5.11312560649E-04	-1.56195446333E+02	2.87820477351E-04	1.67407831457E+02	4.59238488226E-01	6.71993844761E+01
7.73086172345E+10	8.59609920017E-01	1.64017789424E+02	5.22021751836E-04	-1.61124393097E+02	3.52964493395E-04	1.61484903789E+02	4.36282440280E-01	6.36677694452E+01
7.73146292585E+10	8.56282907525E-01	1.63023359873E+02	5.15823147226E-04	-1.65796037665E+02	3.08492496689E-04	1.58122242335E+02	4.15303719035E-01	6.21785350007E+01
7.73206412826E+10	8.71600715115E-01	1.54138813900E+02	5.96019126452E-04	1.79877657505E+02	3.04211538933E-04	1.56096464946E+02	3.94544095182E-01	5.86326290313E+01
7.73266533066E+10	8.71137340478E-01	1.52470904214E+02	6.15040907969E-04	1.69026436880E+02	2.43429616916E-04	1.57363971957E+02	3.74480896940E-01	5.75780464015E+01
7.73326653307E+10	8.68613647605E-01	1.48365477392E+02	5.08141141786E-04	1.74144620763E+02	2.48473588176E-04	1.47778544614E+02	3.53354450287E-01	5.53494854747E+01
7.73386773547E+10	8.66782631699E-01	1.45604328301E+02	4.06595789811E-04	1.49671452536E+02	2.13528342849E-04	1.38533961137E+02	3.30631610511E-01	5.20280437152E+01
7.73446893788E+10	8.66696406385E-01	1.42157967346E+02	6.95237776250E-04	1.44060598301E+02	2.19568872435E-04	1.40039869188E+02	3.10870997781E-01	5.16851946780E+01
7.73507014028E+10	8.59136204170E-01	1.37177634182E+02	4.99397938981E-04	1.54414087374E+02	2.18726084484E-04	1.20212888335E+02	2.95487930361E-01	4.86991871204E+01
7.73567134269E+10	8.59306151252E-01	1.33009937210E+02	4.02487943979E-04	1.49332010712E+02	2.10256114837E-04	1.39069398011E+02	2.73509541377E-01	4.69424890713E+01
7.73627254509E+10	8.50619182045E-01	1.30798972586E+02	4.84341878009E-04	1.40827775863E+02	2.26015319084E-04	1.16232180314E+02	2.54670021903E-01	4.52924862643E+01
7.73687374749E+10	8.37999999584E-01	1.27779250946E+02	3.38943916378E-04	1.19018686296E+02	2.40034237405E-04	1.04232845777E+02	2.35372165197E-01	4.38516394958E+01
7.73747494990E+10	8.27800151818E-01	1.26215581398E+02	3.57797021719E-04	1.22191148136E+02	1.74708280870E-04	1.03396202396E+02	2.15293312770E-01	4.31015526710E+01
7.73807615230E+10	8.27838422542E-01	1.21896094548E+02	3.22292408273E-04	8.01086177131E+01	1.07510757552E-04	9.39519954815E+01	1.97013631480E-01	4.25734053507E+01
7.73867735471E+10	8.17041163917E-01	1.21529138396E+02	2.63102276308E-04	1.09288847625E+02	1.39560375798E-04	7.19185412565E+01	1.76874539051E-01	4.22410492038E+01
7.73927855711E+10	8.03707291224E-01	1.15951295182E+02	3.37763717772E-04	7.93352015160E+01	1.09454537728E-04	6.70535406236E+01	1.57267535552E-01	4.24258043998E+01
7.73987975952E+10	7.93852820419E-01	1.14915620818E+02	1.45166560940E-04	6.84772705527E+01	5.55848854386E-05	2.26538456136E+01	1.39366467779E-01	4.47085838628E+01
7.74048096192E+10	7.84394941918E-01	1.12633859631E+02	2.08491867832E-04	8.17373547812E+01	2.12504858612E-05	2.57082819500E+01	1.22390636150E-01	4.83340686874E+01
7.74108216433E+10	7.71997532968E-01	1.06170803047E+02	1.29226036915E-05	7.13751604302E+01	4.17723585281E-05	9.74840599249E+01	1.08228114816E-01	5.38605449219E+01
7.74168336673E+10	7.59900396206E-01	1.03455870832E+02	1.83616382028E-04	9.80374910801E+01	3.84824249892E-05	1.41948577931E+02	9.63550121406E-02	6.17672193045E+01
7.74228456914E+10	7.51903378059E-01	1.01192987517E+02	1.45474207487E-04	3.87609693678E+01	3.47063719294E-05	5.34687155488E+01	8.97437908210E-02	7.39040051794E+01
7.74288577154E+10	7.40512898756E-01	1.00074965540E+02	8.48635063963E-05	-5.46427475931E+01	1.95047606070E-05	9.09157129519E+01	9.07543839513E-02	8.51547827552E+01
7.74348697395E+10	7.28376642595E-01	9.71097861688E+01	6.13415005650E-05	1.46069376542E+02	2.36610063973E-05	8.92305309835E+01	9.92998902941E-02	9.58698458642E+01
7.74408817635E+10	7.17270519240E-01	9.53240278816E+01	1.23085083824E-04	-1.60366278069E+02	1.15181024663E-04	-1.41679980944E+02	1.12327755994E-01	1.05278112511E+02
7.74468937876E+10	7.07460197604E-01	9.23784653896E+01	1.32608927567E-04	-1.57259364529E+02	1.02106357479E-04	-1.55210112305E+02	1.30173075917E-01	1.12275988362E+02
7.74529058116E+10	6.93197836243E-01	8.74744836646E+01	2.42568967797E-04	1.79145401620E+02	1.43204358715E-04	-1.53783620617E+02	1.53607819039E-01	1.14299545291E+02
7.74589178357E+10	6.79478662858E-01	8.47815403210E+01	1.68302166234E-04	1.65737256370E+02	1.70773458572E-04	-1.70516843415E+02	1.78098211818E-01	1.13975214746E+02
7.74649298597E+10	6.74217883205E-01	8.35260472986E+01	2.50121383163E-04	1.68751280179E+02	2.53363387208E-04	-1.69046993007E+02	2.03530631271E-01	1.12483173496E+02
7.74709418838E+10	6.64369426609E-01	8.17569422281E+01	2.83817624380E-04	1.36867790856E+02	2.67946177618E-04	1.73420044486E+02	2.26819499054E-01	1.12322178136E+02
7.74769539078E+10	6.59002604948E-01	8.07903456739E+01	3.12249948430E-04	1.43673331472E+02	2.92766856412E-04	1.56483091626E+02	2.52409857801E-01	1.09780608058E+02
7.74829659319E+10	6.47833596512E-01	7.75650832736E+01	3.03826257764E-04	1.20853167182E+02	1.92148584618E-04	1.44799238454E+02	2.78717959927E-01	1.06575045077E+02
7.74889779559E+10	6.37430959206E-01	7.38855112247E+01	2.28355840254E-04	1.05804255190E+02	2.79811216238E-04	1.31091120926E+02	3.02867144996E-01	1.03015694302E+02
7.74949899800E+10	6.29399682344E-01	7.39912526171E+01	2.89322603770E-04	1.24405740306E+02	3.08927238830E-04	1.36805694367E+02	3.24873134881E-01	9.75009566167E+01
7.75010020040E+10	6.16793719834E-01	7.01262066953E+01	3.10394142937E-04	8.96984105235E+01	2.57780335525E-04	1.10368954073E+02	3.44752822575E-01	9.62318954281E+01
7.75070140281E+10	6.14605517064E-01	6.89746598398E+01	3.51479242442E-04	7.06048493861E+01	2.22119252203E-04	1.10396098822E+02	3.63661972797E-01	9.12270984363E+01
7.75130260521E+10	6.03531194088E-01	6.69657429275E+01	3.56523842705E-04	7.94714564006E+01	3.67169480079E-04	9.17514658103E+01	3.80096016850E-01	8.63768518719E+01
7.75190380762E+10	5.88296100595E-01	6.27991443527E+01	2.66032811985E-04	7.33700834772E+01	3.50812456763E-04	9.84965161454E+01	3.94807498944E-01	8.10859529539E+01
7.75250501002E+10	5.87557850131E-01	6.08314217251E+01	3.87071842058E-04	6.05218706152E+01	2.77280111480E-04	8.25969853514E+01	4.06102179837E-01	7.90245940016E+01
7.75310621242E+10	5.76083799265E-01	5.92905542323E+01	3.59650748243E-04	4.17924419840E+01	3.02523738839E-04	6.49939514388E+01	4.17319861695E-01	7.36085542244E+01
7.75370741483E+10	5.67844874758E-01	5.68020161672E+01	2.87620300462E-04	3.33040705511E+01	2.77356609332E-04	6.05336012930E+01	4.25807045705E-01	6.90801174244E+01
7.75430861723E+10	5.69103784615E-01	5.70132495916E+01	2.70678834452E-04	2.66146048981E+01	2.78234009147E-04	3.94591035580E+01	4.30647151256E-01	6.71773804865E+01
7.75490981964E+10	5.62897106184E-01	5.43538326156E+01	2.91738204361E-04	3.20105153739E+01	2.45619935135E-04	4.15428403596E+01	4.34093377881E-01	6.09330252343E+01
7.75551102204E+10	5.59644762264E-01	5.40636529357E+01	2.04921868120E-04	1.55592460458E+01	2.60544700754E-04	2.28242252556E+01	4.35420182913E-01	5.72983700473E+01
7.75611222445E+10	5.49202616843E-01	5.02740216697E+01	2.19147816559E-04	5.78445121489E+00	2.41935546537E-04	8.68741227192E+00	4.37093732790E-01	5.37370384964E+01
7.75671342685E+10	5.42508283986E-01	4.83645587780E+01	2.42510725481E-04	-2.45582256254E+01	2.26163603287E-04	7.29064770609E+00	4.37763316299E-01	5.15340332845E+01
7.75731462926E+10	5.27790919854E-01	4.57392157067E+01	1.66237339770E-04	-1.86283363592E+01	1.65936632282E-04	-9.33707540320E+00	4.37316740965E-01	4.71775021087E+01
7.75791583166E+10	5.21402771756E-01	4.24291491168E+01	2.11023394565E-04	-3.03613631562E+01	9.93783257533E-05	-3.79125801937E+00	4.36341826803E-01	4.48305825228E+01
7.75851703407E+10	5.15663424855E-01	4.01632223279E+01	1.26845587436E-04	-5.83182007556E+01	1.71981827506E-04	-3.52562049868E+01	4.32710206645E-01	4.10106537068E+01
7.75911823647E+10	5.16409985479E-01	4.02112788563E+01	1.31883686841E-04	-5.93902938538E+01	9.43364094044E-05	-5.83438449373E+01	4.26977223040E-01	3.77544270010E+01
7.75971943888E+10	5.02365203398E-01	3.68328289594E+01	9.10605811921E-05	-6.46618598078E+01	5.42990759560E-05	-5.38642671783E+01	4.27633110894E-01	3.47082067890E+01
7.76032064128E+10	4.98185086305E-01	3.58075785979E+01	8.52293939045E-05	-5.90504202078E+01	6.19357783617E-05	-4.22001892609E+01	4.24301817802E-01	3.13604505144E+01
7.76092184369E+10	4.98472426432E-01	3.45521783349E+01	5.72931860791E-05	-4.94566069360E+01	1.90551636461E-05	-4.56777346024E+01	4.19860990704E-01	2.87843962575E+01
7.76152304609E+10	5.00598242330E-01	3.34480628407E+01	9.35055308334E-05	-1.03987693573E+02	3.12331213439E-05	1.88866048367E+01	4.16835588387E-01	2.62762521267E+01
7.76212424850E+10	4.81274287030E-01	2.85342839306E+01	1.06693699791E-04	-1.16303748415E+02	2.69996585312E-05	-3.91529988760E+01	4.13725433783E-01	2.31389602470E+01
7.76272545090E+10	4.79321326157E-01	2.64734216194E+01	4.18669079792E-06	6.09433244047E+01	5.73559125034E-05	-1.11571404411E+02	4.12472958019E-01	2.21846375219E+01
7.76332665331E+10	4.79791102390E-01	2.55378404166E+01	1.15644476214E-04	-1.52030468535E+02	3.64209095677E-05	5.57483838607E+01	4.07709138279E-01	1.91850471768E+01
7.76392785571E+10	4.74814409480E-01	2.48916700137E+01	2.86133379861E-05	7.23422210912E+01	8.10957654556E-05	6.50087906654E+01	4.00527891365E-01	1.55329066672E+01
7.76452905812E+10	4.72944808180E-01	2.44060204123E+01	7.10962027057E-05	8.80173839937E+01	9.01529613442E-05	2.54792908223E+01	3.98245623321E-01	1.19610834730E+01
7.76513026052E+10	4.60158435689E-01	1.94232147170E+01	4.18159486946E-05	-9.69723972150E+00	1.04214537858E-04	2.36005271172E+01	3.96542251352E-01	1.06552364147E+01
7.76573146293E+10	4.67539196762E-01	1.89543051858E+01	2.36716255084E-05	-3.16031077393E+00	6.56614580400E-05	3.99616759851E+01	3.92443093852E-01	1.00401026817E+01
7.76633266533E+10	4.63044569776E-01	1.92357399668E+01	6.07116600300E-05	-2.36337052999E+01	9.18374605563E-05	-9.54792151830E-01	3.90585214219E-01	7.03723407655E+00
7.76693386774E+10	4.57310025920E-01	1.62650433946E+01	6.55974724240E-05	-9.74672649067E+01	7.17819614160E-05	-3.18285440218E+01	3.88446308805E-01	4.05116921073E+00
7.76753507014E+10	4.46418103982E-01	1.27195908211E+01	6.74513078393E-05	-6.17580490022E+01	4.98304680524E-05	-2.91287156283E+01	3.81182106046E-01	1.64457673377E+00
7.76813627255E+10	4.48410612497E-01	1.40428486406E+01	3.72739340037E-05	-1.38442048921E+02	5.21443194017E-05	-6.12536298869E+01	3.77487682631E-01	-3.96675382384E-01
7.76873747495E+10	4.52583359314E-01	1.00359270272E+01	5.65115806538E-05	-1.51160303328E+02	8.08135800352E-05	-4.75858742970E+01	3.80157214752E-01	-1.94781101361E+00
7.76933867735E+10	4.35246368720E-01	7.11203113557E+00	1.05155867357E-04	-1.25058551712E+02	1.19159321690E-04	-9.97477443935E+01	3.75748327930E-01	-4.05492308423E+00
7.76993987976E+10	4.40848616816E-01	6.66802199303E+00	8.35086659859E-05	-1.51711034045E+02	7.78131581087E-05	-7.64681206423E+01	3.71685449069E-01	-6.94648375221E+00
7.77054108216E+10	4.33053744319E-01	4.98735170523E+00	9.40953270327E-05	-1.11765818373E+02	9.28513821627E-05	-1.16235780280E+02	3.68443814573E-01	-7.91684480081E+00
7.77114228457E+10	4.34501165129E-01	2.77322843989E+00	9.75960846252E-05	-1.69750358942E+02	6.28981181202E-05	-1.42650272272E+02	3.66546664375E-01	-1.00965848358E+01
7.77174348697E+10	4.23615545998E-01	1.87089655417E+00	7.21519706236E-05	1.61929439459E+02	7.62500966457E-05	-1.66080473514E+02	3.70042084853E-01	-1.30791314634E+01
7.77234468938E+10	4.19064912476E-01	2.78557302217E-01	9.84914221963E-05	1.66352861222E+02	1.03428490710E-04	-1.67191279965E+02	3.67182421791E-01	-1.49166754864E+01
7.77294589178E+10	4.26675127514E-01	-1.53400478332E+00	1.43322281036E-04	1.58105434984E+02	9.88863630356E-05	1.53457923386E+02	3.64338193035E-01	-1.65004420622E+01
7.77354709419E+10	4.14425267877E-01	-4.89360581097E+00	1.14781711420E-04	1.43895620879E+02	6.00496835150E-05	-1.74251070232E+02	3.59288873775E-01	-1.83199473678E+01
7.77414829659E+10	4.15289285878E-01	-4.74956393990E+00	1.26276095068E-04	1.33824974894E+02	8.73097555762E-05	1.77984192829E+02	3.59996309245E-01	-2.14667816729E+01
7.77474949900E+10	4.13566456516E-01	-6.90731036569E+00	1.16408547648E-04	1.38231443197E+02	1.04424643593E-04	1.59707590714E+02	3.62460687883E-01	-2.28654698001E+01
7.77535070140E+10	4.12375438062E-01	-9.46899564934E+00	1.09220919682E-04	1.28577993313E+02	1.17047547595E-04	1.46784995103E+02	3.60544846329E-01	-2.50835112993E+01
7.77595190381E+10	4.09218313219E-01	-1.19572479641E+01	1.10477369362E-04	1.17067677132E+02	1.27726453936E-04	1.22766533122E+02	3.58533002593E-01	-2.68019643190E+01
7.77655310621E+10	4.03121809774E-01	-1.31184877662E+01	1.54122133011E-04	1.04813352096E+02	1.52701957803E-04	1.19627023113E+02	3.56648902665E-01	-2.86478709607E+01
7.77715430862E+10	4.05405036135E-01	-1.37024892093E+01	1.00292713381E-04	1.07723258247E+02	1.32116988290E-04	1.34977304276E+02	3.55632883098E-01	-3.11790489796E+01
7.77775551102E+10	4.07005434943E-01	-1.62801504037E+01	1.22446187060E-04	9.45327315991E+01	1.75082112160E-04	1.26642703703E+02	3.57178582090E-01	-3.34405022411E+01
7.77835671343E+10	4.04640175707E-01	-1.75566482311E+01	1.02394178466E-04	7.83955607066E+01	1.53809419864E-04	1.16030639844E+02	3.62615394907E-01	-3.55399067272E+01
7.77895791583E+10	3.99653115767E-01	-1.95023143449E+01	1.49174468903E-04	9.34740593742E+01	1.62020078890E-04	1.09494410595E+02	3.60948783469E-01	-3.60313549048E+01
7.77955911824E+10	4.01576103130E-01	-2.22164690158E+01	1.92727406091E-04	9.01439127752E+01	2.00293357580E-04	1.06352161323E+02	3.58059390769E-01	-3.95327731318E+01
7.78016032064E+10	3.93563523747E-01	-2.36288247414E+01	1.86402545564E-04	1.04320857773E+02	2.11525801335E-04	9.08209351262E+01	3.58540417675E-01	-4.06277618910E+01
7.78076152305E+10	3.92318373382E-01	-2.54001334350E+01	1.89351845479E-04	9.37391273643E+01	2.12458999635E-04	9.31472281824E+01	3.62415173621E-01	-4.24903122262E+01
7.78136272545E+10	3.97249735417E-01	-2.69245299895E+01	2.16648386708E-04	9.30222489794E+01	1.59696917614E-04	8.75519702044E+01	3.68194883832E-01	-4.46137446198E+01
7.78196392786E+10	3.96431025786E-01	-2.76596641552E+01	1.86220342232E-04	8.02913826344E+01	2.25895932831E-04	7.45761298803E+01	3.65985931493E-01	-4.71780997998E+01
7.78256513026E+10	3.95501624548E-01	-2.95791672991E+01	2.69027467037E-04	6.72532600844E+01	2.79245360070E-04	7.99970946076E+01	3.66397843151E-01	-4.97432172458E+01
7.78316633267E+10	3.86568403062E-01	-3.25272892458E+01	2.92296550131E-04	7.13605331806E+01	2.61432954371E-04	7.87425833957E+01	3.71993408214E-01	-5.17914924992E+01
7.78376753507E+10	3.90545349585E-01	-3.40091739460E+01	3.04874676522E-04	6.21760281239E+01	2.90663432015E-04	7.34181000092E+01	3.74587283607E-01	-5.33203019883E+01
7.78436873747E+10	3.92147868924E-01	-3.55040962797E+01	2.79565683026E-04	6.32512615288E+01	3.10124100473E-04	5.74162404184E+01	3.77902994389E-01	-5.51561294674E+01
7.78496993988E+10	3.93261669113E-01	-3.76494280314E+01	3.10050918783E-04	5.88098584186E+01	3.29866418692E-04	5.54017023251E+01	3.82661442893E-01	-5.78092514925E+01
7.78557114228E+10	3.81170072192E-01	-3.84496865585E+01	3.62284429408E-04	4.83811702357E+01	3.64489404642E-04	5.19779542127E+01	3.83933613861E-01	-6.02588265801E+01
7.78617234469E+10	3.86234436456E-01	-4.18964605323E+01	3.83630064013E-04	3.93574162386E+01	4.02814306913E-04	4.87623136422E+01	3.92582689386E-01	-6.29693882900E+01
7.78677354709E+10	3.84567175350E-01	-4.16568215438E+01	4.30967433195E-04	3.47499962400E+01	4.44732814117E-04	4.13329333883E+01	3.92003453595E-01	-6.48164719991E+01
7.78737474950E+10	3.87006442789E-01	-4.47266545050E+01	4.24466311426E-04	2.69290998707E+01	4.20727133958E-04	3.07932708207E+01	3.95604394940E-01	-6.68992508853E+01
7.78797595190E+10	3.84837905259E-01	-4.69536114222E+01	4.44087501131E-04	9.66402518426E+00	4.62189530661E-04	1.86138615152E+01	3.97655596925E-01	-6.87295873820E+01
7.78857715431E+10	3.79344321110E-01	-4.93107515299E+01	4.73975231161E-04	1.24109102002E+01	5.24922614459E-04	1.24301026686E+01	4.03698583611E-01	-7.12889297835E+01
7.78917835671E+10	3.85854819796E-01	-5.05355159877E+01	4.69476181461E-04	3.67460350011E+00	4.88499442479E-04	1.22245074170E+01	4.12829754559E-01	-7.41706975988E+01
7.78977955912E+10	3.85499415826E-01	-5.26398536986E+01	4.59245799898E-04	-3.15066803639E+00	5.18907726204E-04	7.38696400626E+00	4.25244763823E-01	-7.67376534114E+01
7.79038076152E+10	3.82808425177E-01	-5.49303463227E+01	4.62819116571E-04	-9.02951614572E+00	5.27840728498E-04	-2.86625419565E+00	4.26127228074E-01	-7.84756968250E+01
7.79098196393E+10	3.85093994173E-01	-5.63399117826E+01	4.32786402693E-04	-1.18903070248E+01	5.25575108039E-04	-2.31604550222E+00	4.28759671281E-01	-8.14083223803E+01
7.79158316633E+10	3.84171224084E-01	-5.84467494360E+01	4.76419159003E-04	-1.82246831128E+01	5.26861609900E-04	-9.74866589305E+00	4.36889103492E-01	-8.33976078085E+01
7.79218436874E+10	3.86983022221E-01	-6.17113430113E+01	4.75150940020E-04	-2.50996962400E+01	5.28901416748E-04	-1.90464132091E+01	4.47761637257E-01	-8.57937388030E+01
7.79278557114E+10	3.85813030808E-01	-6.32731301961E+01	4.61266284015E-04	-2.15560096218E+01	5.76310700088E-04	-1.87068231350E+01	4.59859567798E-01	-8.87300558141E+01
7.79338677355E+10	3.95685719461E-01	-6.47369215476E+01	5.42249743186E-04	-2.94233206636E+01	6.12625955848E-04	-2.77554808539E+01	4.66712535838E-01	-9.21033254332E+01
7.79398797595E+10	3.83550633467E-01	-6.57319698332E+01	4.80418406870E-04	-4.23846538083E+01	6.32943430774E-04	-3.16695004219E+01	4.78300372255E-01	-9.48384149604E+01
7.79458917836E+10	3.83333671721E-01	-6.76565943218E+01	5.33342667017E-04	-4.75816490494E+01	6.32936447015E-04	-3.21462035892E+01	4.86038182677E-01	-9.74050314951E+01
7.79519038076E+10	3.80405292945E-01	-7.11689655662E+01	5.26894276607E-04	-4.98745588887E+01	6.67137312048E-04	-3.94799181659E+01	4.88651259776E-01	-9.92623667253E+01
7.79579158317E+10	3.90428168950E-01	-7.32023578143E+01	6.04961217726E-04	-5.39829957533E+01	6.62095661805E-04	-4.29533690691E+01	5.16987191832E-01	-1.03710905610E+02
7.79639278557E+10	3.93428284669E-01	-7.52332241918E+01	5.95665286860E-04	-5.90912405813E+01	7.48887051341E-04	-5.15333990342E+01	5.28090535937E-01	-1.06354847228E+02
7.79699398798E+10	3.86553756995E-01	-7.76572635036E+01	5.94041736627E-04	-6.35088168545E+01	7.29945948282E-04	-5.71903612180E+01	5.36046865564E-01	-1.09158931568E+02
7.79759519038E+10	3.85293238997E-01	-7.96049976863E+01	6.47374100800E-04	-7.31185378385E+01	7.52557823205E-04	-6.74064701070E+01	5.52465454126E-01	-1.12016458271E+02
7.79819639279E+10	3.95014604324E-01	-8.21816022020E+01	6.61280853087E-04	-7.62889637575E+01	7.23584701665E-04	-6.78049944777E+01	5.64778965468E-01	-1.14751513877E+02
7.79879759519E+10	3.88931173271E-01	-8.36905046307E+01	6.76435266699E-04	-8.92551664307E+01	8.07677395818E-04	-7.67103235439E+01	5.89334336982E-01	-1.19008859209E+02
7.79939879760E+10	3.97327478633E-01	-8.66782230768E+01	6.87902501635E-04	-8.82533346286E+01	8.09765570600E-04	-8.16677768105E+01	6.02156782978E-01	-1.22024026050E+02
7.80000000000E+10	3.97387109217E-01	-8.99729017599E+01	7.00222425968E-04	-9.91246282144E+01	7.89433949808E-04	-9.02753633658E+01	6.21306867692E-01	-1.25569658829E+02
