# Hz S MA R 50
! CMT, C4420, 21421029, 25.1.2/3
! Date: 8/4/2025 5:30:14 PM
! Data: Format (Calibration Info)
! Freq	S33:Mag/Ang(F2)	S43:Mag/Ang(F2)	S34:Mag/Ang(F2)	S44:Mag/Ang(F2)
7.50000000000E+10	2.64439634646E-01	5.07314350879E+01	1.77515276081E-04	-3.11551183615E+00	1.71560955313E-04	-1.40997565660E+01	3.72423241537E-01	2.46192781508E+01
7.50060120240E+10	2.64155803444E-01	5.00069528849E+01	2.01120960678E-04	-1.79947549229E+01	9.71057614286E-05	2.64117668338E+00	3.66701733158E-01	2.40917074537E+01
7.50120240481E+10	2.67624663918E-01	4.88070329274E+01	1.57054384388E-04	-2.41857540384E+01	1.62890216162E-04	-2.38039827096E+01	3.68949325645E-01	2.11018291000E+01
7.50180360721E+10	2.64635940076E-01	4.70762079243E+01	1.73761270327E-04	-2.58732298132E+01	1.30601633980E-04	-5.70918943235E+00	3.66948548540E-01	1.86542064449E+01
7.50240480962E+10	2.64988616091E-01	4.41817131351E+01	1.29381456149E-04	-2.13405032573E+01	1.51747313627E-04	2.37328029922E+00	3.62360190881E-01	1.69281631284E+01
7.50300601202E+10	2.64628565382E-01	4.40497016946E+01	1.63370821111E-04	-5.84638486051E+01	1.73632464486E-04	-5.02750087247E+01	3.61291858503E-01	1.55241316257E+01
7.50360721443E+10	2.66370248954E-01	4.30019556674E+01	1.62743048523E-04	-4.23413658978E+01	1.46196001348E-04	-3.50894427289E+01	3.58738260311E-01	1.38764609442E+01
7.50420841683E+10	2.66095480494E-01	4.17735325444E+01	2.06661790145E-04	-7.36132579889E+01	1.39279813695E-04	-4.99288345534E+01	3.56212041769E-01	1.14497313787E+01
7.50480961924E+10	2.61512975218E-01	3.94624069795E+01	2.10871381747E-04	-7.44346536678E+01	1.75447627724E-04	-7.35083183822E+01	3.50067729165E-01	8.89178900445E+00
7.50541082164E+10	2.58878999057E-01	4.02893345209E+01	1.78065630398E-04	-7.21829297972E+01	1.42405792505E-04	-7.90375219797E+01	3.53815011143E-01	6.59129431382E+00
7.50601202405E+10	2.64501744681E-01	3.89761215697E+01	1.21791037188E-04	-1.06091465582E+02	1.30198128355E-04	-7.06065253676E+01	3.53510210005E-01	5.30754963935E+00
7.50661322645E+10	2.66636355897E-01	3.83470382927E+01	1.26471341270E-04	-1.27581828103E+02	1.67187364593E-04	-1.07284541865E+02	3.48356098822E-01	3.10194745690E+00
7.50721442886E+10	2.62673333147E-01	3.62859175407E+01	1.30103186791E-04	-1.21338940748E+02	1.34956706504E-04	-8.97312387353E+01	3.44839968865E-01	1.76882868885E+00
7.50781563126E+10	2.62986597319E-01	3.32119173621E+01	1.61810493998E-04	-1.20385539724E+02	1.44247832383E-04	-1.00303752739E+02	3.41546450277E-01	8.46466365088E-01
7.50841683367E+10	2.60444957830E-01	3.29722407666E+01	1.71210467251E-04	-1.27690927039E+02	1.81814269910E-04	-1.12315144456E+02	3.47446176460E-01	-2.04694536251E+00
7.50901803607E+10	2.62458771197E-01	3.33755952796E+01	9.28957788478E-05	-1.26833834134E+02	1.60350596535E-04	-1.19362721029E+02	3.48136238774E-01	-4.04785446000E+00
7.50961923848E+10	2.64593800939E-01	3.36580813797E+01	1.33067967981E-04	-1.42730331217E+02	1.47951540099E-04	-1.18125208640E+02	3.38793007611E-01	-4.70383179758E+00
7.51022044088E+10	2.62023843383E-01	3.06155102474E+01	1.53897949663E-04	-1.47100276022E+02	1.13109538042E-04	-1.49152782736E+02	3.42268374822E-01	-6.73854838733E+00
7.51082164329E+10	2.59772826783E-01	2.92146521705E+01	1.32741629674E-04	1.76842543886E+02	1.22159085575E-04	-1.40289177420E+02	3.42889295369E-01	-8.41429825802E+00
7.51142284569E+10	2.59089587497E-01	2.84422249331E+01	9.43285018197E-05	-1.64462614138E+02	1.77053065137E-04	-1.55939669323E+02	3.44285113133E-01	-1.08092303331E+01
7.51202404810E+10	2.62265634598E-01	2.64449380426E+01	8.27343260956E-05	-1.64007168965E+02	8.99282727282E-05	-1.45981837995E+02	3.46196375665E-01	-1.27874618967E+01
7.51262525050E+10	2.60251283385E-01	2.47045113391E+01	1.03816841173E-04	1.79254705015E+02	1.36177563389E-04	-1.72364056291E+02	3.46955136463E-01	-1.54642221205E+01
7.51322645291E+10	2.61261276829E-01	2.41013325706E+01	4.28638753813E-05	1.77583213858E+02	1.44420760314E-04	1.67931661639E+02	3.53363479434E-01	-1.73290262817E+01
7.51382765531E+10	2.60477302552E-01	2.34206711357E+01	6.30782918365E-05	1.56459461346E+02	3.77135377269E-05	-1.57690367156E+02	3.49392945044E-01	-1.85645253373E+01
7.51442885772E+10	2.59180780232E-01	2.21271740412E+01	5.78968920681E-05	-1.77225429423E+02	4.94925866660E-05	1.66639142483E+02	3.61147909358E-01	-2.17537807612E+01
7.51503006012E+10	2.58823854306E-01	2.08226969287E+01	6.00550043384E-05	1.58673073967E+02	3.60805210671E-05	-1.63966443707E+02	3.56206934856E-01	-2.34089831587E+01
7.51563126253E+10	2.56723664995E-01	1.92299579866E+01	4.24950570316E-05	-1.36346643621E+02	1.35770777230E-04	-1.72958874942E+02	3.61502618820E-01	-2.60307338485E+01
7.51623246493E+10	2.62806571248E-01	1.77162086729E+01	1.03190543285E-04	-1.76232386819E+02	9.68251004118E-05	-1.69877780732E+02	3.69998286146E-01	-2.93811546229E+01
7.51683366733E+10	2.57871423270E-01	1.74193351308E+01	8.16157525140E-05	-1.52459584295E+02	1.08439818789E-04	1.55185774600E+02	3.79451730570E-01	-3.24730953893E+01
7.51743486974E+10	2.65336735409E-01	1.49117401318E+01	1.33014188771E-04	1.54365842756E+02	1.00051249850E-04	1.51380450414E+02	3.78862887756E-01	-3.52070120427E+01
7.51803607214E+10	2.63535382883E-01	1.38010587774E+01	6.06036148048E-05	9.57642142611E+01	1.26392673693E-04	-1.78667546233E+02	3.82486972395E-01	-3.88111929957E+01
7.51863727455E+10	2.66137062284E-01	1.15316487650E+01	6.38304368405E-05	1.48143298648E+02	1.47625271868E-04	1.41630506032E+02	3.90204646212E-01	-4.23089130348E+01
7.51923847695E+10	2.60125819769E-01	1.09762222916E+01	3.95774607586E-05	1.09463264734E+02	3.59584163020E-05	1.46739603008E+02	3.94702414006E-01	-4.51363375723E+01
7.51983967936E+10	2.60796428232E-01	1.19241648066E+01	3.91085155046E-05	-1.51668210288E+02	5.53632007017E-05	-1.78975851541E+02	4.04270090897E-01	-5.01459865947E+01
7.52044088176E+10	2.66821566879E-01	9.22084971829E+00	6.54350694958E-05	1.39395531502E+02	1.26230532802E-04	-1.79670963947E+02	4.04545154231E-01	-5.35123420882E+01
7.52104208417E+10	2.62874056068E-01	8.17257612293E+00	9.96930043639E-05	1.27854220803E+02	1.45822979334E-04	1.21126042975E+02	4.07098112138E-01	-5.81081765861E+01
7.52164328657E+10	2.65075687290E-01	6.51105574259E+00	5.78640808952E-05	7.69661037072E+01	7.59678266047E-05	1.40454877319E+02	4.18797381234E-01	-6.41796218523E+01
7.52224448898E+10	2.59491099074E-01	8.53228539857E+00	1.14035643996E-04	9.27369589914E+01	1.57022137555E-04	9.59922266032E+01	4.17286501461E-01	-6.82136918105E+01
7.52284569138E+10	2.69098799369E-01	3.91003552523E+00	7.83130237273E-05	8.55030412029E+01	1.23395017027E-04	1.34690685901E+02	4.22068072122E-01	-7.42503786364E+01
7.52344689379E+10	2.65627662128E-01	1.36225865044E+00	1.09175142857E-04	8.28870997008E+01	2.37359885352E-04	7.57506642623E+01	4.34307905615E-01	-8.18701740944E+01
7.52404809619E+10	2.70068258987E-01	5.26218924693E-01	1.15846354751E-04	7.02755863853E+01	9.64778599109E-05	9.24734110384E+01	4.23814538441E-01	-8.48616566522E+01
7.52464929860E+10	2.65464217460E-01	1.58381982217E+00	1.04275025253E-04	6.69094354327E+01	1.61211091069E-04	6.91887663774E+01	4.18875903805E-01	-9.00113728684E+01
7.52525050100E+10	2.64921082792E-01	-2.42597822243E+00	1.19197591412E-04	6.05718388555E+01	1.57127893259E-04	7.53331584536E+01	4.26847478238E-01	-1.00035217476E+02
7.52585170341E+10	2.62373597060E-01	-4.35548008247E-01	5.59958552914E-05	3.37658764191E+01	1.11029278081E-04	5.98819147405E+01	4.23432134733E-01	-1.06785967573E+02
7.52645290581E+10	2.68903260458E-01	-3.52000466820E+00	8.99589503302E-06	2.14350367960E+01	1.02440101916E-04	2.15627930011E+01	4.13142551573E-01	-1.12480043790E+02
7.52705410822E+10	2.68159772302E-01	-5.91750523856E+00	6.30823240807E-05	3.34489864350E+01	1.84798004305E-04	4.78688564808E+01	3.99868198351E-01	-1.18324244773E+02
7.52765531062E+10	2.64386908473E-01	-4.83821987527E+00	9.78477086868E-05	6.07533118163E+01	1.01941795838E-04	2.73910723371E+01	3.92501372284E-01	-1.28108967843E+02
7.52825651303E+10	2.65172736255E-01	-7.73918952060E+00	4.81020894169E-05	1.93021563564E+01	1.40405377877E-04	2.37550873505E+01	3.77714214195E-01	-1.33428613424E+02
7.52885771543E+10	2.69959451743E-01	-9.46248322113E+00	7.49902824912E-05	3.09606834709E+01	1.07981540425E-04	-4.94467770760E+01	3.69900404523E-01	-1.42943070287E+02
7.52945891784E+10	2.74383373868E-01	-1.10354750563E+01	8.25848255507E-05	2.28414184348E+01	4.26237709176E-05	-2.41711902307E+00	3.54317898395E-01	-1.50207594952E+02
7.53006012024E+10	2.72672347450E-01	-1.24408041082E+01	3.06789249614E-05	3.63108653552E+01	9.49588452192E-05	-1.09092748663E+02	3.38018312239E-01	-1.58904221559E+02
7.53066132265E+10	2.63769083067E-01	-1.03782447677E+01	8.00691063575E-05	1.64653745225E+01	6.95816965410E-05	-1.36795040068E+02	3.22383760227E-01	-1.67372864296E+02
7.53126252505E+10	2.65479248600E-01	-1.27439086651E+01	6.12275383200E-05	-2.05681834377E+01	7.82036111268E-05	6.24274820167E+01	3.06961432269E-01	-1.75345583075E+02
7.53186372745E+10	2.75972829236E-01	-1.72770095317E+01	6.91818901527E-05	1.26714998738E+02	2.24075482156E-05	1.10202878963E+02	2.92248682208E-01	1.74348409816E+02
7.53246492986E+10	2.74742251905E-01	-1.72874044524E+01	1.69760975174E-05	1.53645793487E+02	2.85647378754E-05	9.83263468873E+01	2.77259950426E-01	1.66005569827E+02
7.53306613226E+10	2.72263397325E-01	-1.72997126751E+01	3.70364086165E-05	1.16608724451E+02	7.53037795853E-05	7.47877366662E+01	2.64863501486E-01	1.57633808828E+02
7.53366733467E+10	2.70045120495E-01	-1.94128535907E+01	7.38877931886E-05	4.75392396763E+01	9.58345060179E-05	4.68790246757E+01	2.49783409385E-01	1.48350489646E+02
7.53426853707E+10	2.70464526282E-01	-1.93110001548E+01	1.86915149598E-05	5.03234246579E+01	6.97308094545E-05	2.77873872852E+01	2.40689150512E-01	1.42818875021E+02
7.53486973948E+10	2.80954455775E-01	-2.29564118308E+01	7.47219958718E-05	3.67536841656E+01	5.76136546824E-05	-2.69193681140E+01	2.30664008325E-01	1.35009737741E+02
7.53547094188E+10	2.76358837738E-01	-2.35099257989E+01	3.98999945179E-05	1.40854231650E+01	5.03754862417E-05	-8.32217745100E+01	2.22157766355E-01	1.25494735933E+02
7.53607214429E+10	2.78513113419E-01	-2.55143044050E+01	5.77815456358E-05	1.61625700929E+02	1.87623818661E-05	-1.47978959274E+02	2.14037983988E-01	1.17232397737E+02
7.53667334669E+10	2.77453268620E-01	-2.65914850998E+01	1.08418333226E-04	1.08634944243E+02	5.87830600275E-05	3.38471245363E+01	2.07544626316E-01	1.10465588711E+02
7.53727454910E+10	2.80450697113E-01	-2.79449799270E+01	1.38683959138E-05	8.81521113439E+01	1.24064020950E-04	-4.02024795421E+00	2.03455512668E-01	1.02904085300E+02
7.53787575150E+10	2.72980741539E-01	-2.71589221161E+01	9.30057182251E-05	-7.33097266334E+00	1.16951046646E-04	-3.11379567741E+00	2.00019880526E-01	9.69758822849E+01
7.53847695391E+10	2.79745130968E-01	-3.04560113786E+01	1.40729744374E-04	1.60294660422E+01	1.35949715962E-04	-4.49569047869E+01	1.98105424343E-01	8.80259257511E+01
7.53907815631E+10	2.80375076758E-01	-3.19092403573E+01	7.90384482638E-05	-8.18444048967E+01	9.26683850603E-05	-9.65820733478E+01	1.95869557092E-01	8.04524313402E+01
7.53967935872E+10	2.85680673190E-01	-3.48049897773E+01	1.10704668997E-04	-1.09478084966E+02	6.71719220917E-05	-1.07527609097E+02	1.97330783161E-01	7.50917570040E+01
7.54028056112E+10	2.88404295465E-01	-3.69535672249E+01	7.02980946206E-05	-1.60313369220E+02	5.62378935968E-05	1.00018269285E+02	1.97474277198E-01	6.93972342995E+01
7.54088176353E+10	2.79284588210E-01	-3.56979305005E+01	1.11127553904E-05	8.59939389605E+01	4.11086676318E-05	4.04334268191E+01	1.96325111433E-01	6.51165697910E+01
7.54148296593E+10	2.82978390615E-01	-3.71150875013E+01	1.13519658734E-04	8.34216296809E+01	1.01706605062E-04	2.93084940327E+01	1.95245294087E-01	5.71434661678E+01
7.54208416834E+10	2.91831488128E-01	-4.01369337537E+01	7.09204522882E-05	4.46015913419E+01	9.54628905330E-05	1.72343005663E+01	1.99714782812E-01	5.34535543292E+01
7.54268537074E+10	2.91426642847E-01	-4.19999100023E+01	7.38056221556E-05	-1.52232164695E+01	1.43329029910E-04	-9.59678543815E+00	2.03503514408E-01	4.80434495032E+01
7.54328657315E+10	2.88815962107E-01	-4.34344306815E+01	8.73008515802E-05	1.52210540885E+01	5.31382849178E-05	-2.86610396686E+01	2.04192038916E-01	4.26013799082E+01
7.54388777555E+10	2.88035660255E-01	-4.45190398758E+01	3.68895268896E-05	-5.69810951949E+01	4.97237382361E-05	-2.45889844518E+00	2.04976903649E-01	3.69039281969E+01
7.54448897796E+10	2.85573752806E-01	-4.54006251031E+01	7.58469477467E-05	9.07448102855E+00	5.94432481580E-05	2.24700479631E+00	2.08634382499E-01	3.20317636222E+01
7.54509018036E+10	2.95132033766E-01	-4.76059281113E+01	6.47790516529E-05	2.52798609297E+01	7.13761266556E-05	4.02009497893E+01	2.10356291082E-01	2.80019277426E+01
7.54569138277E+10	2.95623890777E-01	-4.95939770885E+01	1.03158254865E-04	3.53747167901E+01	6.67073811120E-05	2.00148445397E+01	2.12307391163E-01	2.30888434511E+01
7.54629258517E+10	3.00577445303E-01	-5.18030354794E+01	1.29902010512E-04	2.63983865276E+01	1.74092557682E-04	5.83744042970E+00	2.15400881422E-01	1.94571557162E+01
7.54689378758E+10	2.96804479040E-01	-5.34317634288E+01	1.43883348342E-04	1.13181755539E+01	1.58118979880E-04	-1.02173998686E+01	2.17244482712E-01	1.57236935347E+01
7.54749498998E+10	2.96881134014E-01	-5.34293963487E+01	2.00061622218E-04	-6.11844002346E+00	1.12319052346E-04	-3.46647275492E+01	2.17416893322E-01	1.14664050295E+01
7.54809619238E+10	2.98894497080E-01	-5.53070335754E+01	2.00623900399E-04	-2.85105343946E+01	1.71847794914E-04	-5.13428096410E+01	2.17818012551E-01	6.76925762798E+00
7.54869739479E+10	3.06318200508E-01	-5.84619281294E+01	2.23720530224E-04	-4.65342186370E+01	1.34040918781E-04	-7.84821090401E+01	2.16143956488E-01	2.54868673204E+00
7.54929859719E+10	2.97881088210E-01	-5.76325054932E+01	2.10998606489E-04	-4.51505492536E+01	1.65443474594E-04	-6.52924760783E+01	2.15276295386E-01	-1.26443638044E-01
7.54989979960E+10	2.98039774091E-01	-6.00346270695E+01	1.29825253285E-04	-5.94092141573E+01	1.21129069447E-04	-6.04073549159E+01	2.12050897561E-01	-1.89721213210E+00
7.55050100200E+10	3.06348475715E-01	-6.32151063911E+01	1.32471382509E-04	-5.26544235564E+01	1.68596384118E-04	-5.31177913075E+01	2.10846966039E-01	-4.21336951135E+00
7.55110220441E+10	3.11315555379E-01	-6.55532510517E+01	3.01762830761E-04	-5.07325817145E+01	2.65461465622E-04	-6.52232635206E+01	2.09276803713E-01	-7.13667769505E+00
7.55170340681E+10	3.10422367669E-01	-6.76504051611E+01	3.19593898352E-04	-7.06481499794E+01	2.28904460341E-04	-8.46921356988E+01	2.09712583826E-01	-8.67752010778E+00
7.55230460922E+10	3.06630956429E-01	-6.81379977973E+01	3.68809124088E-04	-7.43690821648E+01	3.04700285817E-04	-8.61498093784E+01	2.10179520175E-01	-8.55374503834E+00
7.55290581162E+10	3.08959308143E-01	-7.03332433484E+01	3.27368717777E-04	-1.03691869147E+02	2.70188978735E-04	-1.16594746194E+02	2.13336524855E-01	-8.61199788835E+00
7.55350701403E+10	3.05511403392E-01	-6.93469391279E+01	3.53257948275E-04	-1.00189374204E+02	2.61538991705E-04	-1.12593354437E+02	2.17728595223E-01	-1.00830550856E+01
7.55410821643E+10	3.16174640072E-01	-7.47836659560E+01	3.75253591499E-04	-1.11519299539E+02	2.79777025627E-04	-1.35705980015E+02	2.28617269851E-01	-1.25034385476E+01
7.55470941884E+10	3.11335272719E-01	-7.41791690164E+01	3.97667814398E-04	-1.23451192876E+02	2.72578601804E-04	-1.41981811926E+02	2.36078928992E-01	-1.47595883370E+01
7.55531062124E+10	3.13654630317E-01	-7.64328579557E+01	3.31403957827E-04	-1.45649040641E+02	2.26488640968E-04	-1.48691721378E+02	2.43225898856E-01	-1.50671177847E+01
7.55591182365E+10	3.13423152644E-01	-7.89542709867E+01	3.76135445494E-04	-1.52279698946E+02	2.61998105265E-04	-1.66395565737E+02	2.49172074633E-01	-1.87110434249E+01
7.55651302605E+10	3.18100240753E-01	-8.17573355015E+01	2.62832479260E-04	-1.70126523181E+02	2.52107433389E-04	-1.66550632790E+02	2.57699214545E-01	-2.07380979307E+01
7.55711422846E+10	3.25781912663E-01	-8.45967129853E+01	3.67299063078E-04	-1.75419771258E+02	2.54377551212E-04	-1.78495893248E+02	2.69794408627E-01	-2.37919738200E+01
7.55771543086E+10	3.21582033067E-01	-8.54491786292E+01	3.19366487371E-04	1.73034692813E+02	3.17950002474E-04	1.67246901022E+02	2.75054593185E-01	-2.57532577914E+01
7.55831663327E+10	3.20151505052E-01	-8.78851236522E+01	3.25301533289E-04	1.57310295561E+02	2.27612825474E-04	1.44418047601E+02	2.79766868311E-01	-2.77557681455E+01
7.55891783567E+10	3.21964100121E-01	-8.92076974524E+01	2.90645175728E-04	1.46738465872E+02	1.69466901259E-04	1.25686618493E+02	2.88482901950E-01	-3.03647972188E+01
7.55951903808E+10	3.23043528323E-01	-9.13527173870E+01	1.82675204781E-04	1.26547835772E+02	1.36130723514E-04	1.33312873846E+02	3.00932579713E-01	-3.35115260177E+01
7.56012024048E+10	3.33285709739E-01	-9.54140445514E+01	1.16872719926E-04	1.54920196940E+02	9.63561808108E-05	1.22549284103E+02	3.08012407016E-01	-3.56569394763E+01
7.56072144289E+10	3.27690106506E-01	-9.61931276560E+01	1.09004371800E-04	1.53022308374E+02	5.79210650412E-05	1.69278109776E+02	3.09982796722E-01	-3.69497669433E+01
7.56132264529E+10	3.27724058330E-01	-9.81176404013E+01	1.33514125023E-04	1.49713139410E+02	4.30164180613E-05	1.37528947169E+02	3.27444366154E-01	-4.13077832953E+01
7.56192384770E+10	3.23286962689E-01	-9.91368621625E+01	1.53383808577E-04	1.47946069335E+02	1.16339987495E-04	1.63450657157E+02	3.32506589292E-01	-4.17041179838E+01
7.56252505010E+10	3.23391933723E-01	-1.00378398413E+02	1.04942403750E-04	1.72915372618E+02	1.47285129861E-04	1.57901292667E+02	3.46977788955E-01	-4.56900388360E+01
7.56312625251E+10	3.34771584935E-01	-1.05702287286E+02	1.09145684464E-04	-1.77615936738E+02	1.62549545251E-04	1.69100679014E+02	3.51109006970E-01	-4.71668837865E+01
7.56372745491E+10	3.27366885642E-01	-1.05469999991E+02	2.54506400185E-04	1.49981858228E+02	1.66246017147E-04	1.54281244981E+02	3.67858920156E-01	-5.07508363126E+01
7.56432865731E+10	3.23571053208E-01	-1.06730904731E+02	2.04558604672E-04	1.48077257608E+02	1.74342160680E-04	1.41973696372E+02	3.87589956605E-01	-5.47720306349E+01
7.56492985972E+10	3.30188674508E-01	-1.11015963484E+02	1.61784574596E-04	1.46449111385E+02	1.98623125924E-04	1.59229180619E+02	3.91961850317E-01	-5.61494467486E+01
7.56553106212E+10	3.34262264444E-01	-1.14271507799E+02	2.23510655225E-04	1.53952815515E+02	2.09800186403E-04	1.54531109063E+02	4.06523136240E-01	-5.95033613527E+01
7.56613226453E+10	3.33838747629E-01	-1.15767483620E+02	2.28320166553E-04	1.44166112401E+02	2.73337555994E-04	1.42008746173E+02	4.24977765034E-01	-6.34939091124E+01
7.56673346693E+10	3.27767468914E-01	-1.16221352571E+02	3.79939885861E-04	1.32098579719E+02	3.14292525985E-04	1.40579791943E+02	4.46235027625E-01	-6.76737064593E+01
7.56733466934E+10	3.25714841889E-01	-1.17861213981E+02	3.99784895728E-04	1.24562769960E+02	3.83140676550E-04	1.30132918110E+02	4.51536405560E-01	-6.90608648163E+01
7.56793587174E+10	3.27477389579E-01	-1.21670249909E+02	3.72247760734E-04	1.11881930456E+02	3.31927082780E-04	1.25690668205E+02	4.71398913043E-01	-7.40064895426E+01
7.56853707415E+10	3.28093528442E-01	-1.24716270395E+02	3.14330846490E-04	9.30341746934E+01	3.41141450151E-04	1.12096364683E+02	5.01723931040E-01	-7.95152945573E+01
7.56913827655E+10	3.30973620669E-01	-1.28356327122E+02	4.33356285198E-04	9.17430180861E+01	4.88346382247E-04	1.06901146275E+02	5.03237647727E-01	-8.06288003265E+01
7.56973947896E+10	3.29545196387E-01	-1.30286747510E+02	5.19078902723E-04	8.56442891067E+01	4.69259420476E-04	8.60057110594E+01	5.21634489708E-01	-8.51664604097E+01
7.57034068136E+10	3.27861014972E-01	-1.30793372803E+02	4.48342430729E-04	7.94627986084E+01	4.34323742490E-04	8.36611984977E+01	5.38353190287E-01	-8.95160895244E+01
7.57094188377E+10	3.25372766086E-01	-1.33943036640E+02	4.79120074731E-04	6.39448170604E+01	5.00119828824E-04	6.69939286600E+01	5.62244422002E-01	-9.49611956985E+01
7.57154308617E+10	3.22146480842E-01	-1.33868813498E+02	4.55364871488E-04	6.30141555739E+01	5.11722162926E-04	5.95837397149E+01	5.86144183796E-01	-1.01049804443E+02
7.57214428858E+10	3.23609840465E-01	-1.36701888902E+02	5.17061204268E-04	5.07943661666E+01	5.54747669681E-04	4.79295793615E+01	6.10098275432E-01	-1.07550403663E+02
7.57274549098E+10	3.23174583338E-01	-1.40135745517E+02	4.49785624622E-04	3.37302958346E+01	4.83642277565E-04	3.01921377032E+01	6.15601384647E-01	-1.11645228984E+02
7.57334669339E+10	3.20826857610E-01	-1.43476602814E+02	3.89378987010E-04	2.93427267419E+01	5.50132365212E-04	1.85848788921E+01	6.29306897617E-01	-1.17533756985E+02
7.57394789579E+10	3.15675854122E-01	-1.43587843565E+02	4.21311202209E-04	9.53598565599E+00	5.37888680279E-04	1.61840300217E+01	6.47456213132E-01	-1.26272599305E+02
7.57454909820E+10	3.14320722640E-01	-1.44668248544E+02	3.77608845192E-04	1.44344206450E+01	4.52024001505E-04	-3.40106421049E+00	6.48731347722E-01	-1.32742751112E+02
7.57515030060E+10	3.16538061625E-01	-1.48295293103E+02	3.99505709795E-04	-1.43043789610E+00	4.13955576380E-04	3.23619857038E+00	6.45723599681E-01	-1.38497005801E+02
7.57575150301E+10	3.13498919452E-01	-1.49455368875E+02	4.54586673348E-04	-4.12847160937E+00	4.56852537036E-04	-1.37665658563E+01	6.34309755041E-01	-1.44224455540E+02
7.57635270541E+10	3.10875106816E-01	-1.52406793173E+02	4.26671660280E-04	-2.25051801516E+01	5.29048687181E-04	-2.55769865437E+01	6.23479844338E-01	-1.51747953328E+02
7.57695390782E+10	3.09117195184E-01	-1.55529765255E+02	3.51860873459E-04	-2.76907880664E+01	4.08484950238E-04	-3.40657698864E+01	6.11167406947E-01	-1.59806189084E+02
7.57755511022E+10	3.09072860608E-01	-1.57833649381E+02	2.47012938677E-04	-3.27427940775E+01	2.45154078138E-04	-3.40918505169E+01	5.89578527102E-01	-1.66362156989E+02
7.57815631263E+10	3.05608760095E-01	-1.60114267816E+02	3.29385392317E-04	-1.29113767275E+01	3.86545255190E-04	-4.36830632144E+01	5.66745496462E-01	-1.73045121072E+02
7.57875751503E+10	3.01571268064E-01	-1.60071091419E+02	4.02626503130E-04	-3.45357333914E+01	3.66841515227E-04	-3.55435446392E+01	5.41906162279E-01	-1.78131730800E+02
7.57935871743E+10	3.04773483770E-01	-1.63208127841E+02	3.84211463104E-04	-3.49823740441E+01	3.97215887870E-04	-4.60865093622E+01	5.19437208490E-01	1.76580587216E+02
7.57995991984E+10	2.98719426447E-01	-1.66435889378E+02	3.69674219697E-04	-4.24388970297E+01	4.01456391332E-04	-6.60998890913E+01	4.98120730704E-01	1.70765614705E+02
7.58056112224E+10	3.00237462867E-01	-1.68842254118E+02	3.78842841633E-04	-5.32445535756E+01	3.45217289909E-04	-8.62853813720E+01	4.74877246048E-01	1.62442239946E+02
7.58116232465E+10	2.97910222809E-01	-1.71479564050E+02	3.60319008337E-04	-6.75284247343E+01	3.96819461867E-04	-7.78471943938E+01	4.54075240005E-01	1.55798725874E+02
7.58176352705E+10	2.92596228917E-01	-1.72910493860E+02	3.07888833141E-04	-8.09298556440E+01	3.27274125168E-04	-9.53453521286E+01	4.31218470134E-01	1.50041302644E+02
7.58236472946E+10	2.92484219870E-01	-1.77484227028E+02	3.22349116757E-04	-8.01575017233E+01	3.12254497031E-04	-9.92093546624E+01	4.05974701831E-01	1.44605204076E+02
7.58296593186E+10	2.90249689476E-01	-1.76781804850E+02	2.92822446434E-04	-9.79820494442E+01	3.24586826126E-04	-1.04159420249E+02	3.87437424873E-01	1.38683791863E+02
7.58356713427E+10	2.87569743960E-01	-1.78223758912E+02	3.47897182809E-04	-1.07424695338E+02	3.28639147271E-04	-1.15767272005E+02	3.62267520705E-01	1.32964000571E+02
7.58416833667E+10	2.85070266506E-01	-1.78523114799E+02	3.58063368641E-04	-1.13572837630E+02	2.70080648504E-04	-1.17781752889E+02	3.40572563601E-01	1.25840796296E+02
7.58476953908E+10	2.82296582601E-01	1.77689295738E+02	2.25892653565E-04	-1.26809825939E+02	2.60725550111E-04	-1.33477434765E+02	3.18923251777E-01	1.17362530998E+02
7.58537074148E+10	2.82478572307E-01	1.75047610100E+02	1.68679879801E-04	-1.23179535830E+02	1.66826908901E-04	-1.35806115310E+02	3.02820678826E-01	1.10537253393E+02
7.58597194389E+10	2.79560008776E-01	1.72266514615E+02	2.55087164368E-04	-1.13179926274E+02	1.91595180210E-04	-1.28915574668E+02	2.81054733431E-01	1.04150358551E+02
7.58657314629E+10	2.76372723708E-01	1.69735308056E+02	2.70790023526E-04	-1.19253447049E+02	2.38502379718E-04	-1.16027978119E+02	2.65049290451E-01	9.66875061345E+01
7.58717434870E+10	2.72240389916E-01	1.66295531808E+02	2.13871697610E-04	-1.08786015849E+02	2.16817357160E-04	-1.41132202732E+02	2.48450464703E-01	8.84552893529E+01
7.58777555110E+10	2.70768771703E-01	1.66525111397E+02	1.86398429518E-04	-1.26328809878E+02	1.91082545667E-04	-1.50461106434E+02	2.34946822279E-01	7.91855607359E+01
7.58837675351E+10	2.67053137942E-01	1.63160031067E+02	1.87249811792E-04	-1.25399906480E+02	1.28389770124E-04	-1.38011548650E+02	2.19224968102E-01	7.02706311386E+01
7.58897795591E+10	2.66836078466E-01	1.64489292977E+02	2.46463383330E-04	-1.02832578585E+02	1.48981791841E-04	-1.22072014052E+02	2.08753617729E-01	6.20983555714E+01
7.58957915832E+10	2.63821295799E-01	1.58841159738E+02	3.11525090096E-04	-1.18070545980E+02	2.34998396800E-04	-1.22876635653E+02	1.99432458903E-01	5.21507319202E+01
7.59018036072E+10	2.63175506625E-01	1.58554805786E+02	3.29283025924E-04	-1.25970751965E+02	1.78042129255E-04	-1.34015069411E+02	1.95283655591E-01	4.13086583591E+01
7.59078156313E+10	2.59519770305E-01	1.58013193990E+02	2.81979088239E-04	-1.47292280374E+02	1.82461057093E-04	-1.21804453194E+02	1.93433504804E-01	3.20363594232E+01
7.59138276553E+10	2.55786020208E-01	1.51830970343E+02	3.59849533477E-04	-1.44831460372E+02	2.79330503514E-04	-1.42422044837E+02	1.92646384588E-01	2.20148408144E+01
7.59198396794E+10	2.56617017231E-01	1.51258108615E+02	3.76395572052E-04	-1.41820457358E+02	1.84139670116E-04	-1.55341048957E+02	1.95129674528E-01	1.34670057304E+01
7.59258517034E+10	2.52860688374E-01	1.50063711215E+02	4.12097858246E-04	-1.51239587046E+02	2.78759008812E-04	-1.44857004797E+02	2.02272695556E-01	3.33292019329E+00
7.59318637275E+10	2.50319725666E-01	1.50559448527E+02	3.90225275616E-04	-1.63800438300E+02	3.06588572979E-04	-1.56942839484E+02	2.10656528228E-01	-4.63353662636E+00
7.59378757515E+10	2.45730924587E-01	1.45411817723E+02	3.66595776399E-04	1.77015589981E+02	2.99097261074E-04	-1.65015592199E+02	2.18601045343E-01	-1.28566094969E+01
7.59438877756E+10	2.47448177451E-01	1.46795659019E+02	4.01095271332E-04	1.73474294545E+02	2.71298424594E-04	-1.73133608989E+02	2.32243559426E-01	-2.05371630232E+01
7.59498997996E+10	2.45134350334E-01	1.41966919164E+02	4.04217363061E-04	1.60787161754E+02	2.90278561166E-04	-1.72836439216E+02	2.45312296857E-01	-2.86158199138E+01
7.59559118236E+10	2.42062712039E-01	1.40419357692E+02	4.02484005707E-04	1.63669190993E+02	2.83539109587E-04	1.67991964374E+02	2.60633316488E-01	-3.54876247688E+01
7.59619238477E+10	2.37826440380E-01	1.37257340784E+02	4.11843754750E-04	1.46589939388E+02	3.31132229704E-04	1.62032311503E+02	2.76477597983E-01	-4.19565311733E+01
7.59679358717E+10	2.36608729183E-01	1.39062767515E+02	4.13164911716E-04	1.33307901891E+02	3.25899020391E-04	1.54599771044E+02	2.95145795950E-01	-4.84096309726E+01
7.59739478958E+10	2.36989359075E-01	1.34250922346E+02	4.04476664237E-04	1.33290381241E+02	3.06349310042E-04	1.52589389002E+02	3.11742399208E-01	-5.19665556657E+01
7.59799599198E+10	2.33548911541E-01	1.32523356654E+02	4.21444015008E-04	1.28794833199E+02	2.79331588379E-04	1.57718313424E+02	3.41173614540E-01	-5.95255637553E+01
7.59859719439E+10	2.28374680480E-01	1.31477379345E+02	3.98538037610E-04	1.07138967583E+02	4.09993745568E-04	1.39175392938E+02	3.61345716886E-01	-6.49031396782E+01
7.59919839679E+10	2.29829410538E-01	1.29052556642E+02	3.32780007854E-04	1.05699590496E+02	3.64640278954E-04	1.31257115644E+02	3.87813222350E-01	-7.03892207651E+01
7.59979959920E+10	2.28465529397E-01	1.28381320291E+02	3.21294011573E-04	9.62450563348E+01	3.10508698922E-04	1.14380216243E+02	4.02657003107E-01	-7.37379035094E+01
7.60040080160E+10	2.24440149883E-01	1.28150584217E+02	3.33557222562E-04	1.02167126986E+02	3.10162113579E-04	1.14199902267E+02	4.38090768760E-01	-7.98488228657E+01
7.60100200401E+10	2.23075112023E-01	1.24203184551E+02	3.16495872431E-04	8.60694036187E+01	3.99771296540E-04	1.04979607805E+02	4.63784835856E-01	-8.49389577312E+01
7.60160320641E+10	2.20876187077E-01	1.22653269708E+02	4.26024629160E-04	6.79468350511E+01	4.36617772580E-04	1.01225086213E+02	4.99771491782E-01	-9.03728208382E+01
7.60220440882E+10	2.20082392283E-01	1.19597609401E+02	3.11017301413E-04	5.40970023007E+01	4.10877603318E-04	8.59736258522E+01	5.20044346908E-01	-9.38254307377E+01
7.60280561122E+10	2.18056494246E-01	1.18124843180E+02	2.57971038219E-04	5.42876760129E+01	3.44856213206E-04	8.34370148023E+01	5.47568246783E-01	-9.87462308237E+01
7.60340681363E+10	2.17638627418E-01	1.18856750449E+02	2.80392843829E-04	5.05050826528E+01	4.30468262803E-04	8.38870575366E+01	5.91874561962E-01	-1.05568677930E+02
7.60400801603E+10	2.15258083605E-01	1.19095562635E+02	2.22340214691E-04	4.50378822225E+01	2.90367750142E-04	7.35346155228E+01	6.40757789901E-01	-1.12907211288E+02
7.60460921844E+10	2.14103285473E-01	1.14784704921E+02	2.53282797929E-04	3.97651814190E+01	2.83483230155E-04	5.81904251514E+01	6.56203630131E-01	-1.15853868119E+02
7.60521042084E+10	2.10225927631E-01	1.14579600529E+02	1.95747504630E-04	3.36168833733E+01	3.09182692499E-04	6.06144953471E+01	6.83851683254E-01	-1.20475208093E+02
7.60581162325E+10	2.09785526035E-01	1.11662761639E+02	1.55259272254E-04	1.69030481134E+01	2.98713464449E-04	4.78917393625E+01	7.21329622140E-01	-1.27046559763E+02
7.60641282565E+10	2.11425890968E-01	1.09578952179E+02	1.62258539381E-04	2.09113707888E+01	3.38398314921E-04	4.24493200846E+01	7.68340436008E-01	-1.34744512254E+02
7.60701402806E+10	2.08088835671E-01	1.09266244497E+02	1.81387175080E-04	4.01470006375E+01	2.44390615163E-04	2.98360387242E+01	7.76665526474E-01	-1.37831283057E+02
7.60761523046E+10	2.06281675696E-01	1.05618713454E+02	1.61281564717E-04	1.32820055095E+01	2.34356731672E-04	3.91928940179E+01	8.03794363192E-01	-1.43589191778E+02
7.60821643287E+10	2.06564757085E-01	1.05919575436E+02	2.33264945270E-04	1.96117732745E+01	2.43335105536E-04	2.57702155550E+01	8.26634971178E-01	-1.49935542210E+02
7.60881763527E+10	2.04516281891E-01	1.04565509176E+02	1.74235666453E-04	1.96690267363E+01	2.69733954456E-04	-8.05910493960E+00	8.57429757782E-01	-1.58834461087E+02
7.60941883768E+10	2.01085870014E-01	1.00375328210E+02	2.50648704915E-04	1.30735202912E+01	3.09790819853E-04	1.79267301695E+01	8.67239610498E-01	-1.64260847064E+02
7.61002004008E+10	2.04010887568E-01	9.89430179626E+01	1.63845049170E-04	-3.31053692724E+00	3.16860002140E-04	4.71112583947E+00	8.72955849639E-01	-1.69970024061E+02
7.61062124248E+10	2.04457913866E-01	9.73414871178E+01	1.84852996947E-04	-8.68716336992E+00	2.77841147434E-04	-4.02732740750E+00	8.67034038752E-01	-1.73226418835E+02
7.61122244489E+10	1.97971230046E-01	9.48474816101E+01	1.96483574769E-04	-2.83787888904E+00	3.75474518788E-04	-2.11548192288E+01	8.65803633985E-01	-1.79568063868E+02
7.61182364729E+10	2.00672468846E-01	9.35054413214E+01	2.09368172898E-04	-2.21225813916E+01	3.62760854040E-04	-2.86321849874E+01	8.62975133031E-01	1.72396751958E+02
7.61242484970E+10	1.97440500303E-01	9.48918961379E+01	2.16422335348E-04	-1.93852277134E+01	2.95210727753E-04	-4.74728098132E+01	8.54806725271E-01	1.65977690953E+02
7.61302605210E+10	1.96416431716E-01	9.34004112972E+01	1.61370352712E-04	-3.25471043339E+01	2.79445386529E-04	-4.25298043061E+01	8.40367843973E-01	1.62795721319E+02
7.61362725451E+10	1.94464703885E-01	8.89167047583E+01	1.56696598461E-04	-4.02136840036E+01	2.59598873067E-04	-4.50049328873E+01	8.28120386952E-01	1.58488152964E+02
7.61422845691E+10	1.95559408192E-01	8.63350741143E+01	1.43571951628E-04	-6.48632049848E+01	3.01919472205E-04	-7.37727748616E+01	8.10246062058E-01	1.53953001515E+02
7.61482965932E+10	1.92934784428E-01	8.50719325908E+01	1.48718521480E-04	-5.29450256225E+01	2.76439813176E-04	-7.82810019664E+01	7.91625013379E-01	1.48883486348E+02
7.61543086172E+10	1.95304270015E-01	8.53170869136E+01	1.35979817676E-04	-8.01948511627E+01	1.89295945969E-04	-7.41171275415E+01	7.75654911139E-01	1.44766379759E+02
7.61603206413E+10	1.91491775600E-01	8.58528711620E+01	8.55481564126E-05	-9.17072104149E+01	1.42324084313E-04	-7.06478762486E+01	7.57061777293E-01	1.39320436855E+02
7.61663326653E+10	1.90730900035E-01	8.24695568995E+01	7.90669495352E-05	-5.84116739590E+01	1.45486939012E-04	-8.12520798512E+01	7.41513851430E-01	1.37250840472E+02
7.61723446894E+10	1.90850480436E-01	7.95019359259E+01	1.03200545653E-04	-4.37148047245E+01	2.09467454080E-04	-1.11885045909E+02	7.27145127512E-01	1.33843073660E+02
7.61783567134E+10	1.89955293240E-01	7.78872351014E+01	1.87785277921E-04	-1.12217846788E+02	1.69756052254E-04	-1.14163104797E+02	7.13493281887E-01	1.31365138628E+02
7.61843687375E+10	1.88896989401E-01	7.69617141962E+01	6.19275532792E-05	-1.26289524601E+02	1.78999406939E-04	-1.29891850196E+02	6.94283646302E-01	1.25929378213E+02
7.61903807615E+10	1.86382292043E-01	7.50716539330E+01	3.47508750608E-05	-1.50723576817E+02	1.04368329082E-04	1.74320395189E+02	6.85993972643E-01	1.24055132115E+02
7.61963927856E+10	1.86524948338E-01	7.52157171941E+01	4.17959009079E-05	-1.27036020204E+02	1.68901696419E-04	-1.35232334509E+02	6.75411133951E-01	1.22645035238E+02
7.62024048096E+10	1.82566225189E-01	7.27309769061E+01	1.26108917278E-04	-1.06189527738E+02	1.50065523860E-04	-1.15878243388E+02	6.64601339267E-01	1.19447044370E+02
7.62084168337E+10	1.83400787105E-01	7.19246840237E+01	7.01205497613E-05	-1.02803230045E+02	8.90031622504E-05	-1.03394449970E+02	6.52539867941E-01	1.15170716689E+02
7.62144288577E+10	1.84050166424E-01	7.08741408011E+01	1.59991216195E-04	-1.51582413787E+02	6.46197905241E-05	-9.42042779079E+01	6.41048846627E-01	1.11113069077E+02
7.62204408818E+10	1.82505846572E-01	6.79675524101E+01	6.95316996655E-05	-1.09869060243E+02	8.45399580159E-05	-1.17437816325E+02	6.29024370301E-01	1.08194001207E+02
7.62264529058E+10	1.84069076294E-01	6.53386359479E+01	9.38028514510E-05	-1.46663768249E+02	6.06458563010E-05	8.29637074929E+01	6.22070418257E-01	1.06263163947E+02
7.62324649299E+10	1.79572577438E-01	6.55791946173E+01	1.83653457356E-05	-4.00441435676E+01	9.68990880566E-06	-4.98042977542E+00	6.13823418617E-01	1.04121581629E+02
7.62384769539E+10	1.79457941686E-01	6.49166435138E+01	3.79663245883E-05	1.75229417175E+02	9.26481393108E-06	1.27652876042E+02	6.03290973894E-01	1.01323401301E+02
7.62444889780E+10	1.80683064755E-01	6.30830118645E+01	5.96570036140E-05	-1.18027383674E+01	1.18500520989E-04	-7.13875145773E+01	5.92835019682E-01	9.78722692088E+01
7.62505010020E+10	1.79681581286E-01	6.26371115928E+01	9.50805500587E-05	-9.26393538235E+01	4.21207249950E-05	-3.29147863796E+01	5.83156198147E-01	9.44970639400E+01
7.62565130261E+10	1.80946581189E-01	5.94448993604E+01	1.03548399567E-04	-4.03922909445E+01	5.05615283510E-05	-1.20114152613E+02	5.75010079544E-01	9.31015489715E+01
7.62625250501E+10	1.79114263419E-01	5.65136907092E+01	7.46399840024E-05	-2.25827290130E+01	1.10607845102E-04	-7.50641611366E+01	5.68207399370E-01	9.04551835321E+01
7.62685370741E+10	1.77919350662E-01	5.58476578258E+01	1.71655030599E-04	-7.02411322685E+01	1.27163048432E-04	-7.07200426159E+01	5.54785336565E-01	8.79527292401E+01
7.62745490982E+10	1.77059137467E-01	5.61320252399E+01	8.49526494329E-05	-1.04869419076E+02	1.89705019330E-04	-9.96930256750E+01	5.46970127023E-01	8.44298592919E+01
7.62805611222E+10	1.79218239346E-01	5.44314810722E+01	1.62916060291E-04	-9.41596526340E+01	1.78003915672E-04	-1.21857727858E+02	5.29603864668E-01	8.08768807491E+01
7.62865731463E+10	1.76959864156E-01	5.28731164853E+01	1.30475572143E-04	-1.17920858131E+02	1.42181508728E-04	-1.52442762896E+02	5.24933529451E-01	8.05720193766E+01
7.62925851703E+10	1.76059634098E-01	5.04339438654E+01	1.51343068885E-04	-1.29681586244E+02	1.77901568673E-04	-1.46020184071E+02	5.16652162988E-01	7.81612695667E+01
7.62985971944E+10	1.76069876341E-01	4.80941994523E+01	1.71678292791E-04	-1.11656167401E+02	1.50877773249E-04	-1.37916424760E+02	5.07665759689E-01	7.56417660947E+01
7.63046092184E+10	1.73427184471E-01	4.54962786917E+01	9.22086136102E-05	-1.51908016606E+02	9.25990176611E-05	-1.42885366255E+02	4.98840143420E-01	7.31653081904E+01
7.63106212425E+10	1.74923550959E-01	4.60937635955E+01	1.25351339384E-04	-1.65761492550E+02	1.00162822392E-04	-1.57766213786E+02	4.88610185290E-01	7.00215040757E+01
7.63166332665E+10	1.72430233669E-01	4.52053164597E+01	1.19546085212E-04	-1.37785147548E+02	1.45633844242E-04	-1.74965710531E+02	4.78969905648E-01	6.88089826729E+01
7.63226452906E+10	1.76668291195E-01	4.40185179269E+01	1.73615768448E-04	-1.51064965881E+02	1.63432736704E-04	-1.47309649691E+02	4.69724354824E-01	6.71156409004E+01
7.63286573146E+10	1.72513638335E-01	4.35188051276E+01	1.35315335121E-04	-1.64486879478E+02	2.06195311514E-04	-1.74988373437E+02	4.61725502167E-01	6.46767116175E+01
7.63346693387E+10	1.71446288819E-01	4.12505299552E+01	2.35581906091E-04	1.76102081126E+02	1.68825757306E-04	1.79638081581E+02	4.53676168369E-01	6.14781878794E+01
7.63406813627E+10	1.71645452448E-01	4.00100178398E+01	1.80488607325E-04	1.65147441599E+02	1.96866488216E-04	1.39478407725E+02	4.40638559271E-01	5.97289664031E+01
7.63466933868E+10	1.74619328040E-01	3.84464310948E+01	1.34326501626E-04	1.54926151059E+02	1.73452163609E-04	1.46245937148E+02	4.32460242134E-01	5.82004896836E+01
7.63527054108E+10	1.72536217906E-01	3.66502013227E+01	1.94296392689E-04	1.40556267760E+02	1.14267501356E-04	1.41975136817E+02	4.31475510477E-01	5.81842932450E+01
7.63587174349E+10	1.71577166710E-01	3.75524303628E+01	2.07035335640E-04	1.36082531149E+02	1.55994829359E-04	1.28307483954E+02	4.25232059678E-01	5.61828681085E+01
7.63647294589E+10	1.73084231068E-01	3.40295107628E+01	1.40625925703E-04	1.27920487474E+02	1.31822677845E-04	8.61196920761E+01	4.18373870418E-01	5.45304220502E+01
7.63707414830E+10	1.72678666428E-01	3.21296358681E+01	1.10011902795E-04	9.53999619808E+01	1.14794839828E-04	8.99867488289E+01	4.12296799596E-01	5.23153014891E+01
7.63767535070E+10	1.72214675566E-01	3.17607823095E+01	1.21453533183E-04	1.25571782062E+02	8.66940499733E-05	1.03246587640E+02	4.12394329661E-01	5.15787656767E+01
7.63827655311E+10	1.71459506416E-01	2.94152054979E+01	1.06321101498E-04	1.47175899784E+02	3.29173391341E-05	1.51821852143E+02	4.11755760448E-01	5.09144191114E+01
7.63887775551E+10	1.72014192167E-01	2.95898270574E+01	5.74623542598E-05	1.39469288491E+02	8.78631160542E-05	1.28253433982E+02	4.10459535348E-01	4.86633484969E+01
7.63947895792E+10	1.71043252163E-01	2.74345384909E+01	1.44166553090E-04	1.21290937597E+02	7.01024014604E-05	1.16311026267E+02	4.10465619267E-01	4.84290314168E+01
7.64008016032E+10	1.68593053161E-01	2.59778768718E+01	1.77891216394E-04	8.46778948864E+01	1.58983755728E-04	7.88435828158E+01	4.05005084012E-01	4.56195538259E+01
7.64068136273E+10	1.73144322403E-01	2.50014124310E+01	1.46058784881E-04	9.82346653799E+01	1.57968234038E-04	6.09153878185E+01	4.02743740432E-01	4.24671305076E+01
7.64128256513E+10	1.71754800470E-01	2.20069330446E+01	1.54379356252E-04	5.56069329666E+01	1.40364089651E-04	5.49145426964E+01	4.04215447912E-01	4.06621844719E+01
7.64188376754E+10	1.70998835825E-01	2.09272742708E+01	1.32867743869E-04	3.71519382026E+01	8.80972409453E-05	8.35581116990E+01	4.04789274765E-01	3.97666166313E+01
7.64248496994E+10	1.70542446853E-01	2.00066056715E+01	1.11239294379E-04	3.55351740119E+01	6.97343584667E-05	2.96455911722E+01	3.98102428127E-01	3.75208456858E+01
7.64308617234E+10	1.72257249214E-01	1.86437248876E+01	9.55132360391E-05	8.15388152636E+01	7.12066525026E-05	4.74158145532E+01	3.97027917579E-01	3.61968123441E+01
7.64368737475E+10	1.72251436346E-01	1.72773565765E+01	8.41721452998E-05	3.63756805616E+01	4.69561499043E-05	1.34432403095E+01	4.01520538350E-01	3.37986018536E+01
7.64428857715E+10	1.72236730260E-01	1.64267189710E+01	1.01059232403E-04	5.70649875297E+01	8.06186865406E-05	3.58308489105E+01	3.97695893597E-01	3.20190038758E+01
7.64488977956E+10	1.70605995065E-01	1.38985837303E+01	1.25866388831E-04	1.25337092565E+01	9.77932655093E-05	5.24326798871E+01	3.94717669707E-01	3.00188491963E+01
7.64549098196E+10	1.69255150390E-01	1.37231569192E+01	1.12346094316E-04	3.22539440279E+01	1.00779581426E-04	1.84631154243E+01	3.93250492289E-01	2.86081115860E+01
7.64609218437E+10	1.69884578511E-01	1.09960614445E+01	1.02545945168E-04	-3.00576839395E-01	9.23649158488E-05	-5.53483312231E+00	3.89784340605E-01	2.73395460786E+01
7.64669338677E+10	1.69947403991E-01	9.32888600312E+00	7.29584083290E-05	4.05254744264E+00	4.67131140601E-05	5.45110972219E+00	3.87082109022E-01	2.46400807657E+01
7.64729458918E+10	1.71716023742E-01	7.49893661606E+00	7.61786926997E-05	-7.44462499467E+01	5.80509894039E-06	-1.38924891439E+02	3.87936957525E-01	2.29095251380E+01
7.64789579158E+10	1.71947679406E-01	7.60294538286E+00	5.48970577453E-05	6.23278705494E+01	2.28917445463E-05	1.53483221931E+02	3.84826837516E-01	2.12861056157E+01
7.64849699399E+10	1.72430367098E-01	6.03231215543E+00	3.23501187155E-05	-1.20686724711E+02	2.40925472597E-05	-9.29953640231E+01	3.84692116607E-01	1.92626938623E+01
7.64909819639E+10	1.69968596187E-01	5.65016857075E+00	5.38406747858E-05	-4.80145358744E+01	3.70679325284E-05	-1.19009512247E+02	3.81477602675E-01	1.77170573582E+01
7.64969939880E+10	1.70055583295E-01	3.20110710269E+00	3.48690201044E-05	-2.02663645808E+01	2.14810566507E-05	2.83017219783E+00	3.77511685353E-01	1.60672544272E+01
7.65030060120E+10	1.69140655086E-01	1.06516461867E+00	2.09054497263E-05	-1.30141082483E+02	2.20489335044E-05	-5.13129587391E+01	3.76100635044E-01	1.43464459831E+01
7.65090180361E+10	1.71755938133E-01	2.40617747004E-02	5.07846752562E-05	-6.17810155131E+00	2.90966791752E-05	-5.36130907314E+01	3.74735858675E-01	1.23316201201E+01
7.65150300601E+10	1.71232111802E-01	-1.64526385964E+00	2.58474261680E-05	-1.48729993208E+02	3.21667161200E-05	-1.70146522654E+02	3.74122477857E-01	9.39032027428E+00
7.65210420842E+10	1.69599375267E-01	-3.18925422531E+00	3.43074439732E-05	-1.37969727575E+02	4.41360104597E-05	-2.04703123313E+01	3.73860551121E-01	9.11042593936E+00
7.65270541082E+10	1.68837384838E-01	-3.65173158296E+00	3.23058412554E-05	-4.71201429971E+01	6.48904384638E-05	3.32836877339E+01	3.73983208724E-01	7.04973578247E+00
7.65330661323E+10	1.71703378440E-01	-6.08879981850E+00	7.69417208363E-05	2.91979446401E+01	6.09193181382E-05	2.31694583430E+01	3.72280428576E-01	5.04470708396E+00
7.65390781563E+10	1.71819817355E-01	-7.60079807026E+00	6.10503460308E-05	3.43223002999E+01	7.92862788852E-05	-3.61029290032E+01	3.66767559624E-01	3.62380383746E+00
7.65450901804E+10	1.73054620264E-01	-7.85376745366E+00	5.29148994874E-05	-4.44486908523E+01	9.80307678812E-05	-4.80257483401E+01	3.65756401704E-01	1.83985703354E+00
7.65511022044E+10	1.71378685259E-01	-1.05912693224E+01	1.23969301115E-04	-6.07635375890E+01	6.76808631561E-05	-3.81745635403E+01	3.64286577227E-01	-1.25870226409E-01
7.65571142285E+10	1.70113320564E-01	-1.14384107318E+01	4.38614400079E-05	1.54247999017E+02	4.18488406150E-05	1.47942585090E+00	3.67156418105E-01	-1.88160743839E+00
7.65631262525E+10	1.71078153456E-01	-1.27328765420E+01	5.23912449254E-05	-2.63502820050E+01	5.97164346703E-05	-3.83267822608E+01	3.66973247543E-01	-3.38200757988E+00
7.65691382766E+10	1.70944421167E-01	-1.50799036012E+01	5.06074959525E-05	1.80249336115E+01	2.24351256546E-05	-4.65169498002E+01	3.62120177376E-01	-5.92042390383E+00
7.65751503006E+10	1.71624059684E-01	-1.69386404605E+01	8.12783454733E-05	-7.24691367778E+01	7.84761155234E-05	-6.58894170360E+01	3.64117342960E-01	-6.83529576923E+00
7.65811623246E+10	1.71749811187E-01	-1.86456879933E+01	5.50039380578E-05	-6.31521343965E+01	6.92166850611E-05	-4.40244741629E+01	3.64592443426E-01	-8.54870498692E+00
7.65871743487E+10	1.70561312653E-01	-2.01179184093E+01	8.17990166516E-05	-1.27758445298E+02	5.97434199443E-05	-8.50912137560E+01	3.62661572857E-01	-1.03990951943E+01
7.65931863727E+10	1.69840877343E-01	-1.92140053898E+01	3.21682711211E-05	-9.21903958737E+01	5.67185764338E-05	-1.49954042533E+02	3.62822148690E-01	-1.26171825883E+01
7.65991983968E+10	1.72174873985E-01	-2.23926792445E+01	3.95302870530E-05	1.79160368816E+02	3.76193106006E-05	-1.26785000973E+02	3.63489856953E-01	-1.39272776635E+01
7.66052104208E+10	1.71251598135E-01	-2.38957557801E+01	2.13727596492E-05	-4.84914245634E+01	5.02496490463E-05	-6.03061624570E+01	3.60669643760E-01	-1.59120736880E+01
7.66112224449E+10	1.69224269377E-01	-2.54115277265E+01	3.75333179945E-05	1.08892969441E+02	2.21135582145E-05	-1.11092498438E+01	3.63540614047E-01	-1.77991625092E+01
7.66172344689E+10	1.71139556596E-01	-2.71348961653E+01	4.85892484628E-05	-8.04969404601E+01	6.76161537083E-05	-3.16307857445E+01	3.62164334473E-01	-1.90245650558E+01
7.66232464930E+10	1.71557066425E-01	-2.89848853738E+01	3.82206993821E-05	-8.52617162378E+01	5.66408555210E-05	-9.74848888277E+01	3.62292642653E-01	-2.09120018932E+01
7.66292585170E+10	1.70195131311E-01	-2.81776883466E+01	1.16420198239E-04	-1.27765024809E+02	5.97828150473E-05	-1.11745681420E+02	3.60120815402E-01	-2.27353224356E+01
7.66352705411E+10	1.70654510439E-01	-3.12604657630E+01	4.57490550348E-05	-1.08734275225E+02	8.31493018002E-05	-1.38495358547E+02	3.59448218012E-01	-2.42063574476E+01
7.66412825651E+10	1.70779740942E-01	-3.33719760521E+01	1.00876578891E-04	-1.63004711575E+02	2.04075302015E-05	-1.46426403228E+02	3.60366320788E-01	-2.60674157673E+01
7.66472945892E+10	1.70364447972E-01	-3.49649257606E+01	5.53733101297E-05	1.63819286243E+02	1.82285210217E-05	1.46938136988E+02	3.61054787128E-01	-2.70361645714E+01
7.66533066132E+10	1.70100034593E-01	-3.54557925319E+01	9.45840376790E-05	1.36290961763E+02	1.98949127079E-05	1.61002577853E+02	3.64599177035E-01	-2.93629589610E+01
7.66593186373E+10	1.66987603227E-01	-3.65048467361E+01	1.63329762428E-05	1.45877197390E+02	4.46045516563E-06	-1.43878742196E+02	3.63517649887E-01	-3.20254787843E+01
7.66653306613E+10	1.70576745099E-01	-3.96992872882E+01	1.19787529964E-04	9.56369928516E+01	3.14483744168E-05	-1.34058720940E+02	3.66702069589E-01	-3.39142811751E+01
7.66713426854E+10	1.71459003328E-01	-4.11284857508E+01	2.15575917187E-05	5.27344911167E+01	3.57501840149E-05	-1.31057151938E+02	3.65737874457E-01	-3.51129891719E+01
7.66773547094E+10	1.71965780611E-01	-4.26093463040E+01	1.54930153752E-05	-1.58550697117E+01	4.09685745830E-05	-1.79062884138E+02	3.60853327662E-01	-3.66895859969E+01
7.66833667335E+10	1.69586504755E-01	-4.27065629930E+01	3.12482164250E-05	-4.99310759097E+01	2.28966302008E-05	-1.88179122943E+01	3.67717356930E-01	-3.79354818185E+01
7.66893787575E+10	1.68181952608E-01	-4.43795775930E+01	8.81268597217E-05	-1.22054813444E+02	1.00198131285E-04	-1.10030636003E+02	3.66644443164E-01	-4.03077680696E+01
7.66953907816E+10	1.69135911684E-01	-4.53253623166E+01	1.69545666075E-04	-1.30504712265E+02	6.69037131078E-05	-1.29806295339E+02	3.68896650860E-01	-4.24760836477E+01
7.67014028056E+10	1.70980303203E-01	-4.74637192337E+01	7.64513216581E-05	-1.50826013535E+02	8.82954590756E-05	-1.78660493876E+02	3.69751830165E-01	-4.48023823697E+01
7.67074148297E+10	1.70677393984E-01	-4.95938892380E+01	8.76426595652E-05	1.46544424264E+02	1.05740388990E-04	1.63268232398E+02	3.66732281077E-01	-4.52412354233E+01
7.67134268537E+10	1.69726792434E-01	-5.17766477571E+01	6.05630829983E-05	9.86211292531E+01	6.75608342571E-05	1.55246941048E+02	3.65626045886E-01	-4.69973517046E+01
7.67194388778E+10	1.71407503771E-01	-5.36950818062E+01	9.52276868644E-05	-1.74250858564E+02	2.50747820694E-05	-1.07854645683E+02	3.66746152247E-01	-4.88043802460E+01
7.67254509018E+10	1.71701183866E-01	-5.53347040211E+01	8.28118715361E-05	-1.69765146927E+02	1.02365772896E-04	1.70660592408E+02	3.73797025479E-01	-5.11412316236E+01
7.67314629259E+10	1.68075084249E-01	-5.49123106175E+01	1.41693402484E-04	1.67493712702E+02	1.44493184684E-04	1.51302548185E+02	3.76705963269E-01	-5.33407070923E+01
7.67374749499E+10	1.70539039956E-01	-5.68232338699E+01	6.12402533164E-05	1.65169420045E+02	8.55251675987E-05	1.79379201308E+02	3.66520334776E-01	-5.33433002583E+01
7.67434869739E+10	1.71877826846E-01	-5.90553567766E+01	1.23473213964E-04	1.78297585270E+02	1.23744725160E-04	1.41209893374E+02	3.70495249766E-01	-5.62592714818E+01
7.67494989980E+10	1.66267004575E-01	-5.74135024392E+01	1.03166564892E-04	1.20733960231E+02	7.12939431685E-05	1.31402374453E+02	3.69618360197E-01	-5.77638742705E+01
7.67555110220E+10	1.65650598997E-01	-6.12482919180E+01	1.29035505452E-04	1.19248736745E+02	1.12942760598E-04	9.76819136404E+01	3.73513805567E-01	-5.95030637529E+01
7.67615230461E+10	1.67641082219E-01	-6.32173769482E+01	1.36852245645E-04	1.31247069923E+02	7.56332034109E-05	1.08845398560E+02	3.74719789145E-01	-6.15437844028E+01
7.67675350701E+10	1.68929612604E-01	-6.57439949944E+01	1.76041775646E-04	9.30715973343E+01	1.05069280804E-04	1.10722365738E+02	3.75065690681E-01	-6.37725205801E+01
7.67735470942E+10	1.68158302372E-01	-6.61931983357E+01	9.75317422751E-05	8.57579063243E+01	1.36178382171E-04	8.03584426139E+01	3.76436251893E-01	-6.50868402141E+01
7.67795591182E+10	1.69251861045E-01	-6.77096082676E+01	1.36763782663E-04	5.34925540043E+01	1.18089143454E-04	8.64278519401E+01	3.75439849912E-01	-6.62670214922E+01
7.67855711423E+10	1.68744046181E-01	-6.87809438804E+01	1.58140587976E-04	8.42408516221E+01	9.19631105166E-05	4.83761512733E+01	3.73349545550E-01	-6.75848857919E+01
7.67915831663E+10	1.68322536139E-01	-7.29703698100E+01	1.73534436195E-04	7.41456923228E+01	1.40289635851E-04	7.40748645498E+01	3.80140384859E-01	-7.00544473343E+01
7.67975951904E+10	1.66688452375E-01	-7.18984848745E+01	8.79631167946E-05	4.53269940539E+01	1.52872175044E-04	5.57419701784E+01	3.80972921380E-01	-7.18076286777E+01
7.68036072144E+10	1.64368220992E-01	-7.42804506365E+01	1.55886274647E-04	4.23849593211E+01	1.88857488318E-04	3.96398004794E+01	3.86809361262E-01	-7.39033146733E+01
7.68096192385E+10	1.67377726920E-01	-7.63384215565E+01	2.04216474432E-04	4.17763750254E+01	1.98437124055E-04	3.56152082416E+01	3.86791681861E-01	-7.50001382328E+01
7.68156312625E+10	1.66433077610E-01	-7.69624223312E+01	2.26162454419E-04	2.05122683108E+01	2.30787654007E-04	2.90495190276E+01	3.84496724626E-01	-7.59394633758E+01
7.68216432866E+10	1.67408946072E-01	-7.97938336895E+01	2.19025088789E-04	-5.40419809089E+00	2.06898591810E-04	2.73274262203E+01	3.83061275393E-01	-7.73817460016E+01
7.68276553106E+10	1.65908536057E-01	-8.12398461162E+01	1.62785029410E-04	-1.76252876340E+01	2.13545816782E-04	-1.22147743218E+01	3.87034649745E-01	-7.84037689626E+01
7.68336673347E+10	1.67384400199E-01	-8.34762381043E+01	1.84992392000E-04	-1.70031403026E+01	1.94001946247E-04	-1.00684079878E+01	3.93572294863E-01	-8.04676493682E+01
7.68396793587E+10	1.65853398484E-01	-8.29646761818E+01	1.72300072995E-04	-2.14385918480E+01	1.55255288292E-04	-1.47032461221E+01	3.95951453085E-01	-8.23457477210E+01
7.68456913828E+10	1.67815711935E-01	-8.64097602460E+01	2.11874028209E-04	-3.75631316211E+01	2.05110888215E-04	-5.51214387501E+01	3.99992173473E-01	-8.30925056903E+01
7.68517034068E+10	1.64386864951E-01	-8.59803581403E+01	1.75698257652E-04	-3.33318700276E+01	1.89018231223E-04	-4.37692743272E+01	4.05759261817E-01	-8.50331532597E+01
7.68577154309E+10	1.64342849254E-01	-9.02256804178E+01	1.35725089710E-04	-8.02778322679E+01	1.46811421159E-04	-6.89707608635E+01	4.14935405051E-01	-8.66860736915E+01
7.68637274549E+10	1.67434763882E-01	-9.19688445521E+01	1.51647056036E-04	-5.28241744395E+01	1.78893985418E-04	-5.40426073651E+01	4.21649409957E-01	-8.83030917160E+01
7.68697394790E+10	1.63522493716E-01	-9.11900733223E+01	1.80136520282E-04	-6.14949941020E+01	2.12708239280E-04	-4.31390344508E+01	4.24690249717E-01	-8.88450858891E+01
7.68757515030E+10	1.63400849345E-01	-9.22873517934E+01	1.83661301513E-04	-7.08542039784E+01	2.13531906750E-04	-6.78483555683E+01	4.29289032065E-01	-9.04532432474E+01
7.68817635271E+10	1.65800171311E-01	-9.52412749293E+01	1.69652330028E-04	-9.87427161110E+01	1.99005982810E-04	-8.55117474966E+01	4.36849755183E-01	-9.22453441185E+01
7.68877755511E+10	1.62299053861E-01	-9.55226439355E+01	2.18469128410E-04	-1.14514090851E+02	2.01544493383E-04	-1.05595177685E+02	4.52508878064E-01	-9.46087335581E+01
7.68937875752E+10	1.63984110031E-01	-9.78403264885E+01	1.63208138863E-04	-1.28460757312E+02	2.17676023753E-04	-1.19636074924E+02	4.62287058350E-01	-9.60601119674E+01
7.68997995992E+10	1.61983019053E-01	-9.96389646039E+01	2.21370713098E-04	-1.56270141636E+02	1.74100310835E-04	-1.10968021190E+02	4.69981666629E-01	-9.74578228687E+01
7.69058116232E+10	1.64370797875E-01	-1.02681573524E+02	2.02234848360E-04	-1.51956407161E+02	2.25316776781E-04	-1.48888805389E+02	4.83269412275E-01	-9.98379682178E+01
7.69118236473E+10	1.60289737881E-01	-1.03089190410E+02	7.72683990923E-05	-1.76004336390E+02	1.46336264713E-04	-1.48721903321E+02	4.97284318934E-01	-1.01913146654E+02
7.69178356713E+10	1.62410911994E-01	-1.05210535198E+02	4.03953024450E-05	-1.53929954537E+02	9.42622226143E-05	-1.53669585283E+02	5.09648370462E-01	-1.04449732148E+02
7.69238476954E+10	1.61518235629E-01	-1.07020801368E+02	7.30461088624E-05	-1.57899030122E+02	8.39121173234E-05	-1.40230845175E+02	5.29489606186E-01	-1.07388366078E+02
7.69298597194E+10	1.65032514377E-01	-1.10293977166E+02	7.27572011013E-05	-1.17777549607E+02	1.12351762362E-04	-1.28767643297E+02	5.41659623862E-01	-1.09707592229E+02
7.69358717435E+10	1.60260048763E-01	-1.10768798082E+02	1.12986246656E-04	-1.71170402613E+02	1.28592444954E-04	-1.62952822864E+02	5.49234785894E-01	-1.11119802327E+02
7.69418837675E+10	1.57878753135E-01	-1.10326224292E+02	7.03622633790E-05	-1.70221392807E+02	1.32063637488E-04	-1.72781847513E+02	5.62011397696E-01	-1.13944820559E+02
7.69478957916E+10	1.60799342914E-01	-1.12925603134E+02	4.52341334765E-05	1.13858991347E+02	7.17015966525E-05	1.70270428660E+02	5.72878099074E-01	-1.16209059684E+02
7.69539078156E+10	1.58727555624E-01	-1.13857362944E+02	4.51159258289E-05	1.67008501931E+02	5.95747942251E-05	-1.70616391301E+02	5.94727651378E-01	-1.19427890037E+02
7.69599198397E+10	1.56911463013E-01	-1.15349479997E+02	6.71113881109E-05	-1.26720075931E+02	4.06487825974E-05	-1.60841500192E+02	6.13429565323E-01	-1.22591133482E+02
7.69659318637E+10	1.59599400292E-01	-1.18800157923E+02	5.87397444149E-05	-1.20832144747E+02	1.02963596884E-04	-1.49067607754E+02	6.20084750540E-01	-1.24673370388E+02
7.69719438878E+10	1.56436567952E-01	-1.18541553550E+02	1.50308828254E-04	-1.35465149455E+02	1.93710799240E-04	-1.26260204537E+02	6.32307660243E-01	-1.26914472801E+02
7.69779559118E+10	1.57499430345E-01	-1.21067263892E+02	1.50585705744E-04	-1.72300455631E+02	2.11752950790E-04	-1.45855152471E+02	6.43728405808E-01	-1.29131826202E+02
7.69839679359E+10	1.57083952958E-01	-1.22894499874E+02	1.28654810865E-04	-1.58577077952E+02	2.28751285369E-04	-1.68311354033E+02	6.63517271294E-01	-1.31995495554E+02
7.69899799599E+10	1.56032164633E-01	-1.23910852532E+02	4.78984104732E-05	1.27862737346E+02	2.01196582917E-04	-1.77460020765E+02	6.95384203218E-01	-1.36669766523E+02
7.69959919840E+10	1.54273659893E-01	-1.24865480647E+02	1.47661396112E-04	1.43911981319E+02	1.71344142287E-04	1.53425141578E+02	7.11086139320E-01	-1.38556266916E+02
7.70020040080E+10	1.54134554684E-01	-1.26358030245E+02	1.58027004410E-04	1.60088253010E+02	2.50180869265E-04	1.71743064202E+02	7.34888217660E-01	-1.41992293617E+02
7.70080160321E+10	1.56091662643E-01	-1.29567618478E+02	2.71202033938E-04	1.45684975414E+02	3.57134528190E-04	1.51465517637E+02	7.63493311897E-01	-1.46000108783E+02
7.70140280561E+10	1.55876603729E-01	-1.30151819896E+02	2.02525888284E-04	1.20693129529E+02	3.04595239449E-04	1.31360414923E+02	7.94357032019E-01	-1.50241747059E+02
7.70200400802E+10	1.54865483313E-01	-1.31307307288E+02	1.17369018673E-04	1.13596351853E+02	2.28290042679E-04	1.22036156020E+02	7.95167059544E-01	-1.51448907264E+02
7.70260521042E+10	1.53134722200E-01	-1.33326318009E+02	1.86291114731E-04	1.12151565972E+02	2.07151241118E-04	1.33358926328E+02	8.45667649770E-01	-1.58339668286E+02
7.70320641283E+10	1.53360151035E-01	-1.34929001820E+02	2.09075724382E-04	1.12455736986E+02	2.74519596729E-04	1.25677597888E+02	8.76680561924E-01	-1.64150773233E+02
7.70380761523E+10	1.54494885136E-01	-1.37625740071E+02	2.08575274656E-04	1.12220215968E+02	3.79432322337E-04	9.15800119597E+01	9.05993262858E-01	-1.70392518436E+02
7.70440881764E+10	1.50933076478E-01	-1.37555431719E+02	2.85345296795E-04	8.74848999492E+01	3.21016744927E-04	8.44503057648E+01	9.19788411974E-01	-1.75397967105E+02
7.70501002004E+10	1.51548707966E-01	-1.38711154097E+02	3.06899485917E-04	7.72151266339E+01	5.17558231495E-04	7.02873705131E+01	9.25132661065E-01	-1.79325366574E+02
7.70561122244E+10	1.52485066089E-01	-1.41213551655E+02	2.23667526244E-04	6.74154459099E+01	4.61277112388E-04	4.09502083032E+01	9.26566059291E-01	1.75804661828E+02
7.70621242485E+10	1.52306592707E-01	-1.42920346835E+02	2.03538000752E-04	3.22393181786E+01	3.49937971426E-04	2.38344669485E+01	9.47803013623E-01	1.66691389373E+02
7.70681362725E+10	1.51798726079E-01	-1.46424139219E+02	1.93504639348E-04	4.20607847609E+01	2.74627026735E-04	1.44077557462E+01	9.39628756543E-01	1.58540320591E+02
7.70741482966E+10	1.49387891623E-01	-1.43925715029E+02	2.40990094472E-04	2.38482238002E+01	2.49829310719E-04	1.95537809875E+01	9.19063281493E-01	1.53364090577E+02
7.70801603206E+10	1.48827206631E-01	-1.46081507505E+02	2.55637591792E-04	1.60362641579E+01	3.23572143419E-04	2.23727352170E+01	8.84411774780E-01	1.51445358871E+02
7.70861723447E+10	1.48952703307E-01	-1.48797157579E+02	2.27479660649E-04	-4.51426486450E+00	3.15604299967E-04	-2.67686686188E+01	8.62684886032E-01	1.42715399719E+02
7.70921843687E+10	1.48410307211E-01	-1.52006019752E+02	1.20211514506E-04	-3.58590375597E+01	3.22468334763E-04	-4.07100366979E+01	8.33448146578E-01	1.35467131330E+02
7.70981963928E+10	1.50398078120E-01	-1.53251790956E+02	6.83030268773E-05	-5.87209856749E+01	2.19465593216E-04	-6.42179935527E+01	7.94970348716E-01	1.29047496538E+02
7.71042084168E+10	1.50137976697E-01	-1.54527991942E+02	7.13915982767E-05	-2.49517269156E+01	1.11566592649E-04	-6.70027367500E+01	7.54750893496E-01	1.24342698979E+02
7.71102204409E+10	1.49605798627E-01	-1.55904231147E+02	1.14183580069E-04	7.47988472512E-01	9.66603257508E-05	1.10021192264E+01	7.08633807406E-01	1.23484798369E+02
7.71162324649E+10	1.47172201816E-01	-1.56530268698E+02	7.37783681078E-05	-3.35599534538E+01	1.69065858492E-04	-2.02754286259E+01	6.66289588543E-01	1.15863516184E+02
7.71222444890E+10	1.45049443991E-01	-1.57875410139E+02	1.78324797576E-04	-1.93981506523E+01	2.02039158044E-04	-4.14726643902E+01	6.22343941389E-01	1.10954257264E+02
7.71282565130E+10	1.45231094471E-01	-1.58176863233E+02	1.60482378758E-04	-7.61933320805E+01	1.67064042741E-04	-8.50884149078E+01	5.79924602733E-01	1.08472757829E+02
7.71342685371E+10	1.45934744082E-01	-1.60460131759E+02	1.13327475068E-04	-8.18789401103E+01	1.15325932303E-04	-1.04664886201E+02	5.34230839032E-01	1.03844927860E+02
7.71402805611E+10	1.48603403336E-01	-1.64801678919E+02	9.30982670829E-05	-9.22752597389E+01	6.17444961916E-05	-1.33865724262E+02	4.94522121627E-01	1.00010776518E+02
7.71462925852E+10	1.44736561113E-01	-1.65634189612E+02	3.08751026205E-05	1.40176701140E+02	1.04903480135E-04	-7.27500331275E+01	4.56716810355E-01	9.80149726993E+01
7.71523046092E+10	1.43867036830E-01	-1.64330440354E+02	1.33036598811E-04	7.40995847290E+01	5.39398378083E-05	-1.80270500680E+01	4.17523072473E-01	9.75576752152E+01
7.71583166333E+10	1.45672582635E-01	-1.66118532715E+02	1.03024755307E-04	4.00625881776E+01	1.18110536840E-04	-3.56097065893E+01	3.85752634583E-01	9.82892635245E+01
7.71643286573E+10	1.44574293875E-01	-1.68095357820E+02	8.33837138102E-05	-1.60713319373E+01	6.46831070045E-05	-3.44399334846E+01	3.60068831654E-01	9.75123597271E+01
7.71703406814E+10	1.44206435733E-01	-1.71036157039E+02	7.68965300293E-05	3.13151439463E+00	1.09923223835E-04	-5.10591666711E+01	3.38332358977E-01	9.84525475906E+01
7.71763527054E+10	1.43780962449E-01	-1.71911010695E+02	1.44046437570E-04	-7.11989230120E+01	1.21160131386E-04	-9.23780592447E+01	3.33094770877E-01	1.00240499841E+02
7.71823647295E+10	1.42856165115E-01	-1.70348826629E+02	1.15758803208E-04	-5.54470384125E+01	9.47510403348E-05	-1.68683208204E+01	3.31722751127E-01	1.03639475459E+02
7.71883767535E+10	1.43764445306E-01	-1.74259749932E+02	5.72748353490E-05	-7.52660730099E+01	5.35784278333E-05	-7.53042402714E+01	3.41007989939E-01	1.04700638432E+02
7.71943887776E+10	1.42793968122E-01	-1.75956407935E+02	1.57918382293E-04	-4.51582250677E+01	1.46006292695E-04	-8.41965493340E+01	3.56038923061E-01	1.03774751145E+02
7.72004008016E+10	1.42209471165E-01	-1.77535530900E+02	2.54686640470E-04	-5.17243091536E+01	1.74926004542E-04	-9.53186484065E+01	3.72076785748E-01	1.00698276165E+02
7.72064128257E+10	1.42504209949E-01	-1.77920607202E+02	2.04694380877E-04	-1.05261275959E+02	1.86238280424E-04	-1.20258892079E+02	3.83744589971E-01	9.69112822343E+01
7.72124248497E+10	1.42666307906E-01	-1.79446019789E+02	2.06382279985E-04	-1.32057751420E+02	2.31640634980E-04	-1.48627384437E+02	3.90745223099E-01	9.18161844793E+01
7.72184368737E+10	1.44098679831E-01	1.77154110483E+02	1.85644153879E-04	-1.64362132117E+02	1.23304580026E-04	-1.66056405571E+02	3.93823671692E-01	8.98792256115E+01
7.72244488978E+10	1.43954266859E-01	1.76026496263E+02	6.75637877458E-05	-1.75863692307E+02	5.81233237881E-05	1.20490449205E+02	3.94487043191E-01	8.36897987798E+01
7.72304609218E+10	1.42750756073E-01	1.76459403554E+02	9.11660278392E-05	-1.52703097571E+02	1.03122240479E-04	-1.37952811113E+02	3.87957776938E-01	7.89917787509E+01
7.72364729459E+10	1.43071252026E-01	1.74563846320E+02	1.18127238808E-04	-1.23947103039E+02	1.32252309411E-04	-1.44579277766E+02	3.78021581654E-01	7.38950574253E+01
7.72424849699E+10	1.43461742797E-01	1.72742146840E+02	3.99283065722E-05	1.68936628885E+02	5.38840993595E-05	1.61552929034E+02	3.67744550402E-01	7.05554331994E+01
7.72484969940E+10	1.42964911889E-01	1.70047910664E+02	1.13595358832E-04	-1.69031829652E+02	6.07163057825E-05	1.43081982958E+02	3.51876664309E-01	6.39694704080E+01
7.72545090180E+10	1.42041721184E-01	1.69233454722E+02	1.47822854365E-04	1.78387313373E+02	9.07364639713E-06	3.11896912912E+01	3.36138292644E-01	5.94784638629E+01
7.72605210421E+10	1.40498436957E-01	1.68989267921E+02	6.13781885166E-05	-1.73833720140E+02	6.28956095695E-05	-1.75190816285E+02	3.18290615088E-01	5.44926782260E+01
7.72665330661E+10	1.42648417092E-01	1.66497008336E+02	1.15598718894E-05	-9.30864570733E+01	9.61727996891E-05	-1.70872186668E+02	3.03040206392E-01	5.07612114379E+01
7.72725450902E+10	1.42743244746E-01	1.65079130809E+02	5.83776699564E-05	-1.70029211401E+02	8.67289515628E-05	-1.58667479913E+02	2.85077083847E-01	4.60176226722E+01
7.72785571142E+10	1.43687844918E-01	1.63900092791E+02	3.68422002324E-05	-1.16442659350E+02	6.10809993835E-05	1.55044280455E+02	2.65950183479E-01	4.12310324217E+01
7.72845691383E+10	1.42417722024E-01	1.62254748369E+02	6.46012219072E-05	-1.31221752463E+02	9.27662980685E-05	1.63999965622E+02	2.45435846952E-01	3.74010428259E+01
7.72905811623E+10	1.42041096871E-01	1.61431720862E+02	1.12672401446E-04	-1.61710956241E+02	1.51533671692E-04	1.71112092443E+02	2.28184543259E-01	3.31707435374E+01
7.72965931864E+10	1.42508245722E-01	1.58637238901E+02	1.32277835429E-04	-1.66141146140E+02	6.27242057600E-05	1.57171946665E+02	2.07248958542E-01	2.78389456871E+01
7.73026052104E+10	1.41832138631E-01	1.58486956358E+02	1.30035051689E-04	1.77671634126E+02	7.82215170992E-05	1.58819002046E+02	1.87997206890E-01	2.31803053588E+01
7.73086172345E+10	1.40767509786E-01	1.58934535865E+02	1.94924102799E-04	1.68803635412E+02	1.10863912492E-04	1.73023527849E+02	1.67595770647E-01	2.01190869090E+01
7.73146292585E+10	1.42046684955E-01	1.55630690710E+02	1.57952140418E-04	1.40919046656E+02	1.26425289729E-04	1.58612126743E+02	1.47203964066E-01	1.45300221076E+01
7.73206412826E+10	1.43402132167E-01	1.53169324169E+02	1.71726214333E-04	1.45713459409E+02	1.35675910020E-04	1.33303884366E+02	1.26914427396E-01	8.61227039879E+00
7.73266533066E+10	1.42891716709E-01	1.50074633961E+02	1.37919181480E-04	1.20203932614E+02	1.80228665800E-04	1.11530820691E+02	1.04673087332E-01	4.15531376892E+00
7.73326653307E+10	1.43709517154E-01	1.49151908492E+02	1.89180054561E-04	1.07635997601E+02	2.02589021212E-04	1.25068456858E+02	8.20722738863E-02	-1.44308134048E+00
7.73386773547E+10	1.42897594451E-01	1.48531351063E+02	2.30066146159E-04	1.08576950792E+02	1.71981270491E-04	1.08014367703E+02	5.97567890924E-02	-8.59322481375E+00
7.73446893788E+10	1.42687756208E-01	1.46683190068E+02	1.86104234747E-04	7.03465893657E+01	1.09681446824E-04	1.02073603883E+02	3.67526432801E-02	-1.59257424078E+01
7.73507014028E+10	1.42469753924E-01	1.46148383435E+02	1.79393572000E-04	8.05560465514E+01	1.70803593275E-04	9.80368092602E+01	1.44788446545E-02	-3.82855765610E+01
7.73567134269E+10	1.42159093820E-01	1.44445752661E+02	1.75922849707E-04	8.24586149337E+01	1.56930431878E-04	8.80127269625E+01	1.24952023814E-02	-1.68232379440E+02
7.73627254509E+10	1.42069080678E-01	1.43357376452E+02	1.90258347148E-04	5.60598553374E+01	2.06782328608E-04	7.25351253128E+01	3.47601301548E-02	1.66884794424E+02
7.73687374749E+10	1.44202229716E-01	1.41017043554E+02	2.28073405935E-04	5.83762137380E+01	1.97917417251E-04	5.42573765346E+01	5.84923796421E-02	1.56952393557E+02
7.73747494990E+10	1.44027194307E-01	1.39371106117E+02	2.35211167975E-04	7.09440665645E+01	1.59398501994E-04	6.80102217923E+01	8.49262921643E-02	1.48786514137E+02
7.73807615230E+10	1.43102459516E-01	1.37155325290E+02	2.01412624159E-04	4.83222082470E+01	2.06791125949E-04	4.46941480316E+01	1.09870942995E-01	1.41651472163E+02
7.73867735471E+10	1.43458973269E-01	1.36638447008E+02	2.72548080622E-04	2.53328042017E+01	1.85550985355E-04	4.30760396367E+01	1.32188157559E-01	1.35616249856E+02
7.73927855711E+10	1.44741720723E-01	1.35502829515E+02	2.93474883342E-04	3.13455636748E+01	2.66900897841E-04	1.00102484739E+01	1.52150466129E-01	1.29667565987E+02
7.73987975952E+10	1.42791861812E-01	1.34274021830E+02	2.74021350076E-04	2.30595908327E+01	2.55158163370E-04	-3.53999443199E+00	1.74272612120E-01	1.21578394814E+02
7.74048096192E+10	1.42525379762E-01	1.34550696737E+02	3.15449826652E-04	-8.05277659998E+00	1.89957035468E-04	-4.79877111635E+00	1.95004171642E-01	1.15829457105E+02
7.74108216433E+10	1.42051456245E-01	1.33441699961E+02	1.59291316072E-04	-2.65243132507E+01	2.38605896890E-04	-3.11384942610E+01	2.12485310339E-01	1.08783686210E+02
7.74168336673E+10	1.43442627540E-01	1.30298524629E+02	2.23442216169E-04	-3.12017964604E+00	1.91081668333E-04	-3.79255815954E+01	2.26742199231E-01	1.02240820056E+02
7.74228456914E+10	1.45233122042E-01	1.28375504044E+02	1.00251381197E-04	2.07085200797E+01	1.72919637325E-04	-4.64641549027E+01	2.39693587805E-01	9.82895194032E+01
7.74288577154E+10	1.43992275524E-01	1.27686764841E+02	1.90980089435E-04	-2.62371827111E+01	1.76607317659E-04	-3.23760526810E+01	2.51195484302E-01	9.10191322256E+01
7.74348697395E+10	1.43641434696E-01	1.27446485215E+02	2.65083241281E-04	-3.56253511057E+01	2.26207838457E-04	-6.04617106148E+01	2.61885756488E-01	8.40437763970E+01
7.74408817635E+10	1.44934205074E-01	1.24438475494E+02	2.58306326572E-04	-3.84155162984E+01	2.10297768342E-04	-5.87948511375E+01	2.69126177622E-01	7.82963602072E+01
7.74468937876E+10	1.44033713845E-01	1.23559244169E+02	2.69445508688E-04	-4.68860055234E+01	1.62045806885E-04	-6.06017095628E+01	2.74238226213E-01	7.42203086943E+01
7.74529058116E+10	1.44200230217E-01	1.22612055743E+02	2.75431275524E-04	-5.43212777016E+01	2.64981083445E-04	-7.61489943036E+01	2.78719963179E-01	6.87220105479E+01
7.74589178357E+10	1.44093771460E-01	1.21686223855E+02	3.41713273241E-04	-5.93600707786E+01	2.40139527022E-04	-8.29686385970E+01	2.81561113614E-01	6.33832914039E+01
7.74649298597E+10	1.45158214149E-01	1.20757875334E+02	3.09930082618E-04	-8.20532283246E+01	2.83400918386E-04	-9.96615550922E+01	2.83204824296E-01	5.69596157893E+01
7.74709418838E+10	1.45935974913E-01	1.20250949631E+02	2.59834336910E-04	-9.78176394421E+01	2.32205691358E-04	-9.88734457771E+01	2.81232260937E-01	5.16760136977E+01
7.74769539078E+10	1.47379489280E-01	1.17227625521E+02	2.42585382187E-04	-1.01114461251E+02	3.14337120944E-04	-1.26424516265E+02	2.80225565661E-01	4.65730002674E+01
7.74829659319E+10	1.48392456122E-01	1.15165910747E+02	3.35717209751E-04	-1.15262582040E+02	2.71749581036E-04	-1.34750424802E+02	2.81458512887E-01	4.14963392919E+01
7.74889779559E+10	1.47066686350E-01	1.16045752446E+02	2.70395778388E-04	-1.15919020740E+02	2.37669584854E-04	-1.44560617961E+02	2.77964780246E-01	3.84082260036E+01
7.74949899800E+10	1.46611942933E-01	1.13306585043E+02	3.30769095577E-04	-1.27984238782E+02	2.04324481860E-04	-1.41449148242E+02	2.71289545037E-01	3.27455291692E+01
7.75010020040E+10	1.48722488248E-01	1.10570261010E+02	2.34037162247E-04	-1.31407784960E+02	2.14243974404E-04	-1.52179754986E+02	2.68193035451E-01	2.92906611326E+01
7.75070140281E+10	1.51272662066E-01	1.08589573006E+02	3.20238755571E-04	-1.40266712762E+02	2.31178085209E-04	-1.70041757094E+02	2.63908651383E-01	2.33793522200E+01
7.75130260521E+10	1.49841993473E-01	1.07729618414E+02	3.66263809396E-04	-1.54267078311E+02	2.56928497721E-04	1.73731566369E+02	2.59281050781E-01	1.82279086081E+01
7.75190380762E+10	1.47996336726E-01	1.06948228511E+02	2.77635400424E-04	-1.65898835478E+02	2.61493570188E-04	1.70674673791E+02	2.55514355061E-01	1.35820068372E+01
7.75250501002E+10	1.50938911950E-01	1.06204327300E+02	2.40112898008E-04	-1.76500724328E+02	1.83042955132E-04	1.64164675946E+02	2.48127239112E-01	1.15374377731E+01
7.75310621242E+10	1.50883982192E-01	1.05299516876E+02	3.04664095559E-04	1.58991525436E+02	2.46490417705E-04	1.45510231003E+02	2.45323921712E-01	6.62709319779E+00
7.75370741483E+10	1.51074969619E-01	1.02837352486E+02	3.23209919008E-04	1.52107403475E+02	2.31246648810E-04	1.44869327595E+02	2.41164652961E-01	1.86935390948E+00
7.75430861723E+10	1.51873610823E-01	1.02418142925E+02	2.97931492544E-04	1.32669906384E+02	1.94802392478E-04	1.43014625037E+02	2.32438136463E-01	-1.71242182051E+00
7.75490981964E+10	1.53127509500E-01	1.00733523549E+02	2.95155673817E-04	1.28886708384E+02	2.41303073003E-04	1.42677807046E+02	2.27767872331E-01	-6.16038718841E+00
7.75551102204E+10	1.54129638810E-01	1.00430787716E+02	3.43280521896E-04	1.26660437290E+02	2.62471429749E-04	1.26023087416E+02	2.21032230047E-01	-1.06621226163E+01
7.75611222445E+10	1.55554609893E-01	9.75318668197E+01	3.80434207169E-04	1.07345271274E+02	1.79533747478E-04	1.20156009033E+02	2.14692992605E-01	-1.54356351326E+01
7.75671342685E+10	1.56642233717E-01	9.68539124238E+01	2.97330950430E-04	1.00143904651E+02	2.28514487556E-04	1.03338510068E+02	2.08806315847E-01	-1.98097726454E+01
7.75731462926E+10	1.53737814677E-01	9.55565522640E+01	2.29563065268E-04	1.04409836155E+02	2.85336610102E-04	9.97328350494E+01	2.02209366097E-01	-2.30317607826E+01
7.75791583166E+10	1.57603357755E-01	9.23829859476E+01	4.64679219031E-04	7.93847596412E+01	3.09800854740E-04	7.32552929371E+01	1.95684015664E-01	-2.76789165224E+01
7.75851703407E+10	1.58885571161E-01	9.08121716475E+01	3.51202256425E-04	5.93349313371E+01	2.87796018446E-04	6.16682621898E+01	1.88956479407E-01	-3.34331492049E+01
7.75911823647E+10	1.58863015603E-01	9.08554879657E+01	3.81514718708E-04	2.87406477592E+01	2.57438242958E-04	5.29490702700E+01	1.79942378361E-01	-3.71627689971E+01
7.75971943888E+10	1.59661022068E-01	8.83231233822E+01	2.84355753155E-04	7.41271445475E+00	2.77193542895E-04	2.77989076046E+01	1.74017481974E-01	-4.07924782371E+01
7.76032064128E+10	1.60426728218E-01	8.69674425698E+01	2.69170224695E-04	2.08458469763E+00	2.35419033649E-04	2.63106967181E+01	1.68311389855E-01	-4.73745110671E+01
7.76092184369E+10	1.60260927328E-01	8.77074829054E+01	2.03045885351E-04	5.53706438202E+00	2.61622342993E-04	2.84060461957E+00	1.60593576366E-01	-5.28412667933E+01
7.76152304609E+10	1.63382698717E-01	8.40163332526E+01	2.09872526368E-04	-1.57185886469E+01	2.27474160368E-04	-1.54709010922E+01	1.53059470971E-01	-5.78296510207E+01
7.76212424850E+10	1.61320513281E-01	8.19417272111E+01	2.26315259471E-04	-4.38675981868E+01	1.57383878728E-04	-2.72992934666E+01	1.44712830295E-01	-6.17330249214E+01
7.76272545090E+10	1.63736234678E-01	8.08235178787E+01	2.14751288720E-04	-2.72120771222E+01	1.89015966891E-04	-1.96591768530E+01	1.36541889030E-01	-6.62381172282E+01
7.76332665331E+10	1.64874631922E-01	7.96320987983E+01	3.08588143251E-04	-4.68404836056E+01	2.71087962810E-04	-3.01932235398E+01	1.28088251547E-01	-7.12308546233E+01
7.76392785571E+10	1.63074782943E-01	8.09631508046E+01	3.21656560835E-04	-6.45150243695E+01	3.05199379620E-04	-5.96064485265E+01	1.18965365447E-01	-7.71570515241E+01
7.76452905812E+10	1.66081919488E-01	7.67052272852E+01	3.02583849644E-04	-8.10095920064E+01	3.35056561307E-04	-7.25961066155E+01	1.11769305181E-01	-8.44258542195E+01
7.76513026052E+10	1.66101680043E-01	7.32791434273E+01	3.45254539486E-04	-1.18299777970E+02	3.38260562532E-04	-1.02791191295E+02	1.02745947208E-01	-8.92482632137E+01
7.76573146293E+10	1.69285960701E-01	7.24080767030E+01	2.90859611601E-04	-1.42336660136E+02	3.48365857394E-04	-1.21525113629E+02	9.31413936485E-02	-9.43781981723E+01
7.76633266533E+10	1.67622179440E-01	7.38467940922E+01	2.51743715127E-04	-1.51587016920E+02	2.71078158360E-04	-1.41953665798E+02	8.38921399193E-02	-9.96896957380E+01
7.76693386774E+10	1.68279890786E-01	7.13900775204E+01	1.99569707170E-04	-1.71678592353E+02	1.73428606221E-04	-1.46475168998E+02	7.45808448432E-02	-1.05070598639E+02
7.76753507014E+10	1.68609951187E-01	6.81596397701E+01	5.96196178238E-05	-1.46221694543E+02	1.40972389142E-04	-1.76427500291E+02	6.48486493618E-02	-1.11032368019E+02
7.76813627255E+10	1.68662586919E-01	6.81501472052E+01	1.87619676495E-04	-1.24320754620E+02	1.43454473644E-04	-1.31276886354E+02	5.57237728349E-02	-1.16962512945E+02
7.76873747495E+10	1.71882240429E-01	6.62623388676E+01	2.57716803762E-04	-1.56498406965E+02	1.94603982285E-04	-1.48332015908E+02	4.73092982131E-02	-1.23051667500E+02
7.76933867735E+10	1.69710279433E-01	6.39442245479E+01	2.94778707708E-04	-1.66061087578E+02	3.44965590366E-04	-1.74290688674E+02	3.79865847919E-02	-1.27736736876E+02
7.76993987976E+10	1.72217519506E-01	6.33874099185E+01	3.19447813011E-04	1.60976063897E+02	3.25057539657E-04	1.68590441814E+02	2.83600128639E-02	-1.30179611634E+02
7.77054108216E+10	1.71170576752E-01	6.16737242686E+01	2.78497491414E-04	1.45246681645E+02	3.37821739619E-04	1.50608130122E+02	1.95165015136E-02	-1.32179585577E+02
7.77114228457E+10	1.73021933766E-01	5.92624809943E+01	3.20225815396E-04	1.39695355311E+02	3.17800870900E-04	1.20433013671E+02	1.17405131440E-02	-1.27263302568E+02
7.77174348697E+10	1.71098047773E-01	5.73798971557E+01	2.37864397156E-04	1.15026045164E+02	2.35936783392E-04	9.84926979357E+01	6.27269390102E-03	-8.99256203459E+01
7.77234468938E+10	1.70894042355E-01	5.61517319092E+01	2.68775152047E-04	1.13939557085E+02	2.07419126427E-04	1.11953697392E+02	8.62131747217E-03	-2.73893359109E+01
7.77294589178E+10	1.73435391577E-01	5.48088245703E+01	2.35776998505E-04	1.24395758928E+02	2.20621969271E-04	1.07712019163E+02	1.56343023194E-02	-1.62725487948E+01
7.77354709419E+10	1.71657699436E-01	5.32640740416E+01	2.89754973041E-04	1.07362321928E+02	2.88745362303E-04	1.05889599927E+02	2.31186640920E-02	-1.78215122262E+01
7.77414829659E+10	1.72323341807E-01	5.29205390948E+01	3.38542587284E-04	8.50758039538E+01	2.88616576670E-04	8.74179080116E+01	3.02294543348E-02	-2.02056225567E+01
7.77474949900E+10	1.73159517039E-01	4.93250038732E+01	2.73186097678E-04	6.89977900713E+01	2.87903432880E-04	7.58180016159E+01	3.77098497738E-02	-2.38096685864E+01
7.77535070140E+10	1.73381304178E-01	4.73770414053E+01	3.02461630070E-04	5.00346622066E+01	2.64136505800E-04	5.30774443402E+01	4.50076808928E-02	-3.06071425977E+01
7.77595190381E+10	1.72703265761E-01	4.61786020115E+01	2.78212991744E-04	4.66947712801E+01	3.04630573438E-04	4.01491661582E+01	5.13219295651E-02	-3.54949120119E+01
7.77655310621E+10	1.71648079503E-01	4.59537671530E+01	4.01667141363E-04	3.35135743577E+01	2.54842494521E-04	4.03436240536E+01	5.80211258740E-02	-4.22634372597E+01
7.77715430862E+10	1.72611856872E-01	4.56146191281E+01	2.49561729093E-04	3.58778915447E+01	2.41862571863E-04	3.79334856338E+01	6.41723733715E-02	-4.86715792932E+01
7.77775551102E+10	1.74244086632E-01	4.28623789001E+01	3.00242772171E-04	1.88248618812E+01	2.79929422709E-04	3.07887217133E+01	7.14119736426E-02	-5.53603869517E+01
7.77835671343E+10	1.74271433987E-01	3.93550457115E+01	3.13611011243E-04	-5.29693212938E+00	2.83135488193E-04	8.61165391996E+00	7.79863333170E-02	-6.15972890809E+01
7.77895791583E+10	1.72908833713E-01	3.92506051599E+01	2.78417072344E-04	-1.40745657744E+01	2.78753924556E-04	-6.82860302892E+00	8.32678975810E-02	-6.64627063764E+01
7.77955911824E+10	1.74010624423E-01	3.70510195037E+01	2.99637844604E-04	-2.86097009245E+01	2.19161278896E-04	-1.67077727012E+01	8.86586717862E-02	-7.30059001768E+01
7.78016032064E+10	1.71665020413E-01	3.77185819056E+01	2.77596701912E-04	-3.11276810589E+01	2.68791813637E-04	-2.55697866647E+01	9.52849344441E-02	-7.89917102748E+01
7.78076152305E+10	1.71329700686E-01	3.53042853602E+01	2.34928076637E-04	-4.06221386165E+01	1.49021398295E-04	-2.98820678133E+01	1.00802287581E-01	-8.39433193730E+01
7.78136272545E+10	1.73141791978E-01	3.27242565564E+01	2.45685102928E-04	-4.12912853725E+01	1.65031114614E-04	-1.52596258857E+01	1.08604641104E-01	-8.98264509225E+01
7.78196392786E+10	1.73132816768E-01	3.32469973420E+01	1.99745115711E-04	-5.84902904913E+01	1.60594203100E-04	-2.30407583996E+01	1.13946625258E-01	-9.53779962571E+01
7.78256513026E+10	1.73386087294E-01	3.23048152739E+01	2.01879713307E-04	-4.70858243447E+01	2.04394594165E-04	-2.73308372444E+01	1.18851477592E-01	-9.98561006735E+01
7.78316633267E+10	1.71321391986E-01	2.76294120335E+01	1.88607729210E-04	-4.62882118822E+01	2.07051289935E-04	-4.73506359861E+01	1.28640790375E-01	-1.05625199710E+02
7.78376753507E+10	1.72618180277E-01	2.63364027668E+01	3.13531408625E-04	-7.74011790513E+01	2.35415107316E-04	-5.92014107989E+01	1.37166674392E-01	-1.10708430687E+02
7.78436873747E+10	1.72232962488E-01	2.69507698820E+01	2.01389172816E-04	-8.05775336896E+01	1.73674786977E-04	-6.47624098856E+01	1.46694241599E-01	-1.15257723802E+02
7.78496993988E+10	1.73592696821E-01	2.76723242755E+01	2.26986644969E-04	-8.72755547692E+01	2.25567588507E-04	-7.26471630980E+01	1.56396699551E-01	-1.20102451882E+02
7.78557114228E+10	1.70053411780E-01	2.47076820166E+01	1.52945102762E-04	-1.01169072613E+02	2.00631113673E-04	-9.27463723924E+01	1.64867694462E-01	-1.23766339471E+02
7.78617234469E+10	1.70878516177E-01	2.20184618476E+01	1.30570461731E-04	-1.09942282138E+02	1.50932371043E-04	-9.94237947394E+01	1.78580104670E-01	-1.29487800489E+02
7.78677354709E+10	1.69942028444E-01	2.07117436006E+01	1.81788957944E-04	-1.07405777901E+02	1.51523292187E-04	-8.03809320109E+01	1.90965506279E-01	-1.34601995027E+02
7.78737474950E+10	1.71130828559E-01	1.98967364358E+01	1.55447755008E-04	-9.90557109410E+01	2.21617564267E-04	-8.69618944955E+01	2.04300021706E-01	-1.39595607092E+02
7.78797595190E+10	1.70273989497E-01	1.81331366047E+01	1.75436411815E-04	-1.07148523659E+02	2.06394742185E-04	-8.13295035657E+01	2.16999097162E-01	-1.43762032850E+02
7.78857715431E+10	1.68378793107E-01	1.64315978334E+01	2.23667023565E-04	-1.11817492015E+02	2.95565002491E-04	-1.01348328585E+02	2.31534973494E-01	-1.48531496933E+02
7.78917835671E+10	1.70424945413E-01	1.61363489663E+01	2.46651858494E-04	-1.38154986673E+02	2.35716838665E-04	-1.17268254745E+02	2.49507088446E-01	-1.54613261209E+02
7.78977955912E+10	1.69079008525E-01	1.30503936849E+01	1.99571784123E-04	-1.50477576685E+02	2.62250916001E-04	-1.36954776570E+02	2.70241809075E-01	-1.60723435740E+02
7.79038076152E+10	1.67734423145E-01	1.17542679681E+01	1.24413332441E-04	-1.59052320997E+02	2.16079213878E-04	-1.57720038964E+02	2.83919794867E-01	-1.64459929668E+02
7.79098196393E+10	1.68340287560E-01	1.28095947000E+01	1.16740180927E-04	-1.72673155228E+02	2.43643702904E-04	-1.77729173840E+02	3.03048222506E-01	-1.71037910341E+02
7.79158316633E+10	1.67682195509E-01	1.20881593072E+01	1.14871289496E-04	1.66647191666E+02	1.62603012051E-04	-1.59680823851E+02	3.22482171569E-01	-1.76403259287E+02
7.79218436874E+10	1.67556186328E-01	9.67118135100E+00	1.06164906508E-04	-1.39095733500E+02	1.11544005005E-04	-1.79927686798E+02	3.43194420094E-01	1.78006138253E+02
7.79278557114E+10	1.66963393779E-01	7.62939666187E+00	1.43771210674E-04	-1.72536996497E+02	1.57757905530E-04	-1.63547780290E+02	3.61136676318E-01	1.73372594126E+02
7.79338677355E+10	1.70328731570E-01	8.02269431391E+00	1.54289618288E-04	-1.65737595497E+02	1.79466572281E-04	-1.70722954736E+02	3.85420523945E-01	1.65635827538E+02
7.79398797595E+10	1.66397639820E-01	6.85343252141E+00	1.80994440978E-04	1.56940739374E+02	1.96823901878E-04	-1.69545269055E+02	4.04806822838E-01	1.60047710653E+02
7.79458917836E+10	1.65509105549E-01	6.60410580663E+00	1.21563052819E-04	1.22108921740E+02	2.26603680857E-04	1.18703365735E+02	4.24271618454E-01	1.53765625106E+02
7.79519038076E+10	1.63414315636E-01	1.99254173938E+00	6.18679950321E-05	8.27148221352E+01	1.01149391790E-04	7.99530244596E+01	4.42538427153E-01	1.47537133884E+02
7.79579158317E+10	1.66062723337E-01	2.39234795583E+00	7.05601503505E-05	4.98896815500E+01	1.19811999904E-04	-1.95529433933E+00	4.63205852335E-01	1.40663596662E+02
7.79639278557E+10	1.67040655715E-01	2.75474817119E+00	5.06061065351E-05	-7.13781147784E+01	8.13869737012E-05	-9.48946580604E+01	4.76718748382E-01	1.35844562000E+02
7.79699398798E+10	1.63822322200E-01	-1.65065827192E+00	1.20991527273E-04	-1.41201035463E+02	1.56714726791E-04	-1.20991077800E+02	4.89647849814E-01	1.28625610705E+02
7.79759519038E+10	1.63367442357E-01	-2.22286003089E+00	1.21305303369E-04	-1.62768458016E+02	1.61771138036E-04	-1.66725877660E+02	5.02383693020E-01	1.20950221577E+02
7.79819639279E+10	1.65934443888E-01	-2.41185892383E+00	1.13711786461E-04	1.78733083687E+02	1.89177491294E-04	1.70356814834E+02	5.08102119651E-01	1.15428934667E+02
7.79879759519E+10	1.63902787024E-01	-1.77652908158E+00	6.86580345330E-05	1.15767827730E+02	1.65478297478E-04	1.56502471295E+02	5.12951790407E-01	1.09389726031E+02
7.79939879760E+10	1.65831450673E-01	-3.56076105648E+00	7.58115757489E-05	1.60459496450E+02	1.05211500347E-04	1.69172195729E+02	5.15092267923E-01	1.04360467347E+02
7.80000000000E+10	1.64320423037E-01	-6.09622063307E+00	1.32972517900E-04	-1.64564119508E+02	8.86683794393E-05	-1.72166039734E+02	5.14750241327E-01	9.90127218907E+01
