# Hz S MA R 50
! CMT, C4420, 21421029, 25.1.2/3
! Date: 8/4/2025 5:30:59 PM
! Data: Format (Calibration Info)
! Freq	S33:Mag/Ang(F2)	S43:Mag/Ang(F2)	S34:Mag/Ang(F2)	S44:Mag/Ang(F2)
7.50000000000E+10	2.64070260496E-01	5.14616471457E+01	5.67977280198E-05	-1.16447101680E+02	9.95943886159E-06	-1.18540525880E+02	3.26366165963E-01	2.68994177840E+01
7.50060120240E+10	2.64835537259E-01	5.05331540257E+01	5.95720236139E-05	-1.62763639685E+02	8.44571181765E-05	-1.37052513306E+02	3.29434667074E-01	2.44894014821E+01
7.50120240481E+10	2.67918204666E-01	4.91207969970E+01	7.20329754865E-05	1.53282210488E+02	8.36685496185E-05	1.74101052108E+02	3.36424325280E-01	2.14249927497E+01
7.50180360721E+10	2.65070664532E-01	4.59977879867E+01	5.32873688140E-05	1.15247798260E+02	2.55345292090E-05	1.79384255014E+02	3.35373976771E-01	2.15407443475E+01
7.50240480962E+10	2.65147939001E-01	4.42606550087E+01	4.92831469694E-05	1.42021802943E+02	5.88616230562E-05	1.79419149109E+02	3.39962202341E-01	1.73665727181E+01
7.50300601202E+10	2.64656906066E-01	4.41102942863E+01	1.54394702739E-04	1.24000809725E+02	9.45359110184E-05	1.52049114233E+02	3.42166086238E-01	1.70018316859E+01
7.50360721443E+10	2.65757033732E-01	4.42700190392E+01	6.58219512008E-05	1.25836801604E+02	1.17124275047E-04	1.11066287063E+02	3.45908669320E-01	1.46988750150E+01
7.50420841683E+10	2.65391856748E-01	4.31679219393E+01	1.24909843557E-04	9.99234631926E+01	8.86421224818E-05	8.67161310781E+01	3.48466998644E-01	1.21999651600E+01
7.50480961924E+10	2.62326160808E-01	3.89819411656E+01	1.35769085480E-04	6.03590204640E+01	5.56667212103E-05	5.98460869642E+01	3.45220272723E-01	1.02679789490E+01
7.50541082164E+10	2.60101157151E-01	3.85706430638E+01	1.40173102776E-04	6.14343056283E+01	1.11199339365E-04	3.28140145962E+01	3.55616869685E-01	6.97758922869E+00
7.50601202405E+10	2.65304058789E-01	3.82653638617E+01	9.54773502111E-05	1.81903914353E+01	1.05392158540E-04	1.54269138623E+01	3.65197305852E-01	3.82362883870E+00
7.50661322645E+10	2.66592033930E-01	3.82913137751E+01	8.30269080733E-05	1.28019347372E+01	5.58447082783E-05	2.81477659154E+01	3.66661824417E-01	7.48780106202E-01
7.50721442886E+10	2.62458488898E-01	3.70921234602E+01	1.25228959880E-04	-1.92370150627E+01	8.47026609478E-05	3.81066176034E+01	3.67160901706E-01	-1.03412232697E+00
7.50781563126E+10	2.62718481601E-01	3.37944641610E+01	6.28739161128E-05	8.35342544496E+00	2.91494526562E-05	4.63519464428E+01	3.68524477865E-01	-3.01564127964E+00
7.50841683367E+10	2.60518744608E-01	3.30191771732E+01	1.03743769018E-04	-4.52399638917E+01	1.53355953738E-04	-2.16822981071E+00	3.81597092111E-01	-6.78289579921E+00
7.50901803607E+10	2.63604656757E-01	3.15763626440E+01	1.31829832335E-04	-3.25794827870E+01	1.30690116930E-04	-2.84472433082E+01	3.89202099255E-01	-1.01007486124E+01
7.50961923848E+10	2.65118510692E-01	3.25428248877E+01	1.55137657497E-04	-6.67790598267E+01	1.66351161851E-04	-1.82334408065E+01	3.84049695055E-01	-1.25631982711E+01
7.51022044088E+10	2.62363212581E-01	3.02023205603E+01	1.26457919513E-04	-7.12372776300E+01	6.13585941773E-05	-5.87537197071E+01	3.90970993656E-01	-1.56886266728E+01
7.51082164329E+10	2.60230894865E-01	2.87027114362E+01	8.03612347405E-05	-6.64538764893E+01	8.56681582794E-05	-8.47593564407E+01	4.01612203168E-01	-2.00836027827E+01
7.51142284569E+10	2.58952108721E-01	2.86162077162E+01	8.07793638700E-05	-9.90061278975E+01	1.33794713930E-04	-3.20382786815E+01	4.08884855195E-01	-2.42776566505E+01
7.51202404810E+10	2.62025986400E-01	2.64062784380E+01	1.10601464414E-04	-4.83637961187E+01	9.40489405712E-05	-4.04953014574E+01	4.16541171902E-01	-2.82014507334E+01
7.51262525050E+10	2.60234687452E-01	2.49158251512E+01	1.50186468012E-04	-7.63626219801E+01	1.60920237600E-04	-8.80789991135E+01	4.14329307949E-01	-3.14544545390E+01
7.51322645291E+10	2.62001089372E-01	2.31769650086E+01	1.86580206522E-04	-9.00157373532E+01	2.39366921266E-04	-8.31761802029E+01	4.21813744239E-01	-3.47420284058E+01
7.51382765531E+10	2.61196869478E-01	2.24768238019E+01	9.43656520422E-05	-1.13808265686E+02	2.22855455627E-04	-1.02328037628E+02	4.30910955910E-01	-4.02642404934E+01
7.51442885772E+10	2.58791541475E-01	2.35060338075E+01	1.69411628344E-04	-1.22989882642E+02	2.51747844202E-04	-1.21629945983E+02	4.43472157718E-01	-4.50099934697E+01
7.51503006012E+10	2.59443553410E-01	2.02231404389E+01	1.38011803273E-04	-1.51258506771E+02	2.23665012906E-04	-1.35388587241E+02	4.46395579701E-01	-5.03317769011E+01
7.51563126253E+10	2.57237579584E-01	1.87306761537E+01	1.48682741757E-04	-1.54134194458E+02	1.91032289810E-04	-1.75695370975E+02	4.47547147275E-01	-5.42240348263E+01
7.51623246493E+10	2.62393426884E-01	1.74626367450E+01	8.87796777360E-05	-1.71441293165E+02	1.39497315905E-04	-1.65107549087E+02	4.57335684166E-01	-6.02053808800E+01
7.51683366733E+10	2.57574441986E-01	1.78375657023E+01	9.00946140542E-05	1.57392439373E+02	1.58420263411E-04	-1.64337342921E+02	4.72133680946E-01	-6.74368712015E+01
7.51743486974E+10	2.65452112624E-01	1.48830415536E+01	4.87896096181E-05	1.50166452578E+02	3.25090070656E-05	-1.51629371944E+02	4.82052712106E-01	-7.51599992186E+01
7.51803607214E+10	2.63209481207E-01	1.39101000101E+01	9.00282325203E-05	-1.29128165262E+02	9.83488940409E-05	-1.46609919338E+02	4.82057295591E-01	-8.17974322692E+01
7.51863727455E+10	2.64045985367E-01	1.37013332794E+01	6.65978689320E-05	-1.71403021718E+02	1.37505580087E-04	-1.74158463379E+02	4.84328287593E-01	-8.86053062679E+01
7.51923847695E+10	2.60669141411E-01	1.07684160239E+01	7.45899224060E-05	1.60833042201E+02	2.71714316369E-04	1.67082503115E+02	4.88744692674E-01	-9.68846085860E+01
7.51983967936E+10	2.60186753241E-01	1.24871463458E+01	9.50853162192E-05	1.29888337100E+02	1.84204453980E-04	1.30951610970E+02	4.83538216590E-01	-1.04159090645E+02
7.52044088176E+10	2.67075445760E-01	8.92101816712E+00	9.19781245154E-05	1.01480442449E+02	1.23859205288E-04	1.20793021707E+02	4.78228418625E-01	-1.12306244403E+02
7.52104208417E+10	2.62571695881E-01	8.29503312683E+00	1.03482529149E-04	9.77401384877E+01	2.22581924991E-04	8.73039894744E+01	4.72040868788E-01	-1.21861674629E+02
7.52164328657E+10	2.64522530109E-01	7.03577943096E+00	3.03170284290E-05	-2.17046227461E+01	1.49663413200E-04	7.84507062638E+01	4.70640956992E-01	-1.33345167064E+02
7.52224448898E+10	2.64728213396E-01	4.07009421947E+00	2.10714657789E-05	5.51240395854E+01	1.02442073318E-05	-6.76358271514E+00	4.55243375892E-01	-1.40995068443E+02
7.52284569138E+10	2.70238164443E-01	3.11803934123E+00	8.56381957091E-05	6.84409241325E+01	1.21941792315E-04	5.03094134227E+01	4.42137158094E-01	-1.50497352267E+02
7.52344689379E+10	2.62385677402E-01	3.92267314866E+00	1.60309113475E-05	-1.64550926578E+02	1.37641621911E-04	6.19253428825E+01	4.30017946191E-01	-1.61189543715E+02
7.52404809619E+10	2.67223993667E-01	2.83364011605E+00	3.12808461193E-05	1.07389083394E+02	1.01489211980E-04	8.83328745961E+01	4.13404838716E-01	-1.67363685577E+02
7.52464929860E+10	2.65702226048E-01	1.51940864582E+00	9.81339806974E-05	8.70112614106E+01	5.42055135379E-05	7.14419534565E+01	3.98697964984E-01	-1.77966105347E+02
7.52525050100E+10	2.64666459723E-01	-2.23273990567E+00	7.12866342026E-05	5.73647704729E+01	1.78551277245E-05	1.51875165654E+02	3.82817765168E-01	1.70167500535E+02
7.52585170341E+10	2.62822586335E-01	-7.29471236624E-01	8.24452642718E-05	5.21101617871E+01	4.18596153703E-05	-2.36750104086E+01	3.68331948442E-01	1.61747322913E+02
7.52645290581E+10	2.68422208382E-01	-3.12178744138E+00	5.67068571548E-05	-8.75592660338E+01	1.12491516932E-04	-1.08460726324E+01	3.58214729293E-01	1.55504227251E+02
7.52705410822E+10	2.68775091243E-01	-5.90842722908E+00	9.25486837251E-05	8.65309184146E+01	6.74342781667E-05	-3.12462678947E+01	3.43951138543E-01	1.46095423469E+02
7.52765531062E+10	2.63882756497E-01	-4.31175328427E+00	3.34702693118E-05	-1.24936742544E+01	6.43412503434E-05	1.43367802603E+02	3.27277390459E-01	1.36551993631E+02
7.52825651303E+10	2.63107718114E-01	-6.52308853337E+00	3.66519196758E-05	1.61720343943E+02	9.84197810361E-05	1.00296209881E+02	3.18315756580E-01	1.28546218801E+02
7.52885771543E+10	2.67776246364E-01	-8.03861586638E+00	7.29285999710E-05	1.47486582157E+02	8.34127778493E-05	1.56886832054E+02	3.13358673990E-01	1.20438922233E+02
7.52945891784E+10	2.74569833920E-01	-1.09394521165E+01	5.51927294575E-06	1.25931046117E+02	2.27826358193E-05	-1.19860129769E+02	3.06954622338E-01	1.14187437135E+02
7.53006012024E+10	2.69390818076E-01	-1.03553434092E+01	2.95951545037E-05	-1.45869980908E+02	2.32403239995E-06	1.48594526532E+02	2.99852892431E-01	1.07966227163E+02
7.53066132265E+10	2.66222360006E-01	-1.17848583866E+01	4.94585394459E-05	1.75889912184E+02	9.44197323847E-05	6.68842831603E+01	2.93420759884E-01	1.00859048730E+02
7.53126252505E+10	2.69142651088E-01	-1.46389142431E+01	3.78462223128E-05	6.42805296864E+01	4.87543990307E-05	1.17657627116E+02	2.89025096000E-01	9.51777077975E+01
7.53186372745E+10	2.76266210538E-01	-1.72483527453E+01	2.30692114925E-05	7.52358096436E+01	3.53211905069E-05	4.62129480686E+01	2.85745086351E-01	8.68234117139E+01
7.53246492986E+10	2.75126640436E-01	-1.77653448955E+01	4.92414783870E-05	1.50284598375E+02	3.98129646526E-05	5.60080973872E+01	2.86879072004E-01	8.22134280592E+01
7.53306613226E+10	2.74317152522E-01	-1.82774476736E+01	7.43375764086E-05	1.27970257682E+02	2.51357865513E-05	1.20686066988E+02	2.86998315206E-01	7.79087150912E+01
7.53366733467E+10	2.69476033886E-01	-1.90110312080E+01	7.59611428564E-05	1.29418339577E+02	4.72597006775E-05	6.61721643782E+01	2.79725924551E-01	7.09021647298E+01
7.53426853707E+10	2.71064634257E-01	-1.96286827052E+01	6.56341646926E-05	1.03967078816E+02	8.91485545792E-05	5.26142737093E+01	2.82312191709E-01	6.75404854234E+01
7.53486973948E+10	2.79405905294E-01	-2.21823597450E+01	8.11534895092E-05	6.92931306219E+01	2.75514672585E-05	-1.64561559815E+02	2.81590841594E-01	6.22880870002E+01
7.53547094188E+10	2.74704134467E-01	-2.27016847525E+01	5.82973606306E-05	8.68644653701E+01	1.22454466891E-04	7.89554708447E+01	2.83151604422E-01	5.69537017445E+01
7.53607214429E+10	2.78579154591E-01	-2.54837551959E+01	1.26551774834E-04	1.03518731452E+02	9.14095702648E-05	8.88886628240E+01	2.83053007983E-01	5.17800891556E+01
7.53667334669E+10	2.80322333667E-01	-2.73158167962E+01	9.36920437723E-05	8.51460557874E+01	1.23235210431E-04	4.18585475308E+01	2.81974334986E-01	4.86269081075E+01
7.53727454910E+10	2.82818214172E-01	-2.91408902186E+01	1.65888668405E-04	3.10809550349E+01	1.28387198468E-04	5.65983888952E+00	2.83282600419E-01	4.51265544859E+01
7.53787575150E+10	2.77675189724E-01	-2.92026946077E+01	1.09003163801E-04	3.96444586409E+01	1.20192978863E-04	1.51098661665E+01	2.84672259262E-01	4.03481579875E+01
7.53847695391E+10	2.79219667121E-01	-3.01614441527E+01	9.73961761734E-05	4.08720965967E+01	8.22003236754E-05	-7.82430845238E+00	2.87873530787E-01	3.56232654307E+01
7.53907815631E+10	2.82213534985E-01	-3.26796857344E+01	1.39120000128E-04	6.81441587426E+00	8.65002647841E-05	-1.39824144350E+01	2.88449374390E-01	3.13254280522E+01
7.53967935872E+10	2.85070869149E-01	-3.46592425088E+01	1.31141437941E-04	3.18190358618E+01	1.18620366476E-04	4.19734406802E+00	2.92635112795E-01	2.92070671308E+01
7.54028056112E+10	2.83021049666E-01	-3.49888341677E+01	1.58554595698E-04	1.21242724825E+01	1.09004476647E-04	-4.13025629989E+00	2.92792862626E-01	2.60103001682E+01
7.54088176353E+10	2.82350638077E-01	-3.67156901773E+01	1.84254849381E-04	1.18273611767E+01	1.48650577864E-04	-2.95232952053E+01	2.90837102121E-01	2.25474111838E+01
7.54148296593E+10	2.87114045463E-01	-3.85449292612E+01	1.34709573422E-04	-6.02438733618E+00	1.36420162632E-04	-3.83619743123E+01	2.87261904766E-01	1.83221419451E+01
7.54208416834E+10	2.95013390805E-01	-4.09979297879E+01	1.82473440172E-04	-4.70198854633E+01	1.06667813475E-04	-2.28776772389E+01	2.93164909105E-01	1.50961286546E+01
7.54268537074E+10	2.89385715413E-01	-4.10939281843E+01	1.71429012417E-04	-4.48401967430E+01	1.29971881418E-04	-4.40909156290E+01	2.93032526463E-01	1.24226149824E+01
7.54328657315E+10	2.85919396561E-01	-4.21905577333E+01	2.33280784050E-04	-6.24560253289E+01	1.98906465319E-04	-7.50268280831E+01	2.86348825205E-01	9.94719502340E+00
7.54388777555E+10	2.85040640843E-01	-4.31627989400E+01	1.10915478421E-04	-1.07365233168E+02	1.52634455863E-04	-9.43941297090E+01	2.82353687322E-01	5.97411723434E+00
7.54448897796E+10	2.88473614426E-01	-4.63677621623E+01	1.12080362856E-04	-8.59237722628E+01	1.18606736299E-04	-8.29890704654E+01	2.81147178806E-01	3.75582763685E+00
7.54509018036E+10	2.97240209503E-01	-4.85122587146E+01	6.56079142258E-05	-9.38703580514E+01	1.50364892743E-04	-9.94349661003E+01	2.79803753709E-01	2.48272032053E+00
7.54569138277E+10	2.93087418791E-01	-4.87039950139E+01	1.76704806488E-04	-6.49578319901E+01	1.35586214620E-04	-7.28375032136E+01	2.78681072935E-01	1.90973343448E+00
7.54629258517E+10	2.97398257562E-01	-5.06739093784E+01	2.32040103040E-04	-9.08544024061E+01	1.72922889048E-04	-1.07011593913E+02	2.87815160822E-01	-8.14450908641E-02
7.54689378758E+10	2.97095932055E-01	-5.33525794653E+01	1.30260001855E-04	-1.08563225165E+02	1.64170493981E-04	-1.21389903862E+02	2.92554007941E-01	8.93351355357E-02
7.54749498998E+10	2.96441178998E-01	-5.32881195361E+01	1.55073559368E-04	-1.29802641168E+02	1.16399139153E-04	-1.14719734133E+02	2.99294162585E-01	-1.40054190038E+00
7.54809619238E+10	3.02169543390E-01	-5.62433265643E+01	1.22140856898E-04	-1.09711260170E+02	1.30362621059E-04	-1.32337634472E+02	3.07736640321E-01	-3.77670498699E+00
7.54869739479E+10	3.05056864083E-01	-5.79619472418E+01	1.98524258552E-04	-1.23792281821E+02	1.14523983075E-04	-1.25222680219E+02	3.16577989296E-01	-7.01219232294E+00
7.54929859719E+10	3.03162170792E-01	-5.93714423474E+01	2.69409830585E-04	-1.36353346538E+02	1.53626690669E-04	-1.39877335849E+02	3.27302262468E-01	-8.75125627779E+00
7.54989979960E+10	3.02876388569E-01	-6.16758252061E+01	2.45745153157E-04	-1.46635239722E+02	2.32983361376E-04	-1.48876497430E+02	3.33492519040E-01	-1.01415005378E+01
7.55050100200E+10	3.07032854573E-01	-6.33689228382E+01	2.48599131295E-04	1.77676955111E+02	1.57163415060E-04	-1.65109367743E+02	3.45974519979E-01	-1.33034447494E+01
7.55110220441E+10	3.06296153754E-01	-6.39530441651E+01	2.14525933329E-04	-1.79774341751E+02	1.22151194498E-04	1.62846665224E+02	3.51317553829E-01	-1.56660024916E+01
7.55170340681E+10	3.05916648264E-01	-6.61915857995E+01	2.35660574802E-04	1.67121241608E+02	1.29205634657E-04	-1.75215670450E+02	3.59222596753E-01	-1.76566491999E+01
7.55230460922E+10	3.10417861671E-01	-6.90848177573E+01	1.86635861570E-04	1.65634412940E+02	1.38473952953E-04	1.67740213411E+02	3.71421093998E-01	-2.06269741415E+01
7.55290581162E+10	3.13075652946E-01	-7.15891668841E+01	2.34038978344E-04	1.69428511642E+02	1.43364341261E-04	1.70271207802E+02	3.76247980831E-01	-2.21435598243E+01
7.55350701403E+10	3.13250123408E-01	-7.19809478879E+01	2.13110550000E-04	1.56159783512E+02	1.86948989571E-04	1.42974842026E+02	3.82563511824E-01	-2.45546509004E+01
7.55410821643E+10	3.12849092074E-01	-7.34225275380E+01	1.23049830228E-04	1.25090709823E+02	1.51915283193E-04	1.08448446656E+02	3.99015132974E-01	-2.75868052361E+01
7.55470941884E+10	3.13811619383E-01	-7.49468081451E+01	1.77752488613E-04	1.05853233225E+02	8.01302491912E-05	1.00381062274E+02	4.11941316358E-01	-3.09612146701E+01
7.55531062124E+10	3.12795074831E-01	-7.62272805855E+01	1.91598595878E-04	1.12520144463E+02	1.78126214539E-04	1.11798696139E+02	4.20438195044E-01	-3.19443833035E+01
7.55591182365E+10	3.17508038795E-01	-8.04365018239E+01	1.68929828961E-04	8.72072410007E+01	9.10038819582E-05	1.32701415130E+02	4.28175345992E-01	-3.48273056859E+01
7.55651302605E+10	3.19308955104E-01	-8.20480531674E+01	1.66480374575E-04	7.90920186859E+01	8.82905544714E-05	9.57722884151E+01	4.42172746870E-01	-3.70548604064E+01
7.55711422846E+10	3.18996305545E-01	-8.22261466570E+01	1.77348448605E-04	3.64812765278E+01	1.29131643403E-04	6.93264766785E+01	4.66557986059E-01	-4.07225397481E+01
7.55771543086E+10	3.21070069185E-01	-8.53652692028E+01	1.53163242223E-04	9.77236564842E+01	1.53577305597E-04	9.08235389761E+01	4.76450789971E-01	-4.25076589543E+01
7.55831663327E+10	3.17719984115E-01	-8.68728981650E+01	1.27568972993E-04	6.47616678477E+01	1.35688991626E-04	9.70321744436E+01	4.91372100252E-01	-4.54768727244E+01
7.55891783567E+10	3.20080610457E-01	-8.83140032883E+01	1.38488085765E-04	5.36846108794E+01	9.52341673154E-05	6.69155593212E+01	5.14046842617E-01	-4.87315769127E+01
7.55951903808E+10	3.28777865171E-01	-9.33214247619E+01	2.02550086874E-04	3.92885235047E+01	2.04522485484E-04	3.59713129737E+01	5.36970823497E-01	-5.11466566593E+01
7.56012024048E+10	3.34536913101E-01	-9.59879040350E+01	1.88220773128E-04	4.24249703806E+01	1.70261898401E-04	3.96386272151E+01	5.63367332844E-01	-5.47615752963E+01
7.56072144289E+10	3.22642320732E-01	-9.42285988793E+01	1.84454930754E-04	-2.17749199680E+01	1.93307619559E-04	3.09586634642E+01	5.90277482606E-01	-5.88701009840E+01
7.56132264529E+10	3.23552414684E-01	-9.62997630305E+01	1.06686970181E-04	8.11848547753E-01	1.49092126805E-04	2.17922337565E+01	6.30210606883E-01	-6.31344376132E+01
7.56192384770E+10	3.20648761813E-01	-9.80783568179E+01	9.96395788138E-05	-5.78294010288E+01	1.25388321877E-04	-1.74075422567E+01	6.44528265900E-01	-6.48442586768E+01
7.56252505010E+10	3.26061027226E-01	-1.01531341058E+02	2.68151077240E-05	1.35925588570E+02	2.71465554286E-05	-8.32994598763E+00	6.86914928408E-01	-6.98506641128E+01
7.56312625251E+10	3.35076644560E-01	-1.05749276621E+02	6.34189986008E-05	-1.29900213865E+02	9.76236160614E-05	-1.28253879197E+01	7.24884804931E-01	-7.50781074438E+01
7.56372745491E+10	3.28287718753E-01	-1.05893142991E+02	1.00231087720E-04	-1.95768522057E+00	1.51975973867E-04	2.08896325178E+01	7.69396208936E-01	-8.03105809295E+01
7.56432865731E+10	3.27094122514E-01	-1.07907657481E+02	1.33198637447E-04	6.78533905816E+00	8.68995118941E-05	3.30207636313E+00	8.07088382700E-01	-8.56995707457E+01
7.56492985972E+10	3.26932883573E-01	-1.09561739735E+02	6.24744403777E-05	1.22446352175E+01	1.84483924653E-04	-3.82831472686E+00	8.54548867846E-01	-9.26253038569E+01
7.56553106212E+10	3.31248021760E-01	-1.12776005074E+02	1.19845734615E-04	-1.50368773880E+01	1.94572434862E-04	-3.01869756455E+00	8.95366626911E-01	-9.98643447544E+01
7.56613226453E+10	3.31976539541E-01	-1.14725804425E+02	1.42723765752E-04	-4.68460741935E+01	1.58397440404E-04	-8.02074665533E+01	9.11747516713E-01	-1.05422230390E+02
7.56673346693E+10	3.30542785582E-01	-1.17187838830E+02	1.73639517671E-04	-4.45214854905E+01	2.12151011030E-04	-6.53022053238E+01	9.57114144741E-01	-1.15987971521E+02
7.56733466934E+10	3.30472653479E-01	-1.20339182803E+02	8.86746656227E-06	-6.76425111515E+01	1.29423050211E-04	-1.10624769294E+02	9.91252352994E-01	-1.26240910777E+02
7.56793587174E+10	3.29158201349E-01	-1.22780317926E+02	1.84812916853E-04	-4.58359018007E+01	2.63796421218E-04	-6.67868997565E+01	9.86348805091E-01	-1.34144344601E+02
7.56853707415E+10	3.27896083422E-01	-1.24624898301E+02	1.93629265994E-04	-6.01834203003E+01	1.54516833162E-04	-8.54700456701E+01	9.62827978049E-01	-1.42024334995E+02
7.56913827655E+10	3.27776465732E-01	-1.26575577942E+02	2.06972482761E-04	-1.29502078443E+02	2.83409760320E-04	-9.18300988250E+01	9.43437776112E-01	-1.51123819096E+02
7.56973947896E+10	3.21668204681E-01	-1.25047410963E+02	1.89895086325E-04	-1.14801841882E+02	2.76186503639E-04	-1.19473333934E+02	9.17812321401E-01	-1.62263376258E+02
7.57034068136E+10	3.25758848803E-01	-1.29842839604E+02	1.85897679118E-04	-1.59859396173E+02	2.27125887233E-04	-1.62456829083E+02	8.66683748408E-01	-1.69528570560E+02
7.57094188377E+10	3.22414119054E-01	-1.31757896238E+02	1.97278824384E-04	-1.66934059059E+02	2.50720712167E-04	-1.71560089260E+02	8.19697780504E-01	-1.77776563265E+02
7.57154308617E+10	3.25675328433E-01	-1.36562146482E+02	2.04597214193E-04	1.74300271907E+02	2.30316205044E-04	1.52935296777E+02	7.66220699443E-01	1.76309232654E+02
7.57214428858E+10	3.24398809559E-01	-1.37936958282E+02	1.55805731376E-04	1.44144132104E+02	2.21791155715E-04	1.27147237392E+02	7.16224355998E-01	1.67400181632E+02
7.57274549098E+10	3.24673936168E-01	-1.40868827657E+02	1.86566036659E-04	1.25943662370E+02	9.57149579593E-05	1.38639352638E+02	6.65851013253E-01	1.58590283306E+02
7.57334669339E+10	3.20750204375E-01	-1.43473257903E+02	1.73010802558E-04	1.17893780581E+02	1.70576452827E-04	1.11752600187E+02	6.15587968001E-01	1.49696460645E+02
7.57394789579E+10	3.14405380854E-01	-1.42091003240E+02	8.06987925291E-05	1.01516421933E+02	1.43551698180E-04	1.17808957877E+02	5.73973292925E-01	1.44995036042E+02
7.57454909820E+10	3.16116403436E-01	-1.45956779438E+02	1.91671940024E-04	1.09040152334E+02	1.19269795835E-04	7.20432476042E+01	5.35699160044E-01	1.41470057468E+02
7.57515030060E+10	3.17950112665E-01	-1.50001091157E+02	1.62434006586E-04	1.08863017172E+02	8.03486924166E-05	8.85063147084E+01	4.97059318218E-01	1.32559710935E+02
7.57575150301E+10	3.14519918567E-01	-1.51341454188E+02	1.73588014911E-04	6.35134497978E+01	1.30524542143E-04	4.36671411018E+01	4.61013535529E-01	1.25669061976E+02
7.57635270541E+10	3.10923522189E-01	-1.53615369109E+02	1.99570206239E-04	5.12313721606E+01	8.59765784797E-05	-1.86461647206E+01	4.28937858263E-01	1.18939428685E+02
7.57695390782E+10	3.10132755549E-01	-1.55724818354E+02	2.21569171445E-04	2.77083415130E+01	1.39125938379E-04	-6.16216307539E+00	4.05722284529E-01	1.15489495903E+02
7.57755511022E+10	3.09563722905E-01	-1.57940791886E+02	1.70414558885E-04	3.39313524264E+01	2.20132054993E-05	-3.13141593125E+01	3.78503925950E-01	1.07928369104E+02
7.57815631263E+10	3.05396625694E-01	-1.58763015904E+02	1.51270390903E-04	2.18099016181E+01	1.29348933628E-04	-1.77720170628E+01	3.53242387335E-01	1.00938668672E+02
7.57875751503E+10	3.01717856516E-01	-1.60509005945E+02	6.57756929344E-05	1.74669767155E+01	9.99628926891E-05	-5.32895156029E+01	3.32096010933E-01	9.51218853154E+01
7.57935871743E+10	3.05026303284E-01	-1.63518165668E+02	1.34459286972E-04	-3.38062460677E+01	8.72556034566E-05	-7.76361687419E+01	3.17536828491E-01	8.91374718044E+01
7.57995991984E+10	2.98799642924E-01	-1.66490922847E+02	7.71184050539E-05	1.28439124884E+02	4.46257604457E-05	-1.38549920306E+02	3.04155379945E-01	8.24001981894E+01
7.58056112224E+10	2.99785125388E-01	-1.68381584923E+02	9.26842511710E-05	-1.46887549050E+02	6.23946798924E-05	-2.05339075347E+01	2.87665353546E-01	7.37855557840E+01
7.58116232465E+10	2.98218125500E-01	-1.71483801830E+02	5.20458546923E-05	-9.07975090348E+01	8.13678394124E-05	-5.27623965353E+01	2.77841583539E-01	6.73495749332E+01
7.58176352705E+10	2.93256103266E-01	-1.72766557009E+02	9.98375732716E-05	-2.87742147670E+01	5.15105684264E-05	-8.80674841306E+01	2.68729556962E-01	6.18541177645E+01
7.58236472946E+10	2.92376603204E-01	-1.77390988272E+02	1.18988594307E-04	-8.65909005103E+01	4.26056902746E-05	-1.02997823547E+02	2.64301894155E-01	5.40909938894E+01
7.58296593186E+10	2.90214725818E-01	-1.76690328023E+02	5.55586580014E-05	9.45554482618E+01	2.59653107462E-05	-2.82834588035E+01	2.64518586483E-01	4.65785543850E+01
7.58356713427E+10	2.87650071105E-01	-1.77854280579E+02	2.19203838073E-05	-8.78260826824E+01	7.00084877662E-05	1.63042404622E+00	2.60296973498E-01	3.92932254802E+01
7.58416833667E+10	2.84933851781E-01	-1.78755083607E+02	1.01436446720E-04	-3.55978643778E+01	7.62523682209E-05	-5.25195421976E+01	2.59823945291E-01	3.24421777108E+01
7.58476953908E+10	2.82382645425E-01	1.76160088527E+02	2.64852931502E-04	-2.14435271497E+01	6.38034473316E-05	-4.65528775172E+01	2.60294801215E-01	2.66930915450E+01
7.58537074148E+10	2.82139066252E-01	1.74796278748E+02	8.37910564059E-05	-6.83064253664E+01	8.63303824455E-05	-6.69079182122E+01	2.71313350601E-01	1.93478317188E+01
7.58597194389E+10	2.79873558546E-01	1.72668830843E+02	1.94343561489E-04	-9.33587875930E+01	7.67996218800E-05	-8.40765317407E+01	2.73989792922E-01	1.32619802768E+01
7.58657314629E+10	2.76989248706E-01	1.70218579295E+02	1.16922220683E-04	-1.24112306176E+02	1.08175100373E-04	-1.16670330000E+02	2.86303991014E-01	6.84165338698E+00
7.58717434870E+10	2.71771290669E-01	1.66514421042E+02	1.12340378774E-04	-1.21499463686E+02	6.34153670813E-05	-1.10950244815E+02	2.96040223225E-01	9.46887121089E-01
7.58777555110E+10	2.71289674839E-01	1.66417587257E+02	7.72059358633E-05	-1.25047712900E+02	5.77189544276E-05	-1.43820113523E+02	3.10214885444E-01	-5.26471051537E+00
7.58837675351E+10	2.67347586292E-01	1.62343490136E+02	9.46876368605E-05	-1.63356132409E+02	1.18955845482E-04	-1.14772672530E+02	3.18056248061E-01	-1.00833578817E+01
7.58897795591E+10	2.66875918594E-01	1.62122487127E+02	1.09423564591E-04	-1.59761364841E+02	8.33329834301E-05	-1.49709497360E+02	3.32806188267E-01	-1.50659410580E+01
7.58957915832E+10	2.63828531322E-01	1.58952280667E+02	1.98763680813E-04	1.63555163366E+02	1.13221962603E-04	-1.77380644291E+02	3.46342302606E-01	-2.02092530882E+01
7.59018036072E+10	2.62980383903E-01	1.59268452694E+02	1.56277225562E-04	1.40261544047E+02	6.98559492468E-05	-1.52508753657E+02	3.70201758614E-01	-2.60360106422E+01
7.59078156313E+10	2.60133249113E-01	1.56938723193E+02	1.85156956540E-04	1.49852426076E+02	5.60254398291E-05	1.29464509687E+02	3.91860148364E-01	-3.03435398235E+01
7.59138276553E+10	2.56462093385E-01	1.52981528802E+02	7.80302415141E-05	1.65900490011E+02	9.39347806615E-05	1.63870831205E+02	4.07715136500E-01	-3.43162384074E+01
7.59198396794E+10	2.56770630430E-01	1.52117687551E+02	1.50749629020E-04	1.35533292654E+02	8.64021628077E-05	1.70112434322E+02	4.33806633819E-01	-3.94755411810E+01
7.59258517034E+10	2.53194991878E-01	1.49604853230E+02	1.50888666210E-04	6.81165099829E+01	7.61098240556E-05	1.34682042049E+02	4.63262446689E-01	-4.40846629469E+01
7.59318637275E+10	2.50763179398E-01	1.49430529298E+02	7.74598467408E-05	3.06499749382E+01	3.39187630579E-05	1.08961249459E+02	4.91932264184E-01	-4.83887476646E+01
7.59378757515E+10	2.45897277710E-01	1.47013452933E+02	4.51113917051E-05	-8.21834938644E+01	8.98297431561E-05	4.92346782277E+01	5.09317210482E-01	-5.12499953040E+01
7.59438877756E+10	2.46836825820E-01	1.45661543052E+02	6.29255962239E-05	-2.52652151934E+01	5.29594730673E-05	9.37062114215E+01	5.45915021240E-01	-5.60332597815E+01
7.59498997996E+10	2.45531967110E-01	1.43685471245E+02	1.56918891817E-04	-4.83838114000E+01	8.62091070131E-05	-5.41919495414E+01	5.73162998505E-01	-5.98634949772E+01
7.59559118236E+10	2.41929302230E-01	1.41066164049E+02	4.00720117472E-05	-1.45936050708E+02	1.19325588762E-04	-1.61033725957E+01	6.19354620081E-01	-6.51102285530E+01
7.59619238477E+10	2.37836663486E-01	1.38106711748E+02	5.98374788417E-05	-1.18324963528E+02	8.96503495087E-05	-4.15959599358E+01	6.54117037205E-01	-6.91321593191E+01
7.59679358717E+10	2.36485997647E-01	1.38550141562E+02	7.55088634307E-05	-1.39262070239E+02	6.99968637283E-05	-9.19881135375E+01	6.92287725592E-01	-7.31871944408E+01
7.59739478958E+10	2.36666881369E-01	1.36290201664E+02	8.21159551429E-05	-9.37771692738E+01	1.12275877484E-04	-1.09760681209E+02	7.35343243177E-01	-7.73599731873E+01
7.59799599198E+10	2.34025065616E-01	1.32011796619E+02	1.44020521799E-04	-1.58190919927E+02	1.35550183430E-04	-1.13000376124E+02	7.90678862536E-01	-8.22210895180E+01
7.59859719439E+10	2.28280916337E-01	1.30603713133E+02	7.39029887822E-05	1.49688172291E+02	2.33728856962E-04	-1.35207467509E+02	8.47254844326E-01	-8.71819699960E+01
7.59919839679E+10	2.30003477687E-01	1.28484441364E+02	9.56550972313E-05	1.75312683356E+02	1.37266906491E-04	-1.24602250413E+02	9.07190113250E-01	-9.23785430000E+01
7.59979959920E+10	2.28289975671E-01	1.28097840469E+02	9.82824703540E-05	1.61597042208E+02	2.05105398007E-04	-1.62669191945E+02	9.42157282861E-01	-9.58289376644E+01
7.60040080160E+10	2.24412609102E-01	1.28631252408E+02	1.50431486296E-04	1.40362173051E+02	2.46610860929E-04	1.67258372844E+02	1.02676471260E+00	-1.02942306597E+02
7.60100200401E+10	2.23432501882E-01	1.22517681623E+02	1.08317357232E-04	1.51781460531E+02	2.39734474349E-04	-1.60915075121E+02	1.07844760904E+00	-1.07385013967E+02
7.60160320641E+10	2.21114457700E-01	1.22240816930E+02	1.04177196477E-04	1.61044882544E+02	2.33161792068E-04	1.51292520057E+02	1.17644195561E+00	-1.15648996966E+02
7.60220440882E+10	2.19183217212E-01	1.22608346852E+02	1.55723282300E-04	1.12136851090E+02	2.52538151146E-04	1.33890121561E+02	1.24226978350E+00	-1.22269719744E+02
7.60280561122E+10	2.17388511730E-01	1.20693980082E+02	1.13138154845E-04	1.35113028528E+02	3.54197499838E-04	1.33316322938E+02	1.28323191832E+00	-1.26342210251E+02
7.60340681363E+10	2.17857401397E-01	1.19362818276E+02	1.53179989609E-04	9.99579516736E+01	2.87866116007E-04	1.12732713422E+02	1.34788129082E+00	-1.32747953579E+02
7.60400801603E+10	2.15195275443E-01	1.19410946319E+02	1.07218692626E-04	7.70851719186E+01	2.47658224222E-04	1.31500021511E+02	1.42479375623E+00	-1.43116071067E+02
7.60460921844E+10	2.14085256333E-01	1.14778902933E+02	1.24313171238E-04	9.93876479643E+01	2.69298106941E-04	1.00423687901E+02	1.44416604992E+00	-1.49233021011E+02
7.60521042084E+10	2.11463282193E-01	1.12107212556E+02	1.30686185267E-04	8.71645670945E+01	2.34335744848E-04	1.38712787854E+02	1.48602825050E+00	-1.57846723156E+02
7.60581162325E+10	2.10300107172E-01	1.09949872372E+02	2.02647607783E-04	7.42658896634E+01	4.09211504302E-04	1.00546303781E+02	1.50558251961E+00	-1.68222094223E+02
7.60641282565E+10	2.11056609638E-01	1.10446021115E+02	1.58342634981E-04	8.28737071657E+01	3.33943201531E-04	6.68053810572E+01	1.50599281205E+00	-1.73066477595E+02
7.60701402806E+10	2.07651126578E-01	1.10014160574E+02	1.29880037485E-04	8.47274479892E+01	3.94014440206E-04	6.89759077848E+01	1.47576916729E+00	-1.78331678360E+02
7.60761523046E+10	2.06191394225E-01	1.05655802477E+02	2.00335016997E-04	5.11538490245E+01	2.79935332918E-04	6.19135788909E+01	1.44816961930E+00	1.76184448464E+02
7.60821643287E+10	2.07381859740E-01	1.04701008924E+02	2.16173625954E-04	4.76399421872E+01	4.78544806176E-04	1.95981627473E+01	1.41662031818E+00	1.68001683599E+02
7.60881763527E+10	2.05823246028E-01	1.02563861582E+02	2.19372379550E-04	2.10289843390E+01	4.06070142671E-04	2.81072844103E+01	1.35914096927E+00	1.56840800572E+02
7.60941883768E+10	2.00535009486E-01	1.01733185394E+02	1.08862536420E-04	3.25161011831E+01	1.43721060767E-04	1.80788645333E+01	1.31960794182E+00	1.54077118510E+02
7.61002004008E+10	2.02796027397E-01	1.01049725037E+02	1.91719298552E-04	2.04914683849E+01	3.28905361449E-04	-1.56643450234E+01	1.27335132250E+00	1.51249347437E+02
7.61062124248E+10	2.03609430092E-01	9.80743437220E+01	1.25586495373E-04	1.38405868453E+01	3.27870629936E-04	-7.29386009850E+00	1.22249094992E+00	1.45719600615E+02
7.61122244489E+10	1.98163548354E-01	9.49378370091E+01	2.10870054902E-04	9.84733511698E+00	2.80700451201E-04	-1.58317100619E+01	1.14927993077E+00	1.36862216574E+02
7.61182364729E+10	2.00124388935E-01	9.34542670217E+01	1.55552150596E-04	1.23135708216E+01	2.94318801231E-04	-2.48136016986E+00	1.10511177185E+00	1.34252620205E+02
7.61242484970E+10	1.97756866972E-01	9.36971714496E+01	2.67922375738E-04	-3.33374068963E+01	4.05042169193E-04	-3.74836873899E+01	1.05271238526E+00	1.29073298723E+02
7.61302605210E+10	1.95747852543E-01	9.51234546213E+01	1.54915270742E-04	-1.86994201701E+01	3.46072465992E-04	-4.72115822568E+01	1.01137664192E+00	1.25900552496E+02
7.61362725451E+10	1.93924054331E-01	9.04653601296E+01	1.61893318354E-04	-4.52788434737E+01	2.05011494910E-04	-9.31941926459E+01	9.58760819460E-01	1.20436272070E+02
7.61422845691E+10	1.95082766211E-01	8.76886681926E+01	1.24336612734E-04	-4.81153016756E+01	2.35073166595E-04	-6.61492464822E+01	9.17358348775E-01	1.16751164581E+02
7.61482965932E+10	1.92417167606E-01	8.63832955241E+01	1.99388302352E-04	-3.04292451165E+01	2.45602383665E-04	-6.47047048596E+01	8.88277050612E-01	1.15722216359E+02
7.61543086172E+10	1.95103097024E-01	8.52872117057E+01	1.93396085896E-04	-7.81393138871E+01	3.02647113689E-04	-7.29125804370E+01	8.49504985678E-01	1.12021218716E+02
7.61603206413E+10	1.92581084603E-01	8.38135590596E+01	1.89384090197E-04	-6.72143638255E+01	2.96153156926E-04	-6.97558472823E+01	8.11071044623E-01	1.08086267716E+02
7.61663326653E+10	1.91336826571E-01	8.19476660488E+01	1.96187850697E-04	-7.72585517442E+01	2.88123363167E-04	-1.06497866360E+02	7.82657157882E-01	1.06581271276E+02
7.61723446894E+10	1.91269930701E-01	7.93765348845E+01	1.93329729131E-04	-7.82698150088E+01	2.34886549364E-04	-1.14256592447E+02	7.52665165653E-01	1.04211065731E+02
7.61783567134E+10	1.89627634983E-01	7.79008735399E+01	1.74985717765E-04	-1.12650985746E+02	1.79652518111E-04	-1.41850897694E+02	7.22751049423E-01	1.01530446001E+02
7.61843687375E+10	1.88363186669E-01	7.83284308983E+01	1.29947811356E-04	-1.02245466031E+02	7.80049248754E-05	-1.27319018027E+02	6.90101176879E-01	9.82532594698E+01
7.61903807615E+10	1.86192484304E-01	7.55833744428E+01	1.34189032739E-04	-8.17557967320E+01	1.52543908202E-04	-1.33620735414E+02	6.73681323713E-01	9.81374589988E+01
7.61963927856E+10	1.86410288834E-01	7.54414336203E+01	1.19035978980E-04	-8.87658591251E+01	7.38286980025E-05	-1.32296360005E+02	6.48447000787E-01	9.58889904479E+01
7.62024048096E+10	1.82514695819E-01	7.29992721669E+01	1.71969930578E-04	-9.25117502569E+01	2.16562390716E-04	-1.38343466866E+02	6.25152799164E-01	9.38937660212E+01
7.62084168337E+10	1.83763511931E-01	7.07981639067E+01	2.33472996081E-04	-1.32255954745E+02	2.05365134510E-04	-1.35207408505E+02	6.06032710111E-01	9.24870496955E+01
7.62144288577E+10	1.83555084141E-01	7.19364611444E+01	5.90440086267E-05	-1.28659702500E+02	2.12206606761E-04	-1.50286392868E+02	5.91193872570E-01	9.12010656989E+01
7.62204408818E+10	1.82297880282E-01	6.85396184992E+01	1.13922865301E-04	-1.26936805397E+02	1.84389125632E-04	-1.37310196658E+02	5.78602078785E-01	9.05173214922E+01
7.62264529058E+10	1.83956741270E-01	6.53887734882E+01	1.67041612793E-04	-1.41505248446E+02	1.69196550366E-04	-1.56430706305E+02	5.72569533881E-01	9.03643811839E+01
7.62324649299E+10	1.80149350920E-01	6.51260686761E+01	2.15709335026E-04	-1.43913445703E+02	2.67382935009E-04	-1.49563437237E+02	5.68688151089E-01	8.95440220357E+01
7.62384769539E+10	1.79383427977E-01	6.50928648602E+01	2.35825106939E-04	-1.54484010251E+02	2.06131058944E-04	-1.76738500891E+02	5.64957981312E-01	8.72084620137E+01
7.62444889780E+10	1.80492558497E-01	6.38651381064E+01	2.57379968427E-04	-1.60913922231E+02	1.81981595848E-04	1.57208154116E+02	5.75843181398E-01	8.74807534934E+01
7.62505010020E+10	1.80460238809E-01	6.13813794870E+01	2.46387400193E-04	1.53307492351E+02	1.83925062894E-04	1.51870682093E+02	5.78089447225E-01	8.40903989393E+01
7.62565130261E+10	1.80655868846E-01	5.98550017362E+01	2.04272269925E-04	1.51369568608E+02	1.65092341390E-04	1.19124752427E+02	5.81007513295E-01	8.17667549576E+01
7.62625250501E+10	1.79040564886E-01	5.67039728120E+01	1.40135119910E-04	1.38055041250E+02	1.25767902307E-04	1.15924033474E+02	5.92216594986E-01	8.05448560368E+01
7.62685370741E+10	1.77921970244E-01	5.56129968118E+01	1.68165615492E-04	1.42524820541E+02	1.78406005544E-04	1.28089051803E+02	5.91785257335E-01	7.85849150433E+01
7.62745490982E+10	1.77080878730E-01	5.62873073637E+01	1.53876660760E-04	1.37536869445E+02	1.27897971337E-04	9.72064345628E+01	5.93040960849E-01	7.53606098430E+01
7.62805611222E+10	1.79162269442E-01	5.45465994612E+01	1.80774114030E-04	1.19929818469E+02	1.65075276023E-04	7.95116670711E+01	5.78350014941E-01	7.09426315126E+01
7.62865731463E+10	1.76694251223E-01	5.31646107708E+01	1.51642330371E-04	8.07804778040E+01	9.37799927014E-05	8.76493978519E+01	5.72810282220E-01	6.84826640742E+01
7.62925851703E+10	1.75717213984E-01	5.16238056699E+01	1.42324214334E-04	1.16643405113E+02	4.28109387564E-05	9.59268911638E+01	5.70682470235E-01	6.69109765938E+01
7.62985971944E+10	1.75475991903E-01	4.92577024904E+01	4.14614496267E-05	1.09224686902E+02	6.85204508957E-05	5.92244854904E+01	5.68409985042E-01	6.55918494299E+01
7.63046092184E+10	1.73115235200E-01	4.64663204501E+01	1.18223404382E-04	8.25529393902E+01	4.05081197461E-05	-1.58404728092E+02	5.58355485881E-01	6.18721560043E+01
7.63106212425E+10	1.74576409186E-01	4.73779668452E+01	7.20594579043E-05	8.40852835343E+01	8.44990608864E-05	9.21635148357E+01	5.46748304124E-01	5.81682079523E+01
7.63166332665E+10	1.72995353515E-01	4.44772994449E+01	1.49787103816E-04	1.26042377447E+02	6.06505932372E-05	8.39340566921E+01	5.36373880694E-01	5.58329979167E+01
7.63226452906E+10	1.76546965153E-01	4.38513828954E+01	9.44402376202E-05	1.16516060352E+02	6.90842541618E-05	7.35553382504E+01	5.28367676055E-01	5.39421920558E+01
7.63286573146E+10	1.72571197839E-01	4.36600192993E+01	2.71489687701E-05	1.18541899901E+02	8.52035042065E-05	1.09978377325E+02	5.27402825658E-01	5.36364018062E+01
7.63346693387E+10	1.71457975518E-01	4.13431219897E+01	7.15734305925E-05	1.72896732772E+02	4.77611686507E-05	9.37632150335E+01	5.20513003539E-01	4.96155002433E+01
7.63406813627E+10	1.71775102015E-01	3.97219608771E+01	1.02434347504E-04	7.84246516916E+01	6.10246588845E-05	8.75880926768E+01	5.08886711972E-01	4.81711912004E+01
7.63466933868E+10	1.74546158300E-01	3.85435819011E+01	6.96525305844E-05	5.38207216110E+01	6.17325019043E-05	7.96617624628E+01	5.02881067236E-01	4.63580459333E+01
7.63527054108E+10	1.72190442240E-01	3.77661031616E+01	8.98429511221E-05	8.81821112358E+01	3.38525793917E-05	3.35872927065E+01	5.02287374262E-01	4.44315749470E+01
7.63587174349E+10	1.71639088884E-01	3.65604092269E+01	2.69863459008E-05	7.46225024666E+01	7.42211878594E-05	9.25890815757E+01	4.97472658892E-01	4.25433447385E+01
7.63647294589E+10	1.72826784355E-01	3.46626066693E+01	8.94422428575E-05	9.20907973875E+01	5.41482238898E-05	6.57437692828E+01	4.88872317056E-01	4.02129136753E+01
7.63707414830E+10	1.72728427076E-01	3.19616393244E+01	9.06663843896E-05	8.25789138248E+01	5.53400120533E-05	8.77889743990E+00	4.80861030476E-01	3.88212018402E+01
7.63767535070E+10	1.72534140244E-01	3.08955202870E+01	6.62670732288E-05	1.19820505193E+02	5.99613031961E-05	7.63764240097E+01	4.78268797877E-01	3.68181963233E+01
7.63827655311E+10	1.71354738928E-01	2.97877279570E+01	2.29391844794E-05	4.96240532769E+01	6.74104951403E-05	5.18243772130E+01	4.72668596568E-01	3.42335959466E+01
7.63887775551E+10	1.71831543281E-01	3.15061067117E+01	6.94690656659E-05	5.25766720992E+01	5.70864441304E-05	2.45501584167E+01	4.68313876973E-01	3.24713700092E+01
7.63947895792E+10	1.71197374640E-01	2.75812862071E+01	8.13990256562E-05	2.59045802654E+01	6.10741055501E-05	7.27932541272E+01	4.64096712886E-01	3.08013025091E+01
7.64008016032E+10	1.68450810217E-01	2.56417076502E+01	6.55176007419E-05	5.20262294933E+01	6.94292703080E-05	2.88786931690E+01	4.56192594436E-01	2.99142877612E+01
7.64068136273E+10	1.73101796906E-01	2.53278848940E+01	5.02583965150E-05	1.91310366815E+01	3.08954239248E-05	3.47518950411E+01	4.51724485234E-01	2.70041896000E+01
7.64128256513E+10	1.71924124701E-01	2.07114149582E+01	6.06728160993E-05	9.17599412335E+00	5.52360228488E-05	1.89191470169E+01	4.51359642032E-01	2.45812304178E+01
7.64188376754E+10	1.71250876783E-01	2.06510961389E+01	7.77548349054E-05	1.09724456361E+01	4.86004694567E-05	7.05252877749E+01	4.51109196874E-01	2.38314532252E+01
7.64248496994E+10	1.70666305458E-01	1.98196025259E+01	2.55500046450E-05	-1.22185137765E+01	3.49257601240E-05	4.41075546748E+01	4.42247647923E-01	2.15490605502E+01
7.64308617234E+10	1.72565827129E-01	1.82867684586E+01	5.58094645798E-05	8.48292915657E+01	5.13332802335E-05	5.38552599952E+00	4.40206889128E-01	2.01493697226E+01
7.64368737475E+10	1.72339925358E-01	1.68494677526E+01	5.42942436927E-05	1.31072272728E+01	3.84207388531E-05	3.04701412842E+01	4.44731854206E-01	1.86291677336E+01
7.64428857715E+10	1.72231836476E-01	1.65073009415E+01	7.12992999097E-05	3.93785043107E+01	3.22749908863E-05	-6.85262491847E+01	4.39817969943E-01	1.65163249010E+01
7.64488977956E+10	1.70687374887E-01	1.38090058671E+01	5.73779776971E-05	-1.68821642554E+01	2.68214439117E-05	2.75507039788E+01	4.36436826279E-01	1.45736053305E+01
7.64549098196E+10	1.69801126953E-01	1.19804643216E+01	1.37858056623E-04	2.46894326537E+00	2.66940478874E-05	3.44160462978E+01	4.34643649809E-01	1.33803853077E+01
7.64609218437E+10	1.69699061182E-01	1.08245519642E+01	3.77166850887E-05	3.29862390792E+00	3.36275034376E-05	1.92226317969E+01	4.30465549059E-01	1.19967238963E+01
7.64669338677E+10	1.69937931323E-01	9.62897141210E+00	5.64646513953E-05	1.70129162811E+01	5.70198389804E-05	1.56095715127E+01	4.28623177078E-01	9.17618388484E+00
7.64729458918E+10	1.71660991179E-01	8.78585002216E+00	1.17604943402E-04	-1.48363652886E+00	4.54479422577E-05	7.35515123570E+01	4.30614773229E-01	7.50532433489E+00
7.64789579158E+10	1.71844953450E-01	9.20087307823E+00	3.77943144245E-05	6.51529225257E+01	3.99592146497E-05	2.81684088111E-01	4.27117606838E-01	5.83215577665E+00
7.64849699399E+10	1.72828252633E-01	5.50537524982E+00	1.18469548202E-04	-4.58806491842E+01	5.70727312312E-05	-4.80931136909E+01	4.27349835289E-01	4.15495788925E+00
7.64909819639E+10	1.70259039624E-01	4.48566563548E+00	6.95377942973E-05	4.81200598386E+00	3.33272631917E-05	4.25701288257E+01	4.24684052768E-01	2.11854773310E+00
7.64969939880E+10	1.70242836426E-01	1.59807033962E+00	5.92431345354E-05	-9.02523536857E+00	6.48042095211E-05	-4.11987873048E+00	4.20819101183E-01	5.74536278551E-01
7.65030060120E+10	1.69551362183E-01	-2.22418657668E-01	5.10397369918E-05	3.00644448819E+01	3.49033339323E-05	4.91761193393E+01	4.20050943336E-01	-1.10080446277E+00
7.65090180361E+10	1.72061908269E-01	-4.48159795318E-01	6.34011293042E-05	4.48323376999E+01	8.64334999961E-05	1.05845158565E+01	4.19024170332E-01	-2.97975927258E+00
7.65150300601E+10	1.71009900382E-01	-3.91863523774E-01	1.05635894094E-04	1.37455734762E+01	9.73119112795E-05	1.40731800540E+01	4.19105750839E-01	-5.66980421150E+00
7.65210420842E+10	1.69499413052E-01	-4.04550553617E+00	1.36632532220E-04	-3.74211909925E+00	6.78835435672E-05	-2.69652053404E+01	4.19955368342E-01	-6.39008331330E+00
7.65270541082E+10	1.69127753825E-01	-3.76103399305E+00	1.32364913342E-04	-6.44476690035E+00	1.14331019347E-04	-9.63556641288E+00	4.20797885259E-01	-8.28774717635E+00
7.65330661323E+10	1.71977804669E-01	-7.11938543734E+00	9.48726599151E-05	-6.13457589687E+01	1.23008847522E-04	-4.75501730660E-01	4.20670021144E-01	-1.04611417672E+01
7.65390781563E+10	1.71131845487E-01	-6.25326121163E+00	1.21270406811E-04	-2.99624329019E+01	1.17476942045E-04	-2.88818350901E+01	4.17582161379E-01	-1.27254510543E+01
7.65450901804E+10	1.73878951070E-01	-1.00468889584E+01	1.76422034592E-04	-4.36231575518E+01	1.13923085406E-04	-6.48044793522E+01	4.17985721137E-01	-1.46590639188E+01
7.65511022044E+10	1.70439751518E-01	-8.38203694509E+00	1.59717824676E-04	-5.02580790770E+01	1.46609512956E-04	-5.91514869090E+01	4.13265083330E-01	-1.52674991586E+01
7.65571142285E+10	1.70466032148E-01	-1.20212282154E+01	1.67420944755E-04	-6.60900471145E+01	1.29374202484E-04	-6.04811557234E+01	4.21059659438E-01	-1.79991557257E+01
7.65631262525E+10	1.71017693704E-01	-1.33563222315E+01	1.92827771606E-04	-7.79653651093E+01	1.59648345702E-04	-9.04953727715E+01	4.25112210152E-01	-2.04899091559E+01
7.65691382766E+10	1.70799868493E-01	-1.47318219442E+01	2.04673084935E-04	-7.81607445227E+01	9.27743110315E-05	-8.99235959134E+01	4.16106397316E-01	-2.18890432487E+01
7.65751503006E+10	1.71247307268E-01	-1.62730451222E+01	1.06829548393E-04	-8.51048420675E+01	1.40177168971E-04	-1.03177868630E+02	4.19985413239E-01	-2.33317504221E+01
7.65811623246E+10	1.71074271268E-01	-1.76480902375E+01	1.64035655229E-04	-8.44488560465E+01	9.89891637530E-05	-8.77369901134E+01	4.20236476482E-01	-2.48930152448E+01
7.65871743487E+10	1.70582415215E-01	-1.95687100767E+01	1.42415897666E-04	-1.10045448583E+02	1.62387009077E-04	-9.96756621936E+01	4.24629056637E-01	-2.82875466649E+01
7.65931863727E+10	1.70028918956E-01	-1.97424211657E+01	1.87663782991E-04	-1.44109915939E+02	9.42803092055E-05	-1.07015048611E+02	4.25004706572E-01	-3.03542154895E+01
7.65991983968E+10	1.72054571554E-01	-2.22429374704E+01	1.25956245415E-04	-1.16146024166E+02	8.73853221097E-05	-1.02670312597E+02	4.26739921647E-01	-3.20546312751E+01
7.66052104208E+10	1.71162124195E-01	-2.35966211889E+01	9.60822780906E-05	-1.18581775877E+02	1.06901339544E-04	-1.40407183137E+02	4.19336525109E-01	-3.31146062539E+01
7.66112224449E+10	1.69128093200E-01	-2.54780676423E+01	1.40862481403E-04	-1.22823075625E+02	1.03472645684E-04	-1.31069056373E+02	4.26804965009E-01	-3.60686990023E+01
7.66172344689E+10	1.71435472740E-01	-2.75067057740E+01	1.12083951869E-04	-1.31447362998E+02	9.41547897237E-05	-1.17121823591E+02	4.29987893396E-01	-3.85040652805E+01
7.66232464930E+10	1.71028639919E-01	-2.85565702233E+01	1.17664385599E-04	-1.19422897766E+02	1.01515993327E-04	-1.32046222290E+02	4.28689731250E-01	-4.03019069112E+01
7.66292585170E+10	1.71338062146E-01	-2.97870987690E+01	1.42645424571E-04	-1.30176668270E+02	1.24981025328E-04	-1.38812051798E+02	4.23266626127E-01	-4.15816628729E+01
7.66352705411E+10	1.69943331423E-01	-3.10370139462E+01	2.15301526280E-04	-1.79938910218E+02	1.64380903925E-04	-1.56010881907E+02	4.25184501354E-01	-4.39284942689E+01
7.66412825651E+10	1.70413410155E-01	-3.30231401067E+01	1.71983432983E-04	-1.60862873914E+02	1.42440306812E-04	-1.73234075733E+02	4.26402206207E-01	-4.60480925565E+01
7.66472945892E+10	1.69793758427E-01	-3.43797884782E+01	2.10633636893E-04	1.59640534902E+02	6.06142817194E-05	-1.58534690209E+02	4.27994982552E-01	-4.77188355300E+01
7.66533066132E+10	1.69938772242E-01	-3.51933236231E+01	1.74222283437E-04	1.62158838786E+02	1.08595593690E-04	1.57689296748E+02	4.35012667993E-01	-5.06767020914E+01
7.66593186373E+10	1.67590937388E-01	-3.71264896023E+01	9.27459416361E-05	1.62384449650E+02	1.37908108880E-04	1.66465855874E+02	4.34728953287E-01	-5.35095723163E+01
7.66653306613E+10	1.70698475832E-01	-3.98916369057E+01	1.36696256608E-04	1.37423091668E+02	1.15989033497E-04	1.73524368041E+02	4.38811831526E-01	-5.57219513877E+01
7.66713426854E+10	1.72161200341E-01	-4.17952255318E+01	1.46869295890E-04	1.52166995405E+02	1.15789356238E-04	-1.68679974303E+02	4.34829984971E-01	-5.67284871558E+01
7.66773547094E+10	1.71801374859E-01	-4.25714307501E+01	1.88816710832E-04	1.43723023687E+02	1.67698566916E-04	1.56268521823E+02	4.29260955244E-01	-5.83854342365E+01
7.66833667335E+10	1.69870499344E-01	-4.31579441357E+01	2.11452834786E-04	1.49820904291E+02	1.74597980323E-04	1.61396521496E+02	4.44857464906E-01	-6.14375781611E+01
7.66893787575E+10	1.69426293624E-01	-4.59376755848E+01	1.71546461063E-04	1.28844611461E+02	1.36778725550E-04	1.42090851076E+02	4.42097574326E-01	-6.32800780379E+01
7.66953907816E+10	1.69627563101E-01	-4.57228970243E+01	1.40123854186E-04	1.28445808879E+02	1.50785635879E-04	1.32550886778E+02	4.42654089796E-01	-6.49324487373E+01
7.67014028056E+10	1.70789620517E-01	-4.70484123528E+01	1.42475305687E-04	1.05273617980E+02	1.52093995667E-04	1.17089308255E+02	4.44355776753E-01	-6.70659401768E+01
7.67074148297E+10	1.69685593098E-01	-4.85215651586E+01	9.80942991026E-05	1.04936752576E+02	1.52528798928E-04	1.20861609691E+02	4.51260673084E-01	-6.97230744308E+01
7.67134268537E+10	1.69128849698E-01	-5.11974314057E+01	1.92465264513E-04	7.71819189410E+01	1.55527111023E-04	8.11563842827E+01	4.54469438022E-01	-7.19760346014E+01
7.67194388778E+10	1.72193968912E-01	-5.39886252501E+01	1.87569197352E-04	7.02962193448E+01	1.62718180589E-04	5.86189775348E+01	4.56453624219E-01	-7.36284376258E+01
7.67254509018E+10	1.73001563704E-01	-5.63088397128E+01	7.71122873030E-05	5.85918855772E+01	1.15666545229E-04	5.26734415400E+01	4.68013562914E-01	-7.62441450530E+01
7.67314629259E+10	1.70270698138E-01	-5.68469685625E+01	1.27388178547E-04	4.47501821342E+01	1.77102168491E-04	6.12622893593E+01	4.72364728534E-01	-7.82876719176E+01
7.67374749499E+10	1.69806448387E-01	-5.63529538814E+01	1.09577948381E-04	6.86709057407E+01	6.07447489832E-05	6.06372749742E+01	4.67964015627E-01	-7.97986954137E+01
7.67434869739E+10	1.70700608178E-01	-5.81593917103E+01	7.89932849574E-05	3.65032218910E+01	1.02246867419E-04	2.17721703025E+01	4.79773944251E-01	-8.32117198534E+01
7.67494989980E+10	1.68416625660E-01	-5.92516446995E+01	1.02577220379E-04	3.25822225761E+01	1.62585564050E-04	5.53772126837E+01	4.81447511069E-01	-8.50669237531E+01
7.67555110220E+10	1.66490870069E-01	-6.17153229176E+01	1.33385773054E-04	3.50439202849E+01	7.25153515766E-05	1.25152657850E+01	4.98094585543E-01	-8.90412969032E+01
7.67615230461E+10	1.68848520735E-01	-6.38079870358E+01	7.74066530730E-05	2.89950218706E+01	5.80051695626E-05	2.36316377583E+01	5.03235266842E-01	-9.17259353137E+01
7.67675350701E+10	1.69555721240E-01	-6.60252849813E+01	9.75915581136E-05	-3.56092157601E+01	1.69989867289E-04	4.86720593845E+00	5.02173435107E-01	-9.35871652097E+01
7.67735470942E+10	1.69769399310E-01	-6.71394825445E+01	9.25835607569E-05	-6.25532478315E+01	1.56437399685E-04	-2.45865827293E+01	5.11456324838E-01	-9.67609939534E+01
7.67795591182E+10	1.68106403620E-01	-6.68214524629E+01	8.24850017257E-05	-4.49689765192E+01	1.11195504484E-04	-4.83931914761E+01	5.16471477658E-01	-9.96161075546E+01
7.67855711423E+10	1.70819927816E-01	-7.02435614379E+01	4.93308152484E-05	-1.54463011154E+01	3.15705585170E-05	-1.16689399362E+02	5.19889735947E-01	-1.02590619458E+02
7.67915831663E+10	1.68581280542E-01	-7.31456220832E+01	2.97159464265E-05	6.95529437626E+01	3.56674707140E-05	-7.55021065963E+01	5.37188326926E-01	-1.07487345699E+02
7.67975951904E+10	1.69303193546E-01	-7.35400160060E+01	5.03889133455E-05	-7.20649505072E+00	7.43950446510E-05	-1.19070630450E+02	5.45051322750E-01	-1.11445535414E+02
7.68036072144E+10	1.65813427840E-01	-7.51493604060E+01	3.93131681045E-05	-1.57496548423E+02	6.24405809444E-05	-1.06980532844E+02	5.53395980581E-01	-1.15437770549E+02
7.68096192385E+10	1.68763359953E-01	-7.69996439165E+01	8.34728475207E-05	-4.73966021634E+01	1.07260893105E-04	-2.55285249878E+01	5.44485580347E-01	-1.17040614624E+02
7.68156312625E+10	1.65838724333E-01	-7.66116500263E+01	1.14924255137E-04	-9.07974462299E+01	1.04156249706E-04	-1.17948814402E+02	5.48426587821E-01	-1.21062677575E+02
7.68216432866E+10	1.65393661839E-01	-7.83267317522E+01	1.42900310643E-04	-1.31503788296E+02	8.07729067844E-05	-1.18676864591E+02	5.52045138067E-01	-1.25316719693E+02
7.68276553106E+10	1.64603334925E-01	-8.01913328640E+01	3.72353658079E-05	-8.98395465412E+01	7.39357634990E-05	-1.43343849171E+02	5.55314946586E-01	-1.29362832018E+02
7.68336673347E+10	1.66316379443E-01	-8.26095062650E+01	6.84336193349E-05	-1.57045246636E+02	1.25883514711E-04	1.78440463813E+02	5.55476488994E-01	-1.33129771057E+02
7.68396793587E+10	1.67675890721E-01	-8.39999060028E+01	6.71530979848E-05	1.14122357050E+02	1.27579502778E-04	1.73111059013E+02	5.59106223626E-01	-1.38171958745E+02
7.68456913828E+10	1.67845664107E-01	-8.63602399979E+01	1.23173563859E-04	-1.72914426625E+02	9.90613063577E-05	1.21007848818E+02	5.50275949501E-01	-1.40670859897E+02
7.68517034068E+10	1.65910667057E-01	-8.71652841760E+01	6.61407137149E-05	1.24072052008E+02	1.03088937659E-04	1.19037699335E+02	5.50931521099E-01	-1.45387104307E+02
7.68577154309E+10	1.63092868144E-01	-8.91885494439E+01	8.48668485835E-05	1.29222912659E+02	1.52189034163E-04	1.44287430231E+02	5.39938786326E-01	-1.47241836189E+02
7.68637274549E+10	1.65348472819E-01	-9.02765090634E+01	6.01298560199E-05	1.06790317014E+02	1.44888310374E-04	7.38984197791E+01	5.47185797161E-01	-1.53973115970E+02
7.68697394790E+10	1.63659030936E-01	-9.13169272407E+01	4.27205568495E-05	1.73005673702E+00	1.63121431865E-04	9.80432427700E+01	5.43299937244E-01	-1.58227490161E+02
7.68757515030E+10	1.64444635830E-01	-9.29606490253E+01	9.02673221781E-05	1.24509604536E+02	1.65412405937E-04	8.59615441047E+01	5.28083753578E-01	-1.60066386233E+02
7.68817635271E+10	1.65880072532E-01	-9.52847620322E+01	6.55068528249E-05	1.17697134929E+02	1.12411252732E-04	1.02788301680E+02	5.23826548587E-01	-1.64863135102E+02
7.68877755511E+10	1.61802733384E-01	-9.51814982595E+01	1.56341333003E-04	8.45673857992E+01	1.83675722065E-04	9.06731137849E+01	5.17724348863E-01	-1.68489884281E+02
7.68937875752E+10	1.66720726554E-01	-9.97763437171E+01	1.45416196945E-04	4.80406506886E+01	1.85303678109E-04	6.53195509124E+01	5.11638991303E-01	-1.73097434206E+02
7.68997995992E+10	1.61993087995E-01	-9.99743932513E+01	1.38165182187E-04	2.26454554665E+01	1.41621503586E-04	2.94085739574E+01	5.08871766986E-01	-1.79251319412E+02
7.69058116232E+10	1.62660054094E-01	-1.01536714463E+02	1.28528841537E-04	2.19647437153E+01	1.38540522751E-04	-7.07051997719E+00	5.03088682391E-01	1.75850693065E+02
7.69118236473E+10	1.62437434728E-01	-1.04601560758E+02	1.31487909387E-04	5.58762905529E+00	2.11353873446E-04	2.55060439293E+01	4.84461742167E-01	1.74666166720E+02
7.69178356713E+10	1.63990568325E-01	-1.06521291221E+02	1.11912805770E-04	2.12857086000E+01	1.11038190919E-04	2.22081782505E+00	4.77779623536E-01	1.68402967354E+02
7.69238476954E+10	1.60161401734E-01	-1.05865207067E+02	7.71256443946E-05	-1.89422271639E+01	1.71886744415E-04	5.07892941751E-01	4.69405177324E-01	1.62858240066E+02
7.69298597194E+10	1.63673763614E-01	-1.09140820618E+02	1.12656057921E-04	2.03694693435E+01	1.24638698600E-04	2.21461380632E+01	4.54661385181E-01	1.59836273158E+02
7.69358717435E+10	1.59561269316E-01	-1.09944505542E+02	2.07221568408E-04	9.39521182842E+00	1.85394382112E-04	-2.26254480769E+01	4.46422294634E-01	1.53705681139E+02
7.69418837675E+10	1.57628340484E-01	-1.10099441523E+02	1.03524922122E-04	-1.56988609775E+01	2.32662499613E-04	-5.21536019685E+01	4.32933847782E-01	1.47815697129E+02
7.69478957916E+10	1.59847884772E-01	-1.12106869783E+02	1.63621971135E-04	-6.51660107122E+01	1.65081239508E-04	-6.89555051184E+01	4.18014768900E-01	1.44285605244E+02
7.69539078156E+10	1.58869923808E-01	-1.13938945012E+02	1.01551665303E-04	-2.83488135627E+01	1.14352646034E-04	-7.74068837404E+01	4.04300630864E-01	1.40489947722E+02
7.69599198397E+10	1.57601985993E-01	-1.15901354495E+02	6.53080177804E-05	-1.11478613256E+02	9.15605599587E-05	-1.06856750799E+02	3.88096863807E-01	1.36790729818E+02
7.69659318637E+10	1.59708571959E-01	-1.18803775492E+02	9.50904551148E-05	-7.05870608810E+01	1.57208613123E-04	-4.01894859945E+01	3.73074691599E-01	1.31465058437E+02
7.69719438878E+10	1.56801666532E-01	-1.18962066096E+02	1.53280085404E-04	-9.39213514839E+01	1.94272555276E-04	-7.70726063608E+01	3.59433560706E-01	1.26322053832E+02
7.69779559118E+10	1.56642092781E-01	-1.20254226059E+02	1.88128886780E-04	-7.73816355553E+01	1.81392667182E-04	-1.07561186046E+02	3.41326262238E-01	1.22256335193E+02
7.69839679359E+10	1.55817381686E-01	-1.21552257296E+02	1.88204396919E-04	-1.19811144939E+02	1.46818665429E-04	-1.21113278812E+02	3.26843294601E-01	1.18138054849E+02
7.69899799599E+10	1.53374586576E-01	-1.20537572248E+02	1.25079330898E-04	-1.36881328041E+02	1.58116128290E-04	-1.51052690893E+02	3.11542308657E-01	1.13076872900E+02
7.69959919840E+10	1.54686085311E-01	-1.25267319751E+02	8.80807176908E-06	1.42307731764E+02	7.13500236885E-05	-1.74204753566E+02	2.98203631407E-01	1.08192894800E+02
7.70020040080E+10	1.55674542925E-01	-1.28078450177E+02	4.57398029538E-05	1.16755410426E+02	4.63543473390E-05	1.08166084463E+02	2.84805594672E-01	1.01953603925E+02
7.70080160321E+10	1.57173395366E-01	-1.30861029190E+02	9.61968273475E-05	-3.88077761438E+01	9.15880892176E-05	-9.86068424743E+01	2.69945015111E-01	9.79583828504E+01
7.70140280561E+10	1.55266201060E-01	-1.29264429936E+02	1.30927362148E-04	-1.12380639289E+02	1.30478836524E-04	-1.52361217598E+02	2.54583238201E-01	9.48182955057E+01
7.70200400802E+10	1.54771392567E-01	-1.31409310830E+02	1.92575073020E-04	-1.37780267407E+02	1.48309926988E-04	-1.69606683718E+02	2.39416603959E-01	9.01665343573E+01
7.70260521042E+10	1.53724767464E-01	-1.33963981273E+02	1.06784399015E-04	-1.71760115536E+02	1.51982613180E-04	1.56261479001E+02	2.25557477376E-01	8.27974587583E+01
7.70320641283E+10	1.53863115011E-01	-1.35656691601E+02	1.19610100004E-04	1.28211367134E+02	1.80794422164E-04	1.04122181520E+02	2.13871723323E-01	7.82068119262E+01
7.70380761523E+10	1.55447880984E-01	-1.38536802028E+02	1.28247263908E-04	5.41703333247E+01	9.94115683704E-05	6.77558761408E+01	2.01928014107E-01	7.34881582247E+01
7.70440881764E+10	1.52359853207E-01	-1.39715092535E+02	7.20004812151E-05	5.17330010898E+01	1.22569891429E-04	9.37643888804E+00	1.89924428635E-01	6.65952913569E+01
7.70501002004E+10	1.52005605589E-01	-1.39147897152E+02	3.46043665318E-05	2.89692363485E+01	8.36589162839E-05	-6.16505074762E+01	1.78057936975E-01	6.09689527864E+01
7.70561122244E+10	1.52507356490E-01	-1.41264349748E+02	2.35466406962E-05	-8.99823969496E+01	7.39557984379E-05	-1.08806078410E+02	1.66688812499E-01	5.82351464315E+01
7.70621242485E+10	1.52050182491E-01	-1.42622924234E+02	2.70259375870E-05	4.39523958137E+01	8.35227481219E-05	-1.79637041682E+02	1.56080672612E-01	5.00029504467E+01
7.70681362725E+10	1.51014981266E-01	-1.45044379656E+02	1.00839280426E-04	1.17792866045E+02	2.62887576621E-05	-5.99240062516E+01	1.48276304451E-01	4.36949649118E+01
7.70741482966E+10	1.50789586720E-01	-1.46132826473E+02	1.23649009294E-04	8.92530340126E+01	5.66771879002E-05	2.19062007597E+01	1.38853448642E-01	3.76758951961E+01
7.70801603206E+10	1.49160961512E-01	-1.46364673545E+02	1.13522879815E-04	4.54302509213E+00	6.13713477157E-05	3.19857739030E+01	1.29388321879E-01	3.26868412971E+01
7.70861723447E+10	1.48205709483E-01	-1.47598521368E+02	8.39656296677E-05	3.54791468965E+01	7.28857472623E-05	-3.30088491858E+01	1.21876783826E-01	2.58934651995E+01
7.70921843687E+10	1.48321624968E-01	-1.51996723707E+02	2.19264250372E-04	-3.95509645517E+01	1.49748353063E-04	-4.59078732335E+01	1.15226487310E-01	2.19480957144E+01
7.70981963928E+10	1.50026749351E-01	-1.52514016308E+02	1.33010930803E-04	-5.54698992882E+01	1.20003883878E-04	-8.45982269362E+01	1.12491393937E-01	1.65949533374E+01
7.71042084168E+10	1.49834667398E-01	-1.53926141252E+02	1.53787311526E-04	-6.35816496478E+01	1.08378132402E-04	-9.09551581126E+01	1.12452185702E-01	1.21505609106E+01
7.71102204409E+10	1.49174803219E-01	-1.53137570052E+02	1.61544794899E-04	-1.08812740699E+02	8.67874699632E-05	-9.70835131063E+01	1.16140089275E-01	7.69860708914E+00
7.71162324649E+10	1.46897739578E-01	-1.56062105688E+02	2.20453795872E-04	-1.24697761389E+02	1.03412669151E-04	-1.38127452332E+02	1.22707580954E-01	1.57108479250E+00
7.71222444890E+10	1.45877137643E-01	-1.59391024479E+02	9.86282885057E-05	-1.48280558003E+02	5.77531898087E-05	1.21917020723E+02	1.32691778965E-01	-6.15814293413E+00
7.71282565130E+10	1.46408370534E-01	-1.59883706568E+02	7.92445761239E-05	1.75449679913E+02	1.39973628959E-05	-3.66611342731E+01	1.39862331768E-01	-1.28204058068E+01
7.71342685371E+10	1.46080590957E-01	-1.61039172531E+02	4.67477918990E-05	-1.26146182043E+01	3.99953740229E-05	-5.21361384913E+01	1.49458332628E-01	-2.27954862167E+01
7.71402805611E+10	1.47876641576E-01	-1.63807736635E+02	7.17207801529E-05	-1.22827916967E+02	1.42178783437E-04	-7.53064931996E+01	1.60570015887E-01	-3.00835399789E+01
7.71462925852E+10	1.43917113128E-01	-1.64276071490E+02	1.65745992178E-04	-1.08533061296E+02	1.23523824527E-04	-1.18076436025E+02	1.71450805492E-01	-3.97291580269E+01
7.71523046092E+10	1.43773033369E-01	-1.63788089681E+02	2.12261405278E-04	-9.53015796682E+01	1.40780687368E-04	-1.29337373510E+02	1.79041321921E-01	-4.57586589397E+01
7.71583166333E+10	1.46160348635E-01	-1.67688611753E+02	1.61685851849E-04	-1.39389072315E+02	8.96862639884E-05	-1.32734522082E+02	1.91761274580E-01	-5.31676371445E+01
7.71643286573E+10	1.45133405627E-01	-1.69541739608E+02	9.21128459491E-05	-1.39613607183E+02	8.58990152765E-05	-1.66784763995E+02	2.04675933476E-01	-6.11082382833E+01
7.71703406814E+10	1.43226762842E-01	-1.68755794818E+02	1.40524336833E-04	-1.59183869047E+02	8.19162424463E-05	-1.31107786837E+02	2.13779179562E-01	-6.83384397951E+01
7.71763527054E+10	1.43381733717E-01	-1.71052017854E+02	1.36109790191E-04	-1.28239913797E+02	7.17428913727E-05	-1.35004372113E+02	2.30293971788E-01	-7.45234762057E+01
7.71823647295E+10	1.43563235128E-01	-1.73048578517E+02	1.64802969426E-04	-1.41134162606E+02	1.01443253468E-04	-1.33880722341E+02	2.38124920112E-01	-8.01504794498E+01
7.71883767535E+10	1.43588941461E-01	-1.74717299640E+02	1.57114638735E-04	-1.39492290421E+02	1.32493702068E-04	-1.46101522978E+02	2.49690440304E-01	-8.59921269317E+01
7.71943887776E+10	1.43131048353E-01	-1.76767747215E+02	2.06735754992E-04	-1.57667261411E+02	1.50679339869E-04	-1.76417676407E+02	2.66551007064E-01	-9.33129371601E+01
7.72004008016E+10	1.42810296810E-01	-1.78725933906E+02	2.11259033768E-04	-1.61682412275E+02	1.54636971889E-04	1.74827357943E+02	2.82649072573E-01	-9.98684283024E+01
7.72064128257E+10	1.42806700836E-01	-1.77489269770E+02	1.78829019203E-04	-1.64039440241E+02	2.21464458199E-04	1.71840558346E+02	2.88943374369E-01	-1.02777477095E+02
7.72124248497E+10	1.42620554460E-01	-1.79310004257E+02	1.61651219626E-04	1.45850816179E+02	1.93614544594E-04	1.69256439476E+02	3.04147259976E-01	-1.09766558695E+02
7.72184368737E+10	1.44610164857E-01	1.75972206216E+02	2.25884654447E-04	1.60995818909E+02	1.49899944967E-04	1.67769979850E+02	3.18322317650E-01	-1.15655510909E+02
7.72244488978E+10	1.43303825987E-01	1.76281992567E+02	2.32536103768E-04	1.32368194206E+02	2.43813110871E-04	1.36399204958E+02	3.36767063548E-01	-1.21464246876E+02
7.72304609218E+10	1.42449487510E-01	1.77174355161E+02	2.62192965280E-04	1.14985049599E+02	2.33029978869E-04	1.33341309568E+02	3.42537692745E-01	-1.24474170918E+02
7.72364729459E+10	1.43116152784E-01	1.74562209077E+02	2.66693253654E-04	1.09021651634E+02	2.29661066824E-04	1.33676778901E+02	3.51462300404E-01	-1.28729158530E+02
7.72424849699E+10	1.43191785030E-01	1.72988280550E+02	1.78906034909E-04	1.06267867372E+02	2.12059416222E-04	1.18253080582E+02	3.66326641245E-01	-1.33735434052E+02
7.72484969940E+10	1.42651373699E-01	1.70684240059E+02	1.59652088337E-04	1.17761225068E+02	1.38792308802E-04	1.23621065574E+02	3.80868221160E-01	-1.39211518513E+02
7.72545090180E+10	1.42622953294E-01	1.68630641550E+02	2.19575468432E-04	1.00760895180E+02	1.70981662155E-04	1.29052089750E+02	3.97878720364E-01	-1.44121057878E+02
7.72605210421E+10	1.41436688063E-01	1.66798183810E+02	2.45952533076E-04	1.08313249813E+02	2.06402895760E-04	9.66863131592E+01	4.01153570791E-01	-1.45657498991E+02
7.72665330661E+10	1.43340951133E-01	1.64416544050E+02	1.48484990673E-04	8.89057177179E+01	1.94523236173E-04	1.06279582955E+02	4.25741080274E-01	-1.51213158458E+02
7.72725450902E+10	1.42849690981E-01	1.64151187283E+02	1.02540250791E-04	1.40872739360E+02	1.77575857436E-04	9.32468293982E+01	4.38504803984E-01	-1.53907889067E+02
7.72785571142E+10	1.42933260178E-01	1.65650745097E+02	6.86276515097E-05	5.85470929772E+01	1.99262056348E-04	1.13318307055E+02	4.59177798840E-01	-1.58211922094E+02
7.72845691383E+10	1.42100307794E-01	1.62999441131E+02	2.12536835132E-04	9.77828968543E+01	2.07914221559E-04	1.11026625018E+02	4.76903604581E-01	-1.62017721405E+02
7.72905811623E+10	1.42272627793E-01	1.61014668658E+02	1.95888911208E-04	8.73760059022E+01	2.80802861147E-04	7.52256240982E+01	5.09750857754E-01	-1.68847778586E+02
7.72965931864E+10	1.42421644685E-01	1.58584606973E+02	1.65789840127E-04	6.17353369390E+01	2.60700680004E-04	5.09696957008E+01	5.25407076933E-01	-1.72684634505E+02
7.73026052104E+10	1.42362284954E-01	1.57407056985E+02	2.85575632392E-04	7.09016922877E+01	2.13998157463E-04	6.00569889280E+01	5.42198596773E-01	-1.76380971646E+02
7.73086172345E+10	1.40922265689E-01	1.58262035903E+02	2.41356928709E-04	5.69535139496E+01	2.25823920246E-04	5.23732485504E+01	5.68541423948E-01	1.76870851343E+02
7.73146292585E+10	1.40391095075E-01	1.59578951395E+02	2.07664457051E-04	4.83532848546E+01	2.44428728241E-04	4.44262434863E+01	5.81138742515E-01	1.72968154907E+02
7.73206412826E+10	1.42433558888E-01	1.55499914107E+02	1.32541607138E-04	4.55233798920E+01	2.14154902346E-04	3.97445443520E+01	6.09368273557E-01	1.64514686815E+02
7.73266533066E+10	1.42491221787E-01	1.50928447781E+02	1.71703633717E-04	6.78127303934E+01	2.05357616779E-04	5.94030750607E+01	6.11817091608E-01	1.61867774241E+02
7.73326653307E+10	1.43923020287E-01	1.48405944917E+02	1.95951166513E-04	3.44022024418E+01	3.51679485091E-04	3.40687782993E+01	6.24247646987E-01	1.55733313363E+02
7.73386773547E+10	1.43953824596E-01	1.46872941134E+02	2.55859735694E-04	1.95747286179E+01	4.60600367988E-04	3.59669602138E+01	6.35417845965E-01	1.48644626080E+02
7.73446893788E+10	1.43779257527E-01	1.44874812682E+02	3.33962281445E-04	1.03684234747E+01	4.97652561531E-04	-7.13635822126E+00	6.44256681600E-01	1.41942874982E+02
7.73507014028E+10	1.43172105366E-01	1.45298336065E+02	2.67975101393E-04	-1.88633416640E+01	4.37684359077E-04	-1.48584560593E+01	6.45693928424E-01	1.35279128679E+02
7.73567134269E+10	1.41644299463E-01	1.45598119370E+02	2.01981395828E-04	-4.10581231576E+01	3.04545267575E-04	-4.54888132431E+01	6.36226176186E-01	1.32605387120E+02
7.73627254509E+10	1.42446375858E-01	1.42204258209E+02	1.38314292412E-04	-3.06692777387E+01	1.94153808240E-04	-2.44136867117E+01	6.31046422193E-01	1.26903992333E+02
7.73687374749E+10	1.44710466428E-01	1.40604827136E+02	9.68462726253E-05	6.22258618064E+00	1.73092090627E-04	-1.07408423828E+01	6.26179277081E-01	1.19346667700E+02
7.73747494990E+10	1.43445148937E-01	1.40607433657E+02	1.71296390990E-04	3.51029589587E+01	1.79892851771E-04	-9.84821857387E+00	6.17763793391E-01	1.13966247121E+02
7.73807615230E+10	1.42366822683E-01	1.38405041072E+02	1.97693748021E-04	-2.21811606032E+01	1.92066086976E-04	-2.83494193968E+01	6.06352611872E-01	1.10023175590E+02
7.73867735471E+10	1.43524633883E-01	1.37567840430E+02	2.68754243208E-04	-1.88511360380E+01	2.68798127610E-04	-5.06486431218E+01	5.92653533583E-01	1.04767664851E+02
7.73927855711E+10	1.43515968324E-01	1.36995124309E+02	2.11582080840E-04	-1.64612859279E+01	1.50300265025E-04	-4.88035660481E+01	5.78219139820E-01	1.01196653933E+02
7.73987975952E+10	1.42579453715E-01	1.34638679220E+02	2.27214304248E-04	-2.95384137639E+01	2.37461937136E-04	-3.73284558592E+01	5.64000953529E-01	9.61538967382E+01
7.74048096192E+10	1.42313414648E-01	1.34709264265E+02	1.91161791138E-04	-2.06124075480E+01	2.28317994743E-04	-5.04055421575E+01	5.52421081201E-01	9.30204796279E+01
7.74108216433E+10	1.42375953815E-01	1.32651990576E+02	2.64550336075E-04	-4.24221023162E+01	1.88895761877E-04	-5.67131650572E+01	5.38273542208E-01	8.75318858495E+01
7.74168336673E+10	1.42892543468E-01	1.31357325303E+02	1.94671899223E-04	-4.77993481187E+01	2.69907138121E-04	-5.23844661071E+01	5.23228371085E-01	8.22824021289E+01
7.74228456914E+10	1.45251949765E-01	1.29018978728E+02	2.55982013262E-04	-3.96200327887E+01	2.96255714948E-04	-6.14029993313E+01	5.09870199193E-01	8.03091585426E+01
7.74288577154E+10	1.44807104711E-01	1.26922469530E+02	3.41010378133E-04	-5.48169368616E+01	3.19580402876E-04	-8.12294904990E+01	4.95178760381E-01	7.70171335773E+01
7.74348697395E+10	1.45366243294E-01	1.25762688725E+02	2.95922597775E-04	-6.28525892359E+01	2.71495493392E-04	-8.42487535023E+01	4.82099548948E-01	7.23999798259E+01
7.74408817635E+10	1.45255819990E-01	1.24325614916E+02	2.85692764499E-04	-6.15849891790E+01	2.92840169613E-04	-9.26103700488E+01	4.68316888228E-01	6.89512590659E+01
7.74468937876E+10	1.42834061156E-01	1.25299808724E+02	3.92825299876E-04	-7.42245979445E+01	3.42419313249E-04	-9.32578297378E+01	4.53687085972E-01	6.61364309156E+01
7.74529058116E+10	1.44544854208E-01	1.22867725133E+02	3.88110746727E-04	-9.51561357037E+01	3.63123293544E-04	-1.03683646820E+02	4.43371222896E-01	6.44923893490E+01
7.74589178357E+10	1.45137023408E-01	1.20664814333E+02	3.93564205242E-04	-1.10332448614E+02	2.97258034293E-04	-1.18736237713E+02	4.28542725452E-01	5.90625269657E+01
7.74649298597E+10	1.45910379185E-01	1.19517246397E+02	3.55334391384E-04	-1.26886701559E+02	2.68771872934E-04	-1.27125571810E+02	4.15433386995E-01	5.45167965045E+01
7.74709418838E+10	1.46500073098E-01	1.18183441875E+02	2.51114329040E-04	-1.10613470749E+02	2.31875610221E-04	-1.39094806722E+02	4.00675541541E-01	5.25471511858E+01
7.74769539078E+10	1.48201852854E-01	1.16484800407E+02	1.92883425019E-04	-1.02225793023E+02	2.70027210635E-04	-1.45502083702E+02	3.89885575267E-01	5.05548405950E+01
7.74829659319E+10	1.47245383895E-01	1.16847056304E+02	2.53239163570E-04	-1.03582482951E+02	2.63306281811E-04	-1.14854631909E+02	3.80691174144E-01	4.63508383218E+01
7.74889779559E+10	1.48008614681E-01	1.15000478931E+02	3.80311988225E-04	-1.24116395138E+02	3.85339889078E-04	-1.46416619863E+02	3.68654978057E-01	4.53329800412E+01
7.74949899800E+10	1.46402988185E-01	1.13450413795E+02	3.81338174332E-04	-1.44261170993E+02	3.73339288143E-04	-1.66489566500E+02	3.52229666481E-01	4.09008370408E+01
7.75010020040E+10	1.48329953578E-01	1.11214373538E+02	4.42077774059E-04	-1.57430900523E+02	3.87584885021E-04	1.79864090095E+02	3.42498013509E-01	3.89732854614E+01
7.75070140281E+10	1.51325734413E-01	1.08595924779E+02	4.57999987403E-04	1.75282336826E+02	3.61184527413E-04	1.68047452954E+02	3.31261991386E-01	3.49418552275E+01
7.75130260521E+10	1.47918802996E-01	1.09924555881E+02	3.68403957412E-04	1.73841583670E+02	3.22379636366E-04	1.59397335250E+02	3.20600703530E-01	3.19348003830E+01
7.75190380762E+10	1.48122886032E-01	1.06472336047E+02	3.81487578073E-04	1.54506332377E+02	2.47766423539E-04	1.33715989042E+02	3.11182998074E-01	2.98447839026E+01
7.75250501002E+10	1.51723091737E-01	1.05278361326E+02	2.82773245938E-04	1.46372146174E+02	1.82559845500E-04	1.26738080653E+02	2.99419024202E-01	2.92291461972E+01
7.75310621242E+10	1.50130804009E-01	1.05554797153E+02	2.17069154584E-04	1.22183775907E+02	2.04465845453E-04	1.08087234747E+02	2.92136913091E-01	2.64323345912E+01
7.75370741483E+10	1.50543521900E-01	1.03684108272E+02	2.06457695578E-04	1.43932640932E+02	1.30478297050E-04	1.27540744065E+02	2.84054494449E-01	2.51046154305E+01
7.75430861723E+10	1.53061120989E-01	1.01408330950E+02	1.42303399652E-04	1.16475369371E+02	1.06205998074E-04	1.52976960414E+02	2.72611818195E-01	2.27911359757E+01
7.75490981964E+10	1.52456878904E-01	1.02074318016E+02	1.55571484856E-04	1.42528801734E+02	1.09898611377E-04	1.25658528245E+02	2.64969510333E-01	1.94221517343E+01
7.75551102204E+10	1.54001637492E-01	1.00158539052E+02	1.11818751459E-04	1.70795277844E+02	9.75782209772E-05	1.44408100673E+02	2.56046810177E-01	1.68448989005E+01
7.75611222445E+10	1.54591434499E-01	9.91739178825E+01	1.73553158769E-04	1.28523859317E+02	2.23321828274E-04	1.45373037236E+02	2.48110458144E-01	1.69808050380E+01
7.75671342685E+10	1.57548559644E-01	9.61541503892E+01	2.24918765443E-04	1.31615732329E+02	1.67117121232E-04	1.34176596587E+02	2.41172846770E-01	1.50210449826E+01
7.75731462926E+10	1.55445015710E-01	9.36277466200E+01	1.75251270752E-04	1.23084647646E+02	1.38853062689E-04	9.30210527622E+01	2.34719599917E-01	1.42236755088E+01
7.75791583166E+10	1.57347042346E-01	9.25250640890E+01	6.85826173046E-05	5.42870594318E+01	6.24600846140E-05	1.04843328299E+02	2.28749624369E-01	1.18641241010E+01
7.75851703407E+10	1.57155008111E-01	9.27425880832E+01	7.08116570647E-05	8.41049939702E+01	4.22887875881E-05	-4.12039214458E+01	2.22526345680E-01	1.05423292177E+01
7.75911823647E+10	1.59625117359E-01	8.99863597237E+01	9.52383985928E-06	-2.96055687571E+01	3.59226928742E-05	-1.16230795236E+02	2.15470158920E-01	8.62202596321E+00
7.75971943888E+10	1.58911346470E-01	8.89573447116E+01	1.39219368919E-04	-1.64561916221E+02	9.69893381841E-05	-1.66330047772E+02	2.13346226526E-01	7.68905230464E+00
7.76032064128E+10	1.60054602116E-01	8.75236027040E+01	2.56084719370E-04	1.78218284018E+02	1.77998359360E-04	1.79732672430E+02	2.09742788967E-01	6.33734851557E+00
7.76092184369E+10	1.61486701226E-01	8.59737012885E+01	3.06972991382E-04	1.56811652568E+02	2.48073835208E-04	1.52436980271E+02	2.05303533060E-01	5.66716087065E+00
7.76152304609E+10	1.63477842631E-01	8.40814312938E+01	3.84641056869E-04	1.25440402001E+02	2.83286099585E-04	1.27847897513E+02	2.03187700547E-01	4.45228604253E+00
7.76212424850E+10	1.61977578754E-01	8.16761803761E+01	2.42522335964E-04	1.06430212520E+02	2.41684154745E-04	1.03837449143E+02	2.01740464214E-01	3.28814028329E+00
7.76272545090E+10	1.64193469684E-01	8.05709831135E+01	2.61016271835E-04	8.43990446255E+01	1.90343620703E-04	9.52076738102E+01	2.00538471176E-01	1.72693895904E+00
7.76332665331E+10	1.64945702845E-01	7.97546975336E+01	2.25019799519E-04	9.04363462684E+01	1.65990499365E-04	7.45512207209E+01	1.99026655417E-01	6.36608653888E-01
7.76392785571E+10	1.64650507573E-01	7.93105538646E+01	1.87428537533E-04	1.08586156164E+02	1.49633685292E-04	1.09483530747E+02	1.96769641456E-01	2.65673814476E-01
7.76452905812E+10	1.65431122091E-01	7.76841040614E+01	2.23220555046E-04	8.55142496492E+01	2.32623624573E-04	9.18219444562E+01	1.98447131062E-01	-2.10474942523E+00
7.76513026052E+10	1.65528356155E-01	7.42728089693E+01	3.80041224912E-04	9.47273823136E+01	2.51724911926E-04	8.41963277475E+01	1.99130343943E-01	-2.53917453105E+00
7.76573146293E+10	1.67814551238E-01	7.46808787249E+01	4.87503071146E-04	6.90140659056E+01	3.17287910272E-04	6.83577458693E+01	1.99488243697E-01	-4.38885461977E+00
7.76633266533E+10	1.68343956211E-01	7.28365153763E+01	3.46256681912E-04	3.81630267512E+01	2.99358019460E-04	4.66588139634E+01	2.01737930719E-01	-7.18486604413E+00
7.76693386774E+10	1.68835830073E-01	7.05378971382E+01	3.38031675157E-04	1.84185425826E+01	2.54232635481E-04	2.24167276178E+01	2.04103489271E-01	-9.11047397642E+00
7.76753507014E+10	1.69098090780E-01	6.73167122634E+01	2.82340559418E-04	-1.07602330374E+01	1.68900165635E-04	1.00705219718E+01	2.03436108251E-01	-1.08780974953E+01
7.76813627255E+10	1.68802925267E-01	6.78213811251E+01	9.77581067458E-05	3.30712954637E+01	1.00699203096E-04	5.57117188737E+00	2.04917753322E-01	-1.20112232893E+01
7.76873747495E+10	1.71721222968E-01	6.64885107835E+01	7.35673516921E-05	3.73122862331E+01	1.10798159934E-04	4.15390960495E+01	2.10277898851E-01	-1.43528034284E+01
7.76933867735E+10	1.69640357669E-01	6.37404043674E+01	1.79169233142E-04	4.99614139854E+01	1.48158188300E-04	3.02038338747E+01	2.11902103123E-01	-1.70950839818E+01
7.76993987976E+10	1.72714031478E-01	6.26026577209E+01	1.90770604394E-04	3.45267057763E+01	2.17519164687E-04	1.30430351926E+01	2.13095417452E-01	-1.90426917912E+01
7.77054108216E+10	1.71569649682E-01	6.07445176928E+01	2.37628764409E-04	3.02933702206E+01	1.52522192674E-04	3.28989904610E+01	2.15127299249E-01	-2.12634912243E+01
7.77114228457E+10	1.73166831400E-01	5.84534145223E+01	2.49853634681E-04	1.09694321549E+01	1.96625516912E-04	2.02509659179E+01	2.18435898296E-01	-2.43019033954E+01
7.77174348697E+10	1.70611954728E-01	5.79474863811E+01	2.38542084487E-04	-1.97035595666E+00	1.62009964048E-04	9.79225382498E-01	2.24729276136E-01	-2.74280785643E+01
7.77234468938E+10	1.70505976424E-01	5.78182336236E+01	2.50897688449E-04	-1.09420088801E+01	1.97846651140E-04	-1.08853935644E+00	2.26590014112E-01	-2.96036743864E+01
7.77294589178E+10	1.73819917127E-01	5.45392146868E+01	2.82037476418E-04	-3.23291316691E+01	1.94677149810E-04	-1.70488627589E+01	2.30347023689E-01	-3.34395472197E+01
7.77354709419E+10	1.71897424279E-01	5.20041831128E+01	2.00560184467E-04	-2.94370332456E+01	1.52550719220E-04	-2.99637939441E+01	2.32322616070E-01	-3.69053132193E+01
7.77414829659E+10	1.72566989694E-01	5.16977894463E+01	2.13453774922E-04	-2.31896363135E+01	1.98391611005E-04	-3.60535389854E+01	2.37028824617E-01	-4.02753540321E+01
7.77474949900E+10	1.72900064423E-01	4.95082783227E+01	2.44602937632E-04	-4.81669860381E+01	1.40393679503E-04	-4.11935225601E+01	2.42572831369E-01	-4.30266036007E+01
7.77535070140E+10	1.73144750001E-01	4.77172422126E+01	1.67463742459E-04	-6.44110960826E+01	1.73579285271E-04	-4.39939352400E+01	2.45228541988E-01	-4.60284009775E+01
7.77595190381E+10	1.73368968067E-01	4.77013496647E+01	2.06633752527E-04	-6.57150870313E+01	1.33990888930E-04	-5.99575817129E+01	2.49572588215E-01	-5.02193024598E+01
7.77655310621E+10	1.71922950156E-01	4.52040168927E+01	1.91039119242E-04	-1.11912268877E+02	1.52863516588E-04	-8.35848805835E+01	2.54407986616E-01	-5.38331627485E+01
7.77715430862E+10	1.72622217239E-01	4.64648186873E+01	1.62305921323E-04	-6.54299587729E+01	9.00724018475E-05	-6.01616307679E+01	2.57210827068E-01	-5.68928946096E+01
7.77775551102E+10	1.74209093539E-01	4.25141407413E+01	1.22515015170E-04	-8.58987686166E+01	1.05810051453E-04	-6.83559451200E+01	2.62237206494E-01	-6.01124226981E+01
7.77835671343E+10	1.74194568373E-01	3.91413198415E+01	1.29225175494E-04	-1.10640625036E+02	1.39805997257E-04	-6.63833512652E+01	2.71878253601E-01	-6.41401823072E+01
7.77895791583E+10	1.73171381948E-01	4.00924150638E+01	1.11272776784E-04	-9.78614402113E+01	1.11993405902E-04	-1.14010372365E+02	2.77329119369E-01	-6.75128218585E+01
7.77955911824E+10	1.74037118219E-01	3.72065346689E+01	1.05271738571E-04	-1.02201501751E+02	3.63609301062E-05	-9.92201554555E+01	2.80477239796E-01	-7.17475615921E+01
7.78016032064E+10	1.71629447183E-01	3.75463702010E+01	1.08263848017E-04	-1.53926969807E+02	2.51710873756E-05	-1.21864765685E+02	2.87807990319E-01	-7.54394019735E+01
7.78076152305E+10	1.71346958976E-01	3.54850209755E+01	3.26994014244E-05	1.25444767382E+02	7.19145864159E-05	1.79388755971E+02	2.96803645811E-01	-7.92658426074E+01
7.78136272545E+10	1.73123534533E-01	3.35119637579E+01	2.77978137216E-05	7.51551760919E+01	2.13070685664E-05	1.35805011822E+02	3.08775342412E-01	-8.34406000808E+01
7.78196392786E+10	1.72881779843E-01	3.22248001242E+01	4.16526283715E-05	3.84355287379E+01	2.80975808560E-05	-3.77570735948E+01	3.14270585639E-01	-8.76884264230E+01
7.78256513026E+10	1.73402233114E-01	3.24341287548E+01	1.00183289239E-04	1.48200088376E+01	4.75884047187E-05	-1.65834433554E+01	3.21794892985E-01	-9.18256525575E+01
7.78316633267E+10	1.71620445215E-01	2.85909456738E+01	6.54506522333E-05	3.38034609852E+00	7.24691809675E-05	1.55392736188E+01	3.37988596658E-01	-9.67381164518E+01
7.78376753507E+10	1.72826556557E-01	2.75873234904E+01	4.60751951375E-05	1.73488605413E+01	7.74428425960E-05	-8.53577329975E-01	3.49125542261E-01	-1.00662701229E+02
7.78436873747E+10	1.72469957994E-01	2.70746832663E+01	1.11967019142E-04	-5.40680077341E+01	1.18183183772E-04	-4.57991440497E+01	3.63091316181E-01	-1.05088041461E+02
7.78496993988E+10	1.72983505410E-01	2.54515118021E+01	1.04788646909E-04	-5.87055927053E+01	7.55589756086E-05	-3.85157051620E+01	3.78225026881E-01	-1.09656893857E+02
7.78557114228E+10	1.69575870084E-01	2.31904300230E+01	1.48303549468E-04	-5.58882354931E+01	1.53659301356E-04	-1.34279606150E+01	3.92862677765E-01	-1.14448572934E+02
7.78617234469E+10	1.70728889628E-01	2.25149176551E+01	2.06181417536E-04	-6.50141630114E+01	1.70628703050E-04	-5.32160048089E+01	4.15116724059E-01	-1.19704021699E+02
7.78677354709E+10	1.70353784190E-01	2.27869874280E+01	3.06027825163E-04	-8.36657727109E+01	2.21098553369E-04	-3.80222960427E+01	4.30301959181E-01	-1.24026845019E+02
7.78737474950E+10	1.71170738307E-01	1.99540310860E+01	2.93946119971E-04	-9.73713985227E+01	2.79117749188E-04	-6.93309540087E+01	4.45431105517E-01	-1.28124546802E+02
7.78797595190E+10	1.70339219048E-01	1.84903294550E+01	2.13878651147E-04	-1.13568994696E+02	3.12004518856E-04	-8.20797015663E+01	4.68473819134E-01	-1.33250131764E+02
7.78857715431E+10	1.68250151159E-01	1.56192894381E+01	2.50704431021E-04	-1.23408698356E+02	2.86452249237E-04	-1.04728303508E+02	4.88979184127E-01	-1.37633945543E+02
7.78917835671E+10	1.70045557131E-01	1.56966360938E+01	2.26463322013E-04	-1.48862439783E+02	2.36695999873E-04	-1.26975377576E+02	5.20195511360E-01	-1.43738455395E+02
7.78977955912E+10	1.69403287641E-01	1.44871594402E+01	1.36847843881E-04	-1.47171794748E+02	2.12355838650E-04	-1.41212697876E+02	5.61001470479E-01	-1.50891900037E+02
7.79038076152E+10	1.68701993333E-01	1.49986764302E+01	1.27513455150E-04	-1.53467645574E+02	1.43661659105E-04	-1.17853555754E+02	5.92827069234E-01	-1.57019456149E+02
7.79098196393E+10	1.69296939698E-01	1.43421936561E+01	1.22580227054E-04	-1.12756970650E+02	2.53557135649E-04	-1.01521640596E+02	6.17706603140E-01	-1.62414880739E+02
7.79158316633E+10	1.67861484246E-01	1.31100560140E+01	2.12188729192E-04	-1.21309653609E+02	3.70176876033E-04	-1.16781864050E+02	6.45686017073E-01	-1.68241636694E+02
7.79218436874E+10	1.67517214763E-01	8.05390333149E+00	2.26813451042E-04	-1.40641887990E+02	3.70855930357E-04	-1.44313432370E+02	6.86408822908E-01	-1.76425684771E+02
7.79278557114E+10	1.66699878715E-01	6.63209109791E+00	2.16739023710E-04	-1.74144494253E+02	4.02020569060E-04	-1.51004616257E+02	7.18044035489E-01	1.75860689410E+02
7.79338677355E+10	1.69731873989E-01	5.34265632313E+00	2.07320390828E-04	1.76567552622E+02	4.42203413452E-04	-1.71624193341E+02	7.52888473749E-01	1.67620375775E+02
7.79398797595E+10	1.66440947131E-01	7.79974440181E+00	2.14371381959E-04	1.68190495570E+02	3.52129821645E-04	1.71049598877E+02	7.70619343070E-01	1.60791661221E+02
7.79458917836E+10	1.65535234218E-01	5.70105050747E+00	2.19001238293E-04	1.61481557480E+02	3.25423382455E-04	1.52739687384E+02	7.87022687086E-01	1.52811702615E+02
7.79519038076E+10	1.63362157302E-01	2.94328771701E+00	1.68713124123E-04	1.44212693822E+02	3.30754611626E-04	1.40085122561E+02	8.04485438592E-01	1.43047005520E+02
7.79579158317E+10	1.66186292439E-01	2.34005979373E+00	1.31449096210E-04	1.31435837715E+02	2.15020763529E-04	1.48143477032E+02	8.10684267649E-01	1.32906245379E+02
7.79639278557E+10	1.67127901041E-01	7.33823120007E-01	1.28141048793E-04	1.22264396985E+02	3.32021358676E-04	1.46822052778E+02	8.01651181450E-01	1.25937152436E+02
7.79699398798E+10	1.63632284488E-01	1.28361009072E+00	1.60008940756E-04	1.22791740106E+02	3.62446576579E-04	1.14737533183E+02	7.87011008458E-01	1.19295260462E+02
7.79759519038E+10	1.63390270142E-01	-1.46175096165E-01	9.06372960424E-05	1.00670353689E+02	2.34645715005E-04	9.50321715984E+01	7.67925967990E-01	1.10924645664E+02
7.79819639279E+10	1.65905616892E-01	-2.14530235655E+00	1.01985856565E-04	1.21765329097E+02	1.86431430241E-04	1.25347038843E+02	7.40744530855E-01	1.04334111445E+02
7.79879759519E+10	1.63843670045E-01	-1.82643039678E+00	1.26328020792E-04	8.97255410850E+01	1.86024497432E-04	8.78128862462E+01	7.12803478759E-01	9.56041155936E+01
7.79939879760E+10	1.65646157229E-01	-3.91386592907E+00	1.23022379568E-04	1.33568282005E+02	1.11006258373E-04	1.10400253470E+02	6.83226625565E-01	9.07100179956E+01
7.80000000000E+10	1.64184958118E-01	-5.78716220747E+00	1.63156013467E-04	1.14218306443E+02	2.80741611921E-04	8.47476121008E+01	6.50757187340E-01	8.54233832779E+01
