# Hz S MA R 50
! CMT, C4420, 21421029, 25.1.2/3
! Date: 8/4/2025 4:28:29 PM
! Data: Format (Calibration Info)
! Freq	S33:Mag/Ang(F2)	S43:Mag/Ang(F2)	S34:Mag/Ang(F2)	S44:Mag/Ang(F2)
7.50000000000E+10	4.00682633586E-01	5.55235984240E+01	5.75619282332E-05	4.51164016024E+00	2.82011455835E-05	-1.57602852985E+02	2.59353139656E-01	3.24145703770E+01
7.50060120240E+10	4.01964593655E-01	5.47750495581E+01	7.04989035301E-05	4.77516015662E+01	6.39115022541E-05	3.89509590628E+01	2.57432556544E-01	3.11284131458E+01
7.50120240481E+10	4.06483808775E-01	5.42249130291E+01	4.27165255718E-05	1.31955457572E+02	2.74397706287E-05	1.76553397507E+02	2.58334749196E-01	2.99599441465E+01
7.50180360721E+10	4.01121205497E-01	5.05922088209E+01	1.16326095555E-05	-8.28905655627E+01	2.99638428856E-05	-4.36252245263E+01	2.56346340754E-01	3.04829172153E+01
7.50240480962E+10	4.00505483614E-01	4.88192511318E+01	3.62855138358E-05	4.97182410884E+01	5.07554469551E-05	3.13105474349E+01	2.54407401128E-01	2.93550853288E+01
7.50300601202E+10	4.00892504299E-01	4.82661988462E+01	4.76958616230E-05	-2.31510232978E+01	3.67208846808E-05	-6.99640983750E+01	2.56260294322E-01	2.78946354525E+01
7.50360721443E+10	4.04113189062E-01	4.76692442037E+01	3.54221743100E-05	6.08666034846E+01	3.59316121675E-05	-7.69508715038E-01	2.56609073048E-01	2.75784256123E+01
7.50420841683E+10	4.03455464798E-01	4.70674247222E+01	2.89185948468E-05	5.27739179217E+00	3.01702855350E-05	-2.76531293394E+01	2.55935228867E-01	2.71859599042E+01
7.50480961924E+10	3.97193782585E-01	4.37359660670E+01	2.66909275550E-05	-1.53242898805E+02	5.05552298531E-05	-9.09366371833E+00	2.53577723628E-01	2.56817948600E+01
7.50541082164E+10	3.93950645089E-01	4.27012144850E+01	3.61932939874E-05	2.97709673247E+01	3.92318640359E-05	-9.16782184758E+00	2.57536186598E-01	2.50574023064E+01
7.50601202405E+10	4.02765135904E-01	4.29550033980E+01	3.99601479509E-05	-1.68915540752E+02	2.05683269791E-05	1.31413894710E+02	2.62225554623E-01	2.34424161262E+01
7.50661322645E+10	4.07519237477E-01	4.13128800326E+01	4.11981572455E-05	3.54085035445E+01	3.78644921923E-05	-1.04861761835E+02	2.61948215430E-01	2.12818633626E+01
7.50721442886E+10	4.00345349818E-01	4.02856843783E+01	1.12735700848E-05	1.00692525478E+02	2.90437340678E-05	-7.87755608675E+01	2.62418473507E-01	2.01110629061E+01
7.50781563126E+10	4.00944079685E-01	3.76566038879E+01	1.13435161652E-05	-7.54052750810E+00	6.56134624543E-05	4.22342998818E+01	2.62682741905E-01	2.12134174148E+01
7.50841683367E+10	3.98518214702E-01	3.65821901811E+01	3.02301629353E-05	-3.74744386525E+01	2.56336783829E-05	5.87691357505E+00	2.67422742793E-01	1.96500451922E+01
7.50901803607E+10	4.04115180201E-01	3.49469993049E+01	4.63339290477E-05	-4.52572014269E+01	3.39074681905E-05	-6.51557991072E+01	2.70895163275E-01	1.77673253853E+01
7.50961923848E+10	4.09987869452E-01	3.36725637983E+01	4.37541386665E-05	6.46468359196E+01	3.56589988053E-05	-7.34948794739E+01	2.68833300839E-01	1.53199088801E+01
7.51022044088E+10	4.02548163126E-01	3.31724535954E+01	3.39192859178E-05	-8.97631978472E+01	1.71891056949E-05	9.08734705811E+01	2.69804962292E-01	1.65297256363E+01
7.51082164329E+10	3.98849556268E-01	3.31938075143E+01	4.16058568267E-05	-4.80431463073E+01	7.03429087064E-06	-1.60643985617E+02	2.73375968115E-01	1.43754523692E+01
7.51142284569E+10	4.00567884885E-01	3.07335217346E+01	3.25377974801E-05	-8.81491938402E+01	2.45713232807E-05	-1.04403710652E+02	2.75938273117E-01	1.18182827396E+01
7.51202404810E+10	4.06973156068E-01	2.80933891048E+01	2.30181172242E-05	1.73658943246E+02	3.49884188007E-05	-8.90799314726E+01	2.78730480566E-01	9.50183178002E+00
7.51262525050E+10	4.03461877620E-01	2.68130416915E+01	2.78919595917E-05	1.35836531866E+02	5.03828809149E-06	-1.39592568885E+02	2.75800632443E-01	9.20868457106E+00
7.51322645291E+10	4.06138245628E-01	2.67063207216E+01	2.76080590146E-05	-2.23417734005E+01	2.84325132899E-05	1.31532382014E+02	2.79473045054E-01	8.87022606259E+00
7.51382765531E+10	4.05370478206E-01	2.61792030521E+01	1.93747794054E-05	-1.70181067642E+02	1.35796173809E-05	-1.58940944780E+02	2.80533866015E-01	6.22990431899E+00
7.51442885772E+10	4.07413418292E-01	2.36853610318E+01	2.38826073367E-06	-6.05504306397E+00	1.37543693542E-05	8.45780231574E+01	2.85689753894E-01	5.37442636580E+00
7.51503006012E+10	4.06991991696E-01	2.21566104241E+01	1.75495282686E-05	1.33782717735E+02	1.74423839986E-05	3.32798022605E+01	2.84968455002E-01	2.79125122823E+00
7.51563126253E+10	4.03665589425E-01	2.10313068233E+01	3.41023687156E-05	1.49895625773E+01	1.44824672482E-05	-1.49564906313E+02	2.86893005726E-01	1.32731548470E+00
7.51623246493E+10	4.14388031200E-01	1.98677167150E+01	3.77946921946E-05	-3.31066250085E+01	2.37316460876E-05	1.52151964523E+02	2.90729896880E-01	-2.00918235785E-01
7.51683366733E+10	4.07473320715E-01	1.86889023737E+01	2.28398176701E-05	1.40728202001E+02	2.33806952888E-05	-8.99981368970E+01	2.92977311138E-01	-3.33702359530E-01
7.51743486974E+10	4.23641459620E-01	1.57931398259E+01	3.54843028930E-05	1.88473328403E+01	5.40446593664E-05	1.76210214724E+02	2.95406898079E-01	-3.84046949718E+00
7.51803607214E+10	4.16469386197E-01	1.70856124411E+01	6.94098290035E-05	-1.24084673092E+02	3.74018389236E-05	-5.03907401400E+01	2.92892235902E-01	-5.02602347695E+00
7.51863727455E+10	4.24166516265E-01	1.40651929584E+01	3.19129499370E-05	-1.02885316800E+02	2.88991999593E-05	1.81712468209E+01	2.93874207133E-01	-5.42762412135E+00
7.51923847695E+10	4.17268522277E-01	1.25642737376E+01	6.52475719810E-06	6.50950265289E+01	5.81276151737E-05	-5.15808761959E+01	3.02260664014E-01	-8.16550313444E+00
7.51983967936E+10	4.22090899064E-01	1.17953710971E+01	2.95193521433E-05	1.40029880345E+02	2.90946522148E-05	3.68382900784E+01	3.04218047096E-01	-1.05246143605E+01
7.52044088176E+10	4.35741052385E-01	9.32141236884E+00	1.16648829735E-05	-1.28111396861E+02	6.28113950604E-05	1.18179845526E+01	3.02564947438E-01	-1.16500516177E+01
7.52104208417E+10	4.28458567787E-01	8.31507686134E+00	4.12838805686E-05	-5.79213401669E+00	7.73322539270E-05	-9.99914497299E+01	3.00394558310E-01	-1.30198047823E+01
7.52164328657E+10	4.35237472486E-01	6.61420389092E+00	3.12813456661E-05	-1.21610724652E+02	2.76355566969E-05	1.99737453541E+01	3.10603310379E-01	-1.71782619629E+01
7.52224448898E+10	4.31775350599E-01	5.57308353120E+00	4.30196249437E-05	-9.60079936119E+01	2.63453175483E-05	-1.39155357812E+02	3.03269257128E-01	-1.66766404422E+01
7.52284569138E+10	4.40772550479E-01	5.27148525490E+00	1.55577443103E-05	4.83649659558E+00	9.22876314953E-05	1.22497300725E+02	3.03465975644E-01	-1.86876604412E+01
7.52344689379E+10	4.39848334594E-01	1.88110947176E+00	2.59675154561E-05	4.44228081431E+01	5.49414236417E-05	1.69413164088E+02	3.11219896271E-01	-2.20247219011E+01
7.52404809619E+10	4.44148218261E-01	2.61276346025E+00	7.97116682841E-05	-2.44561752989E+00	7.21964057642E-05	2.62952047171E+01	3.11865018956E-01	-2.31875546031E+01
7.52464929860E+10	4.50392575460E-01	-6.28638816015E-01	3.04855086945E-05	-4.29671287778E+01	2.42970917753E-05	4.77761000694E+01	3.13712813200E-01	-2.51705098837E+01
7.52525050100E+10	4.43826102734E-01	-1.81005952905E+00	2.60230972761E-05	5.08407398032E+01	2.87884314320E-05	-1.56963388547E+01	3.11893197257E-01	-2.64428901874E+01
7.52585170341E+10	4.41686417323E-01	-1.31430310160E+00	3.81335127001E-05	-1.16337819880E+02	2.49034199868E-05	2.39071561262E+01	3.17732109309E-01	-2.88479242071E+01
7.52645290581E+10	4.58941100496E-01	-4.50797697898E+00	3.98613179416E-05	5.02014389341E+01	2.25042154411E-05	-2.29548310645E+01	3.21344056358E-01	-3.06458222058E+01
7.52705410822E+10	4.58217068464E-01	-6.06866876391E+00	5.53095674606E-05	1.46932532054E+02	3.18994758898E-05	-4.43245713308E+01	3.22487166526E-01	-3.25799273981E+01
7.52765531062E+10	4.62005599133E-01	-8.05408635046E+00	3.90414823186E-05	1.37585539584E+02	2.31150333742E-05	-1.57017056183E+02	3.22037580432E-01	-3.40429651187E+01
7.52825651303E+10	4.56863781699E-01	-8.62341209765E+00	3.19110682819E-05	1.12976658790E+02	3.25129829755E-05	8.09170119066E+01	3.25609355120E-01	-3.55155113685E+01
7.52885771543E+10	4.63680797768E-01	-9.46456164440E+00	2.07598951569E-05	1.04298106002E+02	4.21626718221E-05	3.55574241497E+01	3.30581188927E-01	-3.68926191877E+01
7.52945891784E+10	4.76906617507E-01	-1.16345977017E+01	3.33145753241E-05	3.66045038123E+01	2.91431285585E-05	-6.57993226269E+01	3.36987691903E-01	-3.90218307063E+01
7.53006012024E+10	4.78855615612E-01	-1.35522580758E+01	1.27234192827E-05	1.58175323315E+02	2.78096019903E-05	1.40728353492E+02	3.37516928216E-01	-4.03304714198E+01
7.53066132265E+10	4.72550374604E-01	-1.44759182742E+01	3.95133231319E-05	3.94029358228E+01	8.83351017220E-05	-1.24619876136E+02	3.41135287588E-01	-4.23967656495E+01
7.53126252505E+10	4.79449749522E-01	-1.66283820753E+01	4.40517715208E-05	-1.35890427243E+01	7.95641024763E-05	-6.87628351640E+01	3.44195170676E-01	-4.44050472889E+01
7.53186372745E+10	5.00680923683E-01	-1.96686074342E+01	5.11868954744E-05	-5.71961714220E+01	7.84803065805E-05	2.95755924530E+01	3.57086531901E-01	-4.80308480038E+01
7.53246492986E+10	4.96013972541E-01	-1.98757247543E+01	2.40655284312E-05	7.98922109378E+00	3.62206967683E-05	7.16557706740E+01	3.61997286779E-01	-4.90272574439E+01
7.53306613226E+10	4.96942188497E-01	-2.06583123588E+01	6.96308866223E-05	-7.96926436155E+00	5.23871043542E-05	1.39178921278E+01	3.71352267691E-01	-5.17782230318E+01
7.53366733467E+10	4.94524237386E-01	-2.25250834736E+01	2.16539341609E-05	-2.55557400127E+01	5.29285209435E-05	-1.04529382975E+02	3.74988866153E-01	-5.50019298441E+01
7.53426853707E+10	5.06224914016E-01	-2.43455949837E+01	6.53348060337E-05	-7.99993108221E+01	8.41728408006E-05	-4.12535184049E+01	3.83358962196E-01	-5.71740533982E+01
7.53486973948E+10	5.32721807102E-01	-2.78395539680E+01	9.96151634142E-06	5.42791589750E+00	6.87528512894E-05	-4.73363054534E+01	3.83971486283E-01	-5.82574887420E+01
7.53547094188E+10	5.24848542531E-01	-2.83742402019E+01	5.14007550308E-05	-8.00272324611E+01	8.45594464658E-05	-7.68427788556E+01	4.00980322707E-01	-6.29636609586E+01
7.53607214429E+10	5.22065215678E-01	-2.90632742436E+01	2.10319327558E-05	-8.72966219669E+01	8.23058591339E-05	-6.92393821708E+01	4.11226346826E-01	-6.67261013066E+01
7.53667334669E+10	5.29667552878E-01	-3.12040769538E+01	7.83714277772E-05	-1.07385141069E+02	6.65580642016E-05	-9.81540191717E+01	4.15898923500E-01	-6.92039230082E+01
7.53727454910E+10	5.47670445238E-01	-3.38272641127E+01	3.32654179514E-05	-1.01858087558E+02	1.15744786212E-04	1.67086733806E+02	4.19312397703E-01	-7.09386981426E+01
7.53787575150E+10	5.53080619340E-01	-3.62664921070E+01	2.59298225539E-05	-8.82767969722E+01	8.15348839976E-05	-1.10210082600E+02	4.28253947316E-01	-7.41898065066E+01
7.53847695391E+10	5.62786707040E-01	-3.78606616681E+01	6.08744788295E-05	-1.11360421331E+02	8.56930907389E-05	-1.72570249915E+02	4.39955488832E-01	-7.77054824897E+01
7.53907815631E+10	5.67136804776E-01	-3.94549104003E+01	9.14222805994E-05	-1.40866487849E+02	1.63705673948E-04	-1.46467461903E+02	4.51054430938E-01	-8.21115921851E+01
7.53967935872E+10	5.81500399752E-01	-4.19790689561E+01	1.02507737200E-04	-1.23510947202E+02	1.06861894236E-04	-1.46802668918E+02	4.59494729075E-01	-8.47975158927E+01
7.54028056112E+10	5.88959600926E-01	-4.38234889911E+01	3.34274602825E-05	-8.44036184280E+01	1.05612130595E-04	1.70684758301E+02	4.69988911125E-01	-8.86341693153E+01
7.54088176353E+10	5.87288375717E-01	-4.53335975241E+01	7.91287320088E-05	-1.74982755810E+02	8.16012000225E-05	-1.18608806346E+02	4.78045993850E-01	-9.23650271958E+01
7.54148296593E+10	5.98461896576E-01	-4.70081710126E+01	6.28318991139E-05	1.65592543814E+02	1.79741112677E-05	1.76263565760E+02	4.84499440450E-01	-9.65754157900E+01
7.54208416834E+10	6.08977807430E-01	-4.87488020377E+01	5.78925553682E-05	-1.45316588573E+02	5.11967824834E-05	9.66824409309E+01	4.92107740469E-01	-9.89750645954E+01
7.54268537074E+10	6.08097610872E-01	-5.02322222456E+01	3.75022661729E-05	1.57405750103E+02	9.14818160184E-05	5.74774363021E+01	5.11851953823E-01	-1.05803732865E+02
7.54328657315E+10	6.21248755013E-01	-5.30626850558E+01	5.87469066818E-05	1.58191880488E+02	1.22588053470E-04	1.40223704081E+02	5.17735267760E-01	-1.09437434506E+02
7.54388777555E+10	6.33987229913E-01	-5.57181582544E+01	9.69782753398E-05	1.21676473894E+02	1.37677666213E-04	1.72630499093E+02	5.27586667895E-01	-1.14866865603E+02
7.54448897796E+10	6.26386934967E-01	-5.64687562541E+01	7.04026584395E-05	8.90373720243E+01	1.65313476990E-04	1.48483433192E+02	5.39758107947E-01	-1.19931779557E+02
7.54509018036E+10	6.71868645444E-01	-6.12684241570E+01	6.41390607451E-05	1.27506714165E+02	1.55359524942E-05	7.36574390838E+01	5.47802559131E-01	-1.24639641778E+02
7.54569138277E+10	6.70224174123E-01	-6.28939846771E+01	6.15993119130E-05	9.34217500233E+01	5.93690232589E-05	1.31216646238E+02	5.54946446858E-01	-1.29409111070E+02
7.54629258517E+10	6.92136833896E-01	-6.59525007645E+01	6.88668777175E-05	1.04915467582E+02	5.33815907579E-05	-5.44721361819E+00	5.65399257269E-01	-1.35667958814E+02
7.54689378758E+10	7.04006004763E-01	-6.88019445199E+01	8.64046556495E-05	-2.74094266220E+01	9.95657108853E-05	1.02076598996E+02	5.70491428490E-01	-1.41553696967E+02
7.54749498998E+10	6.96411948659E-01	-6.90933363286E+01	1.26901651761E-04	1.54848996972E+02	1.59502919373E-04	1.04798026118E+02	5.75525828725E-01	-1.47380830068E+02
7.54809619238E+10	7.27984087800E-01	-7.32875204922E+01	1.66031786573E-04	9.26542049502E+01	1.01514861503E-04	8.76455016099E+01	5.78873278535E-01	-1.52696979899E+02
7.54869739479E+10	7.20801470089E-01	-7.40547499732E+01	4.72019866414E-05	1.15489678511E+02	1.69878743374E-05	-2.76266887400E+01	5.79016102914E-01	-1.57882630500E+02
7.54929859719E+10	7.33411659034E-01	-7.68931385735E+01	1.40790166474E-04	8.38536655659E+01	1.11359027209E-04	6.93151397623E+01	5.79437205403E-01	-1.66421342883E+02
7.54989979960E+10	7.22145712948E-01	-7.77924387457E+01	1.02844697213E-04	3.38042353396E+01	1.13521262267E-04	3.22917711831E+01	5.76550137220E-01	-1.69282593686E+02
7.55050100200E+10	7.77327470990E-01	-8.42812088282E+01	9.07886111364E-05	6.33180786227E+01	9.96034385212E-05	5.93332535316E+01	5.70506643235E-01	-1.78339053693E+02
7.55110220441E+10	7.77369523159E-01	-8.60144527381E+01	5.13326406623E-05	7.22436726069E+01	4.65322942266E-05	4.04322719026E+01	5.62649026080E-01	1.76038052420E+02
7.55170340681E+10	8.21256917328E-01	-9.19053865194E+01	1.64783424264E-04	4.72419283013E+01	4.78779058747E-05	8.31980061487E+00	5.56345476349E-01	1.69734083946E+02
7.55230460922E+10	8.33509157341E-01	-9.52732351011E+01	1.42812549854E-04	3.09374668576E+01	5.80211685012E-05	-4.13954059983E+01	5.43439003547E-01	1.62093594066E+02
7.55290581162E+10	8.42746090259E-01	-9.77341013453E+01	6.28593146110E-05	-2.77295652884E+01	8.14468636857E-05	-2.59072554186E+01	5.32808656761E-01	1.57175336114E+02
7.55350701403E+10	8.55037865335E-01	-1.01002916231E+02	2.71452806891E-05	1.86997484154E+01	1.52942469797E-04	-2.47218597524E+01	5.14408978898E-01	1.50059000108E+02
7.55410821643E+10	8.45428234521E-01	-1.02196286776E+02	1.03464810137E-04	-1.03598863479E+00	4.08779560509E-05	-3.00950434892E+01	5.01516400257E-01	1.43683928034E+02
7.55470941884E+10	8.58888483763E-01	-1.05813245026E+02	7.21774031629E-05	2.24812103394E+01	9.68837201861E-05	-2.40987455983E+01	4.84785968611E-01	1.37494872910E+02
7.55531062124E+10	8.69842677700E-01	-1.08911845603E+02	7.29061418665E-05	-1.96472710949E+01	7.05486249826E-05	-4.34071591546E+01	4.72441989218E-01	1.32775982430E+02
7.55591182365E+10	8.94411316832E-01	-1.14464406431E+02	7.48205657602E-05	-1.54141868062E+01	1.27692525690E-04	-1.12641726714E+02	4.49749577549E-01	1.25749414297E+02
7.55651302605E+10	8.79310960198E-01	-1.14813142932E+02	9.17790876397E-05	-1.39723952237E+02	1.27693832575E-05	-1.01837075358E+02	4.34185905070E-01	1.19364790676E+02
7.55711422846E+10	9.14845067092E-01	-1.22709793575E+02	1.21273586691E-04	-2.70781582369E+01	1.23553929765E-04	-8.40245361654E+01	4.22062913908E-01	1.14582436904E+02
7.55771543086E+10	9.18071138954E-01	-1.26066759673E+02	1.02867678956E-04	-8.99655112010E+00	2.74363606091E-05	-6.70867485144E+01	4.05926032064E-01	1.09445243820E+02
7.55831663327E+10	9.25630719140E-01	-1.29827898602E+02	1.06184596929E-04	-7.50581447264E+01	1.06135569620E-04	-3.06695536634E+01	3.87650193345E-01	1.02947206595E+02
7.55891783567E+10	9.15702915007E-01	-1.32109487052E+02	1.29502086733E-04	-6.59741366683E+01	3.75073774652E-05	-8.62101016715E+01	3.73040298768E-01	9.80351910296E+01
7.55951903808E+10	9.30897175602E-01	-1.38025910247E+02	1.37785974087E-04	-6.52732185449E+01	4.00434991910E-06	-1.47489636912E+02	3.61775629463E-01	9.41020817685E+01
7.56012024048E+10	9.35120910982E-01	-1.43892708657E+02	1.48138899757E-04	-5.39851364396E+01	1.01494094367E-04	-8.25268326083E+01	3.48332740893E-01	8.87635249719E+01
7.56072144289E+10	9.26229762998E-01	-1.46376961655E+02	7.10833403111E-05	-5.56170492830E+01	3.45044661198E-05	-1.06266252918E+02	3.29780593098E-01	8.45980404996E+01
7.56132264529E+10	9.25434814528E-01	-1.50522420132E+02	2.01184693167E-04	-8.50605849412E+01	4.48252187083E-05	-1.36243925814E+02	3.20470156243E-01	7.95511780161E+01
7.56192384770E+10	9.19464663623E-01	-1.53295971744E+02	3.14066580661E-05	-1.73915844699E+02	1.19862601167E-04	-1.32185856692E+02	3.10559301052E-01	7.70266561878E+01
7.56252505010E+10	9.09897521270E-01	-1.56956062921E+02	8.01859901760E-06	-5.49062257222E+01	4.89817456010E-05	-1.39752099228E+02	2.98708309572E-01	7.19656225856E+01
7.56312625251E+10	9.04665797927E-01	-1.62046455673E+02	5.64146551947E-05	-9.55050902634E+01	4.59031688268E-05	-1.08245913617E+02	2.85941833282E-01	6.74896511616E+01
7.56372745491E+10	8.91094629472E-01	-1.63729922626E+02	1.13213622791E-04	-1.15390439821E+02	2.79612983483E-05	-1.40499739569E+02	2.81918359786E-01	6.51961852002E+01
7.56432865731E+10	8.83989739931E-01	-1.68388972247E+02	1.53201916519E-04	-8.53185896551E+01	3.32343307827E-05	-1.62488604213E+02	2.79469161815E-01	6.27874764774E+01
7.56492985972E+10	8.71960691061E-01	-1.74058321497E+02	8.25256093185E-05	-1.62536307844E+02	7.81826999923E-05	-1.53285942734E+02	2.70314621640E-01	5.97047024524E+01
7.56553106212E+10	8.59169019292E-01	-1.79456053502E+02	1.46670526956E-04	-1.40977085422E+02	4.45221855495E-05	1.65370977642E+02	2.68047539615E-01	5.71555197913E+01
7.56613226453E+10	8.47441240243E-01	-1.78731349927E+02	8.31846814018E-05	1.77306984258E+02	3.53893266610E-05	-6.24385404508E+01	2.69030689585E-01	5.44676073250E+01
7.56673346693E+10	8.32071607257E-01	1.75098431147E+02	1.09355207861E-04	8.98000015724E+01	4.20557476834E-05	-1.72877094386E+02	2.72926429499E-01	5.13228492427E+01
7.56733466934E+10	8.13693572726E-01	1.69153129607E+02	8.57355880122E-05	9.08825061935E+01	4.77423434743E-05	-4.67079815996E+01	2.70463723583E-01	4.86474547881E+01
7.56793587174E+10	8.04048911501E-01	1.69127432878E+02	5.95282909829E-05	1.76993719689E+02	3.18210718418E-05	-3.44104506619E+01	2.71528881523E-01	4.59448133934E+01
7.56853707415E+10	7.79793299931E-01	1.63248878287E+02	2.75551851706E-05	1.17298828940E+02	3.03293381247E-05	-2.37359646608E+01	2.80319948877E-01	4.16679058806E+01
7.56913827655E+10	7.62273599661E-01	1.58265390927E+02	2.77225590094E-05	1.60101898251E+02	2.30320002311E-05	-1.06986653139E+02	2.79356891199E-01	4.05737110764E+01
7.56973947896E+10	7.50123246343E-01	1.56738540545E+02	9.03913968412E-05	-1.10426507502E+02	7.75691688349E-05	-1.15074765851E+02	2.80609560526E-01	3.55051161112E+01
7.57034068136E+10	7.35401948812E-01	1.54077280985E+02	1.08656069231E-04	1.08185126397E+02	3.85260555152E-05	4.35521695191E+01	2.85510034110E-01	3.20902530607E+01
7.57094188377E+10	7.07082530708E-01	1.46734757952E+02	6.99013552024E-05	-1.38526217404E+02	3.58497285329E-05	1.58501700092E+02	2.91272036640E-01	2.88954932972E+01
7.57154308617E+10	7.03374480503E-01	1.47590331928E+02	2.36721852062E-05	9.64971434507E+01	4.05060254966E-05	1.20158666921E+02	2.98096457258E-01	2.65960118043E+01
7.57214428858E+10	6.82178153231E-01	1.42543035953E+02	7.82613197185E-05	-1.32076871773E+02	6.69178877348E-05	1.18315380806E+02	3.04286777930E-01	2.36245163661E+01
7.57274549098E+10	6.62243555866E-01	1.38292759231E+02	3.36029152268E-05	1.56303033676E+02	7.38407110528E-05	-6.84299886364E+01	3.03117733101E-01	1.94158739585E+01
7.57334669339E+10	6.40692244563E-01	1.34167491696E+02	2.61664292434E-05	9.30576504302E+01	4.65847435003E-05	1.67118552007E+02	3.11765347933E-01	1.48545415530E+01
7.57394789579E+10	6.29406459105E-01	1.33131723241E+02	4.39930014721E-05	7.20493798085E+01	2.78383420676E-05	5.39677353742E+00	3.16697812921E-01	1.18626372550E+01
7.57454909820E+10	6.21986594612E-01	1.31468254921E+02	5.53763638751E-05	-1.27028633539E+02	2.15271725920E-05	-7.35969554168E+01	3.16388868057E-01	1.06700473866E+01
7.57515030060E+10	6.06069349555E-01	1.28095507332E+02	1.63878001672E-05	8.81162408558E+01	9.05450617687E-06	1.69391362396E+01	3.27783171021E-01	6.26896239179E+00
7.57575150301E+10	5.92312997781E-01	1.25447190203E+02	1.04555844213E-05	2.38914270979E+00	3.56848654190E-05	1.15852362469E+02	3.27873610312E-01	2.81006789569E+00
7.57635270541E+10	5.73216765454E-01	1.21753898937E+02	8.01516172472E-05	5.43318974435E+01	5.96857390652E-05	8.63613529119E+01	3.30105057298E-01	-4.79231955407E-01
7.57695390782E+10	5.54608497971E-01	1.17647608051E+02	1.95130199837E-05	-1.46778138675E+02	5.56091770781E-05	6.18165096110E+01	3.41942536470E-01	-2.44721902807E+00
7.57755511022E+10	5.39866109096E-01	1.13486191330E+02	3.64045241321E-05	1.67178738920E+01	4.60602230414E-05	1.62347948237E+01	3.43311400754E-01	-5.38691883649E+00
7.57815631263E+10	5.29695499011E-01	1.12032636261E+02	1.58209546913E-05	-1.13489034770E+02	4.30671471279E-05	-1.57763888584E+02	3.46470721247E-01	-8.98018745383E+00
7.57875751503E+10	5.22822830285E-01	1.11866271462E+02	1.21605218765E-05	-2.46077592302E+01	3.67048270726E-05	1.15032416495E+02	3.47946522788E-01	-1.11226299393E+01
7.57935871743E+10	5.11719698384E-01	1.06987524362E+02	6.47955304433E-05	-1.69992035926E+02	7.41515045574E-05	-1.49584125286E+01	3.56515339617E-01	-1.33662629824E+01
7.57995991984E+10	4.89001029831E-01	1.03287860303E+02	1.40359775405E-05	-1.70058174093E+02	5.45139595103E-05	-5.81473169750E+01	3.65339438921E-01	-1.73234245857E+01
7.58056112224E+10	4.88673963008E-01	1.02742101842E+02	6.76769922634E-05	1.23622094381E+02	2.85325534271E-05	-1.30760005241E+02	3.67287875794E-01	-2.00922337626E+01
7.58116232465E+10	4.84945979363E-01	1.01278920440E+02	3.37168306914E-05	-3.96341137375E+01	4.13797685820E-05	-1.11081837271E+02	3.70915464851E-01	-2.23573575273E+01
7.58176352705E+10	4.71345005539E-01	9.90600602413E+01	4.53731991337E-05	-2.14295614007E+01	5.13514934215E-05	7.61297570085E+01	3.74703400699E-01	-2.42340842950E+01
7.58236472946E+10	4.57367729347E-01	9.39864470457E+01	9.35719978431E-05	-1.63427678400E+02	9.28653250196E-06	5.12572215171E+01	3.82896780338E-01	-2.63247099881E+01
7.58296593186E+10	4.49679021693E-01	9.23343265163E+01	5.38551053160E-05	-1.21598312780E+02	4.16091749231E-05	-1.38668779000E+02	3.97337464588E-01	-2.93983197556E+01
7.58356713427E+10	4.42492879217E-01	8.99871933216E+01	6.91665413002E-05	-1.63597550882E+02	6.65948793937E-05	-6.20043965070E+01	3.98738508285E-01	-3.11091231468E+01
7.58416833667E+10	4.38119377229E-01	8.94963254630E+01	5.11704197926E-05	-1.38944045746E+02	1.34859382410E-05	-9.06619921318E+01	4.03833656717E-01	-3.27749399544E+01
7.58476953908E+10	4.23071547134E-01	8.45896168896E+01	6.71266907597E-05	1.47700596557E+02	3.38054197203E-05	-2.62887118105E+01	4.12654634914E-01	-3.51863193310E+01
7.58537074148E+10	4.22844309548E-01	8.27701210919E+01	3.95787766216E-05	-1.28212183676E+02	3.27460906691E-05	1.75189975989E+02	4.35305266706E-01	-3.81505063114E+01
7.58597194389E+10	4.16725315037E-01	8.01267195362E+01	8.13459740587E-05	-1.77431569776E+02	5.87402175875E-05	-8.98124437020E+01	4.45727569727E-01	-4.09051877267E+01
7.58657314629E+10	4.07864509936E-01	7.81221389503E+01	7.98999175465E-05	1.29715564265E+02	7.26855373189E-05	1.76160739586E+02	4.60228456239E-01	-4.23090528586E+01
7.58717434870E+10	3.93470862511E-01	7.48897599897E+01	5.64251460024E-05	1.07945487191E+02	2.68877577919E-05	1.46259263847E+02	4.70493424132E-01	-4.38207616181E+01
7.58777555110E+10	3.94688317564E-01	7.45106480810E+01	7.14656723334E-05	1.57388545731E+02	5.62262133707E-05	-1.60937994986E+02	4.88706604248E-01	-4.61411762407E+01
7.58837675351E+10	3.81554198806E-01	7.01772993231E+01	7.55559445909E-05	9.07313101201E+01	3.45461493530E-05	-1.70701041489E+02	5.07340812220E-01	-4.98560839167E+01
7.58897795591E+10	3.79470444728E-01	6.75873455536E+01	3.05247055009E-05	-6.81563461647E+01	8.25837918221E-05	1.59325166950E+02	5.21154833081E-01	-5.15432607703E+01
7.58957915832E+10	3.72434020015E-01	6.45221588484E+01	2.49933252466E-05	1.77498373180E+02	2.53417833936E-05	1.38063056646E+02	5.31272942472E-01	-5.35192956627E+01
7.59018036072E+10	3.71491511734E-01	6.34151759355E+01	2.52419991836E-05	8.65661809481E+01	1.07383900500E-04	1.26551265605E+02	5.60735510013E-01	-5.68824423891E+01
7.59078156313E+10	3.64358135820E-01	6.19582762302E+01	6.72192038246E-05	2.67537487157E+01	7.60961064513E-05	1.00547919186E+02	5.79933813191E-01	-5.89745104271E+01
7.59138276553E+10	3.55173165679E-01	5.77439440212E+01	8.39343220989E-05	8.34194294871E+01	9.46365735582E-05	8.12667648551E+01	5.99522231206E-01	-6.19540944838E+01
7.59198396794E+10	3.58570360546E-01	5.77477016653E+01	1.63704783705E-05	1.04765464154E+01	3.75327965246E-05	1.53777424071E+02	6.26933269951E-01	-6.48737030280E+01
7.59258517034E+10	3.51820699221E-01	5.35398977308E+01	1.32816861371E-05	2.24276739726E+01	5.29666039207E-05	1.11757827894E+02	6.56499138110E-01	-6.79909975548E+01
7.59318637275E+10	3.44252253309E-01	5.10748409493E+01	2.37860389546E-05	6.95513746239E+01	2.64533758832E-05	1.72236015484E+02	6.79053665417E-01	-7.03738771688E+01
7.59378757515E+10	3.34327722380E-01	4.90475176028E+01	3.49694050768E-05	1.65967620520E+02	5.53334115644E-05	9.75509179392E+01	7.03040492742E-01	-7.31556405592E+01
7.59438877756E+10	3.39220848723E-01	4.80319829996E+01	4.30914915097E-05	1.49397317928E+01	4.77877987026E-05	1.30047294981E+02	7.26026533366E-01	-7.57186229522E+01
7.59498997996E+10	3.36603102884E-01	4.49893539105E+01	6.17640001898E-05	1.70499083804E+01	6.14205481390E-05	8.28335515272E+01	7.55723404012E-01	-7.91033465350E+01
7.59559118236E+10	3.31143370232E-01	4.39006743597E+01	2.47216362692E-05	-7.09385202219E+01	7.19513176652E-05	5.95760071436E+01	7.94812038561E-01	-8.25767465587E+01
7.59619238477E+10	3.21863999004E-01	3.89854721683E+01	6.18665839754E-05	7.00396573486E+01	1.03087349229E-04	6.35101482633E+01	7.97196237089E-01	-8.36819242409E+01
7.59679358717E+10	3.21717717659E-01	3.74861061135E+01	3.01125789454E-05	6.21024529037E+01	1.09702224670E-04	4.99531678696E+01	8.42929031661E-01	-8.78068751263E+01
7.59739478958E+10	3.23537864391E-01	3.56606570337E+01	6.50430829820E-06	-1.67949475574E+02	9.31832435623E-05	6.84930983539E+01	8.91026177191E-01	-9.21849248625E+01
7.59799599198E+10	3.17826574346E-01	3.48603362394E+01	3.65521563374E-05	4.42402205680E+01	4.89590585689E-05	4.75044376340E+01	9.42202890857E-01	-9.68194265642E+01
7.59859719439E+10	3.06839165659E-01	3.22210631952E+01	1.93150882554E-05	-1.19088556442E+01	8.25169862341E-06	1.58519706864E+02	9.66293373400E-01	-9.90489532569E+01
7.59919839679E+10	3.13367015238E-01	2.89897060608E+01	9.35735305626E-05	3.65570250060E+01	1.07557795039E-04	9.57740163232E+01	1.01960330109E+00	-1.03872626150E+02
7.59979959920E+10	3.11737369696E-01	2.82457371775E+01	5.77727487236E-05	5.16917398525E+00	1.50174839093E-04	9.74587185040E+01	1.02435277468E+00	-1.05060982123E+02
7.60040080160E+10	3.06255917112E-01	2.63146503373E+01	3.30543123093E-05	-1.60667326407E+01	3.15810554026E-05	7.50001572409E+01	1.11984739090E+00	-1.13101534180E+02
7.60100200401E+10	3.06230900823E-01	2.28830388817E+01	1.69982058069E-05	-3.00112560624E+01	1.19236095514E-04	-5.26686205863E+01	1.14085537884E+00	-1.15466274694E+02
7.60160320641E+10	3.04327481553E-01	2.08800730565E+01	4.76689576720E-05	-3.63815206738E+00	2.20154511349E-04	-7.20273878434E+00	1.15540566253E+00	-1.18783975886E+02
7.60220440882E+10	3.03798621638E-01	1.87939950911E+01	6.01449046809E-05	2.85523323389E+01	1.65852135007E-04	1.59942647611E+00	1.21048398053E+00	-1.24348359640E+02
7.60280561122E+10	3.05066411154E-01	1.66139303091E+01	7.57649756054E-05	-1.28243384366E+00	2.01160500790E-04	-2.92584618932E+01	1.28179637033E+00	-1.29914831014E+02
7.60340681363E+10	3.06092490594E-01	1.61819816556E+01	4.50266691186E-05	-2.08577776723E+01	5.63930687489E-05	2.75542749945E+01	1.32580435154E+00	-1.34837998101E+02
7.60400801603E+10	3.05418088248E-01	1.50544482703E+01	3.03479057195E-05	-1.91185105413E+01	2.38856925893E-04	-6.34171240356E+01	1.39323738488E+00	-1.43231036762E+02
7.60460921844E+10	3.05624867714E-01	1.31429663319E+01	1.06128618796E-04	-5.54853410880E+01	1.17541424032E-04	-6.83399416577E+00	1.35974464078E+00	-1.43335840881E+02
7.60521042084E+10	3.05664909779E-01	9.10784781062E+00	5.23610385890E-05	-6.32717619230E+01	8.28824931658E-05	-8.48076529046E+01	1.39588478918E+00	-1.48963594808E+02
7.60581162325E+10	3.09904537945E-01	6.38546986341E+00	6.31554084225E-05	-2.03755036801E+01	1.51594347158E-04	-3.03933040438E+01	1.42381884420E+00	-1.56428049055E+02
7.60641282565E+10	3.17953330121E-01	4.60253551000E+00	4.67891846566E-05	-7.24459326659E+01	2.51739961505E-04	-6.89473540159E+01	1.46938595095E+00	-1.62377785461E+02
7.60701402806E+10	3.15064565317E-01	3.52637872616E+00	4.60436335889E-05	-3.61178981391E+01	1.88433829659E-04	-8.38354604506E+01	1.43548560454E+00	-1.64208087708E+02
7.60761523046E+10	3.19402933254E-01	2.20187237018E-01	1.97421676869E-05	-1.42355422068E+01	3.36051652023E-05	-9.64378000455E+01	1.44726129180E+00	-1.69830921591E+02
7.60821643287E+10	3.27393230554E-01	-9.71692640429E-01	8.68420978328E-05	-4.31677089511E+01	1.75281818176E-04	-1.03427357602E+02	1.45229458339E+00	-1.77173988649E+02
7.60881763527E+10	3.29297439449E-01	-2.85585027895E+00	4.02763406319E-05	-9.69690372977E+01	6.07606828631E-05	-1.67636383898E+01	1.44644006332E+00	1.72370137264E+02
7.60941883768E+10	3.28833099002E-01	-7.01255068377E+00	4.72971229087E-05	-1.38526195806E+02	2.84656515033E-04	-9.72620483925E+01	1.42976697769E+00	1.68590502584E+02
7.61002004008E+10	3.38188081213E-01	-9.06382822685E+00	4.68419962452E-05	-4.88193383132E+01	1.46942621397E-04	-1.75293341148E+02	1.40237516993E+00	1.67226738707E+02
7.61062124248E+10	3.47054588959E-01	-1.09530621263E+01	4.33910400903E-05	-5.92104127555E+01	1.28514375722E-04	-7.56668676940E+01	1.37390583020E+00	1.62983090303E+02
7.61122244489E+10	3.40935903747E-01	-1.30753725041E+01	4.20501131052E-05	-5.67719093875E+01	4.10344793891E-05	1.69509113492E+02	1.34020751413E+00	1.56682025533E+02
7.61182364729E+10	3.58193523991E-01	-1.75118949008E+01	5.13588396094E-05	-1.39320435275E+02	3.41076645277E-05	-3.60976119310E+01	1.28756327072E+00	1.48393719568E+02
7.61242484970E+10	3.55421895439E-01	-1.87319609140E+01	3.17573615521E-05	-1.35588778399E+02	1.46356473190E-04	-1.22963770526E+02	1.24911255771E+00	1.44214801272E+02
7.61302605210E+10	3.63919679462E-01	-2.10829338605E+01	1.84145627022E-05	-1.20839699764E+02	6.83960688200E-05	1.16558979019E+02	1.22649891856E+00	1.42855467677E+02
7.61362725451E+10	3.68122752285E-01	-2.39967279935E+01	3.10135077091E-05	2.92910614589E+01	8.71359967089E-05	-1.02680578726E+02	1.20159111456E+00	1.39738333444E+02
7.61422845691E+10	3.81315003236E-01	-2.69960505178E+01	3.04516785908E-05	5.32010288436E+00	1.60902368870E-04	1.67094014888E+02	1.16239358649E+00	1.35805795631E+02
7.61482965932E+10	3.81514841327E-01	-2.94878018663E+01	2.23512048038E-05	1.59476836404E+02	7.49582394656E-05	1.76537726758E+02	1.11183056577E+00	1.30215858600E+02
7.61543086172E+10	3.99809143462E-01	-3.16597602172E+01	6.90274901329E-05	-8.91189759380E+01	6.94217249841E-05	-1.72976951194E+02	1.08581246643E+00	1.27359400119E+02
7.61603206413E+10	4.02081450448E-01	-3.41745470160E+01	6.28010440638E-05	-1.76898869691E+02	1.06367730514E-04	1.56560459384E+02	1.04342856308E+00	1.23441075318E+02
7.61663326653E+10	4.11631507615E-01	-3.77690864914E+01	6.28409272517E-05	-6.51080927328E+01	1.37163790531E-04	1.32131101560E+02	1.02170098431E+00	1.21779308117E+02
7.61723446894E+10	4.28638778108E-01	-4.14568810548E+01	5.93273011891E-05	-1.03869782493E+02	7.15137136789E-05	-1.78485257188E+02	9.78816903878E-01	1.16911620203E+02
7.61783567134E+10	4.34473757357E-01	-4.34779120443E+01	5.25000996885E-05	-1.30534800974E+02	9.15717065428E-05	7.55821721632E+01	9.47658542229E-01	1.13352239180E+02
7.61843687375E+10	4.43575936779E-01	-4.67993184165E+01	5.86253766575E-05	-1.77423757021E+02	6.56403810037E-05	1.76755204350E+02	9.12058625375E-01	1.09340411494E+02
7.61903807615E+10	4.56291219724E-01	-5.03273705993E+01	6.67106976313E-05	1.35232930791E+02	4.90487862644E-05	1.62444831731E+02	8.96022357316E-01	1.08068448445E+02
7.61963927856E+10	4.68324517609E-01	-5.23645781875E+01	4.37622401604E-05	-9.64153301656E+01	5.12451376990E-05	1.06317612686E+02	8.84300601661E-01	1.07968603537E+02
7.62024048096E+10	4.72852334779E-01	-5.56754245002E+01	3.33453686835E-05	-1.26411229713E+02	1.19841753835E-04	1.40032373563E+02	8.49297514276E-01	1.03710881290E+02
7.62084168337E+10	4.91696779509E-01	-5.92428553872E+01	2.27926234712E-05	-1.01090458352E+02	6.53306086492E-05	1.26418338283E+02	8.23198893240E-01	1.00232324611E+02
7.62144288577E+10	5.14694721133E-01	-6.30537637407E+01	4.53538273421E-05	-1.78003356627E+02	1.13855162709E-04	1.25406032583E+02	8.02192507948E-01	9.78870669361E+01
7.62204408818E+10	5.32240512839E-01	-6.66687283916E+01	1.40663653225E-05	1.22550888400E+02	7.29068548427E-05	1.33448554603E+02	7.80254931073E-01	9.53013062984E+01
7.62264529058E+10	5.48191133929E-01	-6.93710493721E+01	3.72630620080E-05	-2.09541512363E+01	5.61788222880E-05	8.42314478954E+01	7.68021722054E-01	9.43940408386E+01
7.62324649299E+10	5.66808505646E-01	-7.34150933779E+01	4.10750063508E-05	2.29329991938E+01	1.18104488318E-04	1.45080021574E+02	7.50756235213E-01	9.26069726178E+01
7.62384769539E+10	5.85898117999E-01	-7.69842843869E+01	9.96177839884E-05	-1.71935963659E+02	5.75150590468E-05	1.12638877756E+02	7.26958411781E-01	8.93748945310E+01
7.62444889780E+10	6.01849628949E-01	-7.97887329012E+01	9.75508584331E-05	-1.50618191881E+02	2.18268853696E-05	1.27221771089E+02	7.09153848457E-01	8.64474350779E+01
7.62505010020E+10	6.30701358300E-01	-8.39397121036E+01	4.53374133941E-05	-1.72452883430E+02	3.77190947656E-05	1.48902309260E+02	6.97071245548E-01	8.47890332641E+01
7.62565130261E+10	6.53644021652E-01	-8.75438757184E+01	4.06907385543E-05	-1.74765195055E+02	4.86368858311E-05	4.69528498560E+01	6.82352297763E-01	8.30292573991E+01
7.62625250501E+10	6.92638217586E-01	-9.32849899457E+01	3.62497285526E-05	-1.76303539750E+02	6.78576295224E-05	2.12272562602E+01	6.74326433751E-01	8.16305794817E+01
7.62685370741E+10	7.18511982077E-01	-9.75235265679E+01	1.05153254766E-04	1.24975412496E+02	7.28018230901E-05	6.82793502046E+01	6.58712273383E-01	7.99449564114E+01
7.62745490982E+10	7.56997481763E-01	-1.02677739250E+02	1.04542184042E-04	6.90676126506E+01	1.24210529247E-05	9.99151441992E+01	6.47373293831E-01	7.70747889374E+01
7.62805611222E+10	7.93549349715E-01	-1.07665181585E+02	4.90001157508E-05	1.04881924421E+02	4.31812006866E-05	1.07996979381E+02	6.23983679067E-01	7.38929366812E+01
7.62865731463E+10	7.95274699632E-01	-1.09350315664E+02	6.37546646961E-05	1.17270937742E+02	3.18283217418E-05	-1.40607231524E+02	6.17028701456E-01	7.31747851217E+01
7.62925851703E+10	8.36688227874E-01	-1.15579425721E+02	7.83957815127E-05	1.18046593829E+02	5.62434476730E-05	1.22095021959E+02	6.09570217301E-01	7.19648409172E+01
7.62985971944E+10	8.76509982206E-01	-1.21148706935E+02	6.78428717369E-05	8.56284864504E-01	6.87120532557E-05	5.33000572097E+01	6.02337159243E-01	7.06915506856E+01
7.63046092184E+10	9.20422510585E-01	-1.27570330675E+02	8.11179987750E-05	7.44220298843E+01	4.61617762770E-05	3.45645270353E+01	5.92365593335E-01	6.84160780722E+01
7.63106212425E+10	9.52603969404E-01	-1.33769861275E+02	1.42599652113E-04	4.17272223679E+01	1.29233567806E-05	1.37417411527E+01	5.77146269822E-01	6.49814439886E+01
7.63166332665E+10	9.55160252211E-01	-1.35423847442E+02	1.30487916352E-04	8.83209450156E+01	9.32068546193E-06	3.75981177977E+01	5.65793291524E-01	6.31594820089E+01
7.63226452906E+10	1.01302527613E+00	-1.46134568229E+02	1.26851505441E-04	1.11881085042E+02	7.34722637858E-06	7.51523735385E+01	5.57566173133E-01	6.18042001815E+01
7.63286573146E+10	1.02983893133E+00	-1.50491664922E+02	1.45264373729E-04	3.41812480219E+01	1.91333434669E-05	-2.62829534207E+01	5.57042684465E-01	6.19044500288E+01
7.63346693387E+10	1.06747777615E+00	-1.58943253182E+02	1.83003179150E-04	-9.61004811924E+00	2.59503613594E-05	-1.22324109736E+02	5.47706463610E-01	5.82686469463E+01
7.63406813627E+10	1.08909489000E+00	-1.66175378169E+02	2.01858829949E-04	1.03194436901E+01	2.85315731017E-05	1.04326411392E+02	5.33893398119E-01	5.61188673382E+01
7.63466933868E+10	1.07200829891E+00	-1.71159794275E+02	3.81959775078E-05	1.01302707911E+02	7.22199976984E-06	-2.78325130757E+01	5.28976001327E-01	5.49610933370E+01
7.63527054108E+10	1.07383415066E+00	-1.74706538018E+02	7.84965494656E-05	9.60486482697E+01	4.74697884546E-05	7.80718389873E+01	5.30965717163E-01	5.46713121734E+01
7.63587174349E+10	1.07019735456E+00	1.78575702261E+02	1.33144347052E-04	6.21969529494E+01	6.06954819522E-05	3.45081481056E+01	5.23725850738E-01	5.20568422924E+01
7.63647294589E+10	1.06312120640E+00	1.68524880765E+02	2.06118393244E-04	6.22824168078E+01	7.81449615582E-05	3.03673436583E+01	5.15754557162E-01	5.05033561675E+01
7.63707414830E+10	1.04724786611E+00	1.65818460541E+02	1.27278570750E-04	4.28579380526E+01	6.45068172357E-05	1.63599646027E+00	5.05904902213E-01	4.82242707763E+01
7.63767535070E+10	1.02722827199E+00	1.54294493033E+02	4.59978840915E-05	-1.33096742346E+02	3.93833665036E-05	-5.14604126297E+01	5.05601056707E-01	4.78881651179E+01
7.63827655311E+10	9.98759605423E-01	1.48251287300E+02	7.58610579702E-05	2.58495911490E+01	4.62636384093E-05	-6.27472473954E+01	4.98795503432E-01	4.52538764868E+01
7.63887775551E+10	9.81941387914E-01	1.48743757945E+02	2.23831379019E-04	-8.53496305799E+01	3.93888417879E-05	7.65121049729E+01	4.94128031118E-01	4.36966448750E+01
7.63947895792E+10	9.44464525675E-01	1.38524312719E+02	1.24516640933E-04	1.37789198215E+01	4.03259539123E-05	3.77144114092E+01	4.89526543445E-01	4.19657137418E+01
7.64008016032E+10	9.14449404548E-01	1.31989149973E+02	8.76043592202E-05	-6.80622016510E+01	6.08944997584E-05	-6.95674114232E+00	4.80819911347E-01	4.00634197203E+01
7.64068136273E+10	8.96467658454E-01	1.32629029781E+02	9.11876272517E-05	-1.68236496722E+01	7.91141017542E-05	-6.44260044462E+01	4.76814804313E-01	3.85798467662E+01
7.64128256513E+10	8.60229249468E-01	1.25059579564E+02	7.49685697125E-05	-5.46958242182E+01	4.67499449823E-05	-3.15471164220E+01	4.75603842253E-01	3.69511718643E+01
7.64188376754E+10	8.31025772497E-01	1.20214983995E+02	1.47016199111E-04	-1.19417699474E+02	5.61050933574E-05	-9.91405774686E+01	4.75543345136E-01	3.64591198181E+01
7.64248496994E+10	8.02337338190E-01	1.15643578850E+02	9.08607894247E-05	-3.72581745118E+01	6.72419340990E-05	-6.13006416882E+01	4.65105060015E-01	3.34552071160E+01
7.64308617234E+10	7.76681129905E-01	1.11736109714E+02	1.12020530843E-04	4.76107966296E+01	2.36343567336E-05	-1.08442095746E+02	4.63823299787E-01	3.32107618536E+01
7.64368737475E+10	7.60210708724E-01	1.09275062332E+02	1.35668466897E-04	-1.04451541457E+02	6.54286360140E-05	-6.08394234862E+01	4.67474429131E-01	3.04212359305E+01
7.64428857715E+10	7.37993979611E-01	1.06076723985E+02	6.64048895212E-05	-3.98532405534E+01	4.96652747990E-05	-9.31628318292E+01	4.61949931211E-01	2.97286314939E+01
7.64488977956E+10	7.00748362830E-01	9.89300330150E+01	1.15665114138E-04	-6.74459393331E+01	4.78649722038E-05	-1.60681519030E+01	4.58571392607E-01	2.88059183386E+01
7.64549098196E+10	6.84236438918E-01	9.65333656148E+01	3.98776560252E-06	4.53639015257E+01	2.93607812736E-05	-1.47976099010E+02	4.56946279050E-01	2.73236350641E+01
7.64609218437E+10	6.63643724330E-01	9.37208706693E+01	7.21962386672E-05	-1.22229113721E+02	2.88215242836E-05	-7.94106764835E+01	4.52403032330E-01	2.46427189064E+01
7.64669338677E+10	6.49115115784E-01	9.12400555175E+01	3.12798265410E-05	1.28674717963E+02	3.98677361249E-05	-1.75105033442E+02	4.49215460505E-01	2.20814728253E+01
7.64729458918E+10	6.36030177352E-01	8.84540642394E+01	3.47884555331E-05	1.69775680117E+02	7.21520279988E-06	-1.22694819729E+02	4.50439748122E-01	2.18913415854E+01
7.64789579158E+10	6.23445431707E-01	8.65803210806E+01	8.22575278067E-05	1.63088949537E+02	4.35198399255E-05	-9.26639504988E+01	4.46613379915E-01	2.04605626186E+01
7.64849699399E+10	6.05455944015E-01	8.29686406089E+01	7.42335794313E-05	-1.15333660186E+02	1.69604354984E-05	1.50964521096E+02	4.46632618452E-01	1.90335065200E+01
7.64909819639E+10	5.90030594697E-01	8.04514598808E+01	6.10245473657E-05	-1.69267055126E+02	4.90805886088E-05	-1.38364059175E+02	4.43163131437E-01	1.70968704731E+01
7.64969939880E+10	5.72979735511E-01	7.70270140148E+01	6.81524423079E-05	-1.50918289241E+02	2.06604054107E-05	6.41924773453E+01	4.39231764878E-01	1.51685678610E+01
7.65030060120E+10	5.57611347211E-01	7.39989962299E+01	2.27641113365E-05	1.37494107913E+02	3.29415338898E-05	-1.06778043528E+02	4.38651295967E-01	1.33655251862E+01
7.65090180361E+10	5.53507443179E-01	7.21102331739E+01	6.15682620175E-05	-1.12152958006E+02	5.40196054825E-05	-7.32245779239E+01	4.36716659134E-01	1.20570059535E+01
7.65150300601E+10	5.38820747544E-01	6.89049876927E+01	6.25799029908E-05	-1.01302126749E+02	5.61291980331E-05	-1.62233826764E+02	4.34720107428E-01	1.01105475431E+01
7.65210420842E+10	5.20147395513E-01	6.48611988806E+01	9.36571156498E-05	1.00273068645E+02	1.72295662021E-05	1.46319217167E+02	4.37696730926E-01	8.55613280505E+00
7.65270541082E+10	5.12656881860E-01	6.33780722222E+01	2.61717403689E-05	-7.11660882331E+01	2.09984536808E-05	-1.02186179540E+02	4.36545209133E-01	7.76098430466E+00
7.65330661323E+10	5.09654006237E-01	6.14438024662E+01	6.06621261564E-05	-1.04115473542E+02	3.07917967302E-05	-7.29444084698E+01	4.35340012732E-01	6.23700332502E+00
7.65390781563E+10	5.03443282123E-01	6.02793894452E+01	6.52566373639E-05	-9.90106204774E+01	3.11342903640E-05	-6.59812446033E+01	4.31688743127E-01	3.76323010064E+00
7.65450901804E+10	5.00259492099E-01	5.79327891258E+01	3.40684881019E-05	-1.57118166872E+02	9.96674322423E-06	1.56614859225E+02	4.31379774396E-01	2.08192209435E+00
7.65511022044E+10	4.88466077381E-01	5.60744933706E+01	4.76961354752E-05	1.33555642758E+02	4.23251828739E-05	-1.17678643248E+02	4.29422638568E-01	9.10164681006E-01
7.65571142285E+10	4.76504434721E-01	5.26358885700E+01	4.50839140504E-05	-1.62150293200E+02	6.64282047155E-06	1.65595975280E+02	4.33505299472E-01	-3.10623873556E-01
7.65631262525E+10	4.76356115478E-01	5.33908275376E+01	3.93746242361E-05	6.15471941112E+01	2.61018208008E-05	9.42258527936E+01	4.34585384344E-01	-1.81027288004E+00
7.65691382766E+10	4.64076569663E-01	4.84335593767E+01	3.33095310445E-05	1.38467286680E+02	1.87693224794E-05	-8.51704149896E+01	4.28283359067E-01	-3.89927424662E+00
7.65751503006E+10	4.57185369540E-01	4.60587579467E+01	5.97364194378E-05	1.42449433470E+02	2.19105741566E-05	1.56281788207E+02	4.33408836355E-01	-5.06692192716E+00
7.65811623246E+10	4.50401580896E-01	4.37032077699E+01	3.21409647605E-05	-1.16621569894E+02	1.22882364637E-05	1.74564490869E+02	4.32291262713E-01	-5.70134281266E+00
7.65871743487E+10	4.45488485185E-01	4.18546747768E+01	3.35629261422E-05	-1.14346529991E+02	3.08369487884E-05	-9.62145274946E+01	4.34109861451E-01	-8.40629137079E+00
7.65931863727E+10	4.41190062323E-01	4.03367774619E+01	3.38210992379E-05	-1.17592468179E+02	2.06102216405E-05	1.00295856268E+02	4.34472516711E-01	-1.02552192257E+01
7.65991983968E+10	4.38158471931E-01	3.71570152606E+01	3.37069050471E-05	-1.66236077054E+02	1.32540997423E-05	9.34933588359E+01	4.36193424266E-01	-1.14773751129E+01
7.66052104208E+10	4.32700845871E-01	3.58930907412E+01	2.82712808915E-05	1.12285061373E+02	2.26583601208E-05	-1.76965379161E+02	4.33813984977E-01	-1.32420600998E+01
7.66112224449E+10	4.24455535910E-01	3.51233312740E+01	1.14440360564E-05	1.26023981884E+02	3.33404098096E-05	7.92278483505E+01	4.38269186930E-01	-1.48049087827E+01
7.66172344689E+10	4.24232332465E-01	3.21310919085E+01	5.76618167855E-05	-3.92107585638E+01	1.00708438609E-05	-1.44621962956E+02	4.38065201965E-01	-1.60143776703E+01
7.66232464930E+10	4.24479644594E-01	3.22111764837E+01	3.65562034680E-05	-1.67248395036E+02	5.03922336184E-05	2.49789831879E+01	4.40732246710E-01	-1.82877331610E+01
7.66292585170E+10	4.20475033382E-01	2.88675232756E+01	4.92852196744E-06	1.46601456953E+02	5.12908507812E-06	8.09572112030E+01	4.35463947565E-01	-1.87814502561E+01
7.66352705411E+10	4.15651178419E-01	2.64454388105E+01	2.09805684708E-05	1.22758354617E+02	1.09956356415E-05	3.80984119869E+01	4.39601689011E-01	-2.11999249220E+01
7.66412825651E+10	4.11975361210E-01	2.43784817688E+01	2.03643946439E-05	5.44412238996E+01	2.06210801802E-05	3.44199052286E+01	4.42266600872E-01	-2.29356606637E+01
7.66472945892E+10	4.08119557737E-01	2.36783613101E+01	5.20638793179E-05	1.26980998414E+02	4.15841697689E-05	1.13361000688E+02	4.43693116067E-01	-2.34082010007E+01
7.66533066132E+10	4.07205916071E-01	2.18644663300E+01	9.09443787687E-05	7.16679626112E+01	5.04543089686E-05	-1.43285411959E+01	4.49925295454E-01	-2.55537383249E+01
7.66593186373E+10	3.97476655728E-01	1.87746627627E+01	8.42500319446E-05	-2.64338744975E+01	9.21996843417E-06	2.98662505139E+01	4.48999091540E-01	-2.78597301248E+01
7.66653306613E+10	4.00609212241E-01	1.82138497721E+01	3.48833393569E-05	-7.22593996679E+01	3.13608244443E-05	-1.11471461378E+02	4.54884297949E-01	-2.96031188850E+01
7.66713426854E+10	4.01798589159E-01	1.65692597107E+01	2.71472295183E-05	-1.23963941042E+02	5.92340086270E-06	1.22363118880E+02	4.52800226882E-01	-3.00412622606E+01
7.66773547094E+10	4.01683613585E-01	1.42723571919E+01	2.81855617031E-05	-6.84572925399E+01	3.99065243451E-05	-1.42682321862E+02	4.52120278576E-01	-3.25038517684E+01
7.66833667335E+10	3.97999770988E-01	1.25990795532E+01	2.70907847091E-05	-1.70221703589E+01	6.28095502413E-05	-5.16767635856E+01	4.66080018260E-01	-3.40347578069E+01
7.66893787575E+10	3.92593109790E-01	1.06753396783E+01	9.62644064216E-06	-8.64522918041E+01	6.76226719809E-06	5.32405542658E-01	4.65285329476E-01	-3.59143812558E+01
7.66953907816E+10	3.94291915381E-01	9.51670518302E+00	1.06852433619E-05	-2.37699417158E+01	1.99134116291E-05	-3.90076511836E+01	4.70548908867E-01	-3.79162660115E+01
7.67014028056E+10	3.96362811858E-01	9.61682553662E+00	3.77217615598E-05	3.12541842200E+00	5.48661405159E-05	-9.64374810887E+01	4.70195174430E-01	-3.92165429693E+01
7.67074148297E+10	3.91506097934E-01	6.30296228913E+00	1.69409676419E-05	-1.42553198488E+02	3.97184527915E-05	1.55579541250E+02	4.72349563084E-01	-4.05237788520E+01
7.67134268537E+10	3.85806347003E-01	3.63998989768E+00	6.32515217867E-05	-9.27189145112E+01	2.61033028454E-05	-1.64347916394E+02	4.77248255654E-01	-4.29021973213E+01
7.67194388778E+10	3.92901313335E-01	1.19826684683E+00	2.34675021861E-05	1.40977468496E+02	2.92912919177E-05	1.18486511698E+02	4.79874071202E-01	-4.39937900199E+01
7.67254509018E+10	3.92564805492E-01	1.13921704834E+00	4.48013145955E-06	-2.06139530303E+01	1.96052212718E-05	-1.43728791136E+02	4.87398171519E-01	-4.53176362882E+01
7.67314629259E+10	3.86691024088E-01	-1.37014664894E+00	2.05270692963E-05	6.84288335455E+01	2.62011984765E-05	7.93532429136E+01	4.98879859393E-01	-4.79969979415E+01
7.67374749499E+10	3.90958205376E-01	-2.70076733680E+00	3.80868164220E-05	4.75796661273E+01	4.16336959702E-05	5.54345204232E+01	4.88680928980E-01	-4.85416185325E+01
7.67434869739E+10	3.91909926718E-01	-3.05828110499E+00	1.05065807565E-05	-1.35894827461E+02	2.47597451454E-05	3.94234196292E+01	4.98944723825E-01	-5.12893880932E+01
7.67494989980E+10	3.87618387464E-01	-4.87969984667E+00	2.86680350124E-05	-2.25970631019E+01	5.74898295904E-05	3.95625669176E+01	5.07049031507E-01	-5.37978773003E+01
7.67555110220E+10	3.80345873181E-01	-7.96763353106E+00	5.66727946637E-05	-1.00157956923E+02	5.97926651706E-05	-5.54367306917E+01	5.16140107703E-01	-5.55684860523E+01
7.67615230461E+10	3.83630037250E-01	-9.73490494054E+00	5.49785065175E-05	1.43306215326E+02	2.20556960111E-05	5.82254175236E+01	5.13954394236E-01	-5.63044365949E+01
7.67675350701E+10	3.85400868248E-01	-1.11255895835E+01	3.41490947275E-05	1.22181143422E+02	4.32634930115E-05	-1.71239755886E+02	5.22140086146E-01	-5.88916044145E+01
7.67735470942E+10	3.87894746347E-01	-1.18515716678E+01	3.62230276684E-05	1.38528992669E+02	1.73595012706E-05	-1.40494764261E+02	5.28541361086E-01	-6.05106427645E+01
7.67795591182E+10	3.91794454817E-01	-1.28077987650E+01	3.18359842312E-05	1.19973989461E+02	5.12356597277E-05	1.36465969103E+02	5.35106333654E-01	-6.23803582727E+01
7.67855711423E+10	3.91870901777E-01	-1.49225314116E+01	3.30423345179E-05	1.67520902415E+00	1.13681550772E-05	-1.20683410187E+02	5.36579518152E-01	-6.39003636812E+01
7.67915831663E+10	3.83738881469E-01	-1.66518713394E+01	4.21642195293E-05	-1.40017942749E+02	4.32431197686E-05	-1.79488622105E+01	5.49883952213E-01	-6.61074157606E+01
7.67975951904E+10	3.91148976528E-01	-1.91072416290E+01	2.06704750377E-05	-1.08504187410E+02	4.53570204663E-05	1.14337317210E+02	5.60208592157E-01	-6.85906023105E+01
7.68036072144E+10	3.84631962538E-01	-2.09689301113E+01	2.99948865186E-05	-1.16683353662E+02	3.60737027451E-06	5.65733053388E+01	5.75511647103E-01	-7.09725682619E+01
7.68096192385E+10	3.94232434806E-01	-2.18340433641E+01	8.50391863045E-06	-1.19718672758E+02	4.08831336998E-05	7.96275671450E+01	5.83194154335E-01	-7.28168934104E+01
7.68156312625E+10	3.90072525498E-01	-2.24655910615E+01	1.99797794662E-05	-1.50683677192E+02	2.96699060034E-05	-6.07715154331E+01	5.76851505699E-01	-7.35048463103E+01
7.68216432866E+10	3.89053959748E-01	-2.42914068324E+01	3.33382258252E-05	-1.67952507882E+02	4.40326014057E-05	8.59803607640E+01	5.86886042488E-01	-7.60755411045E+01
7.68276553106E+10	3.92613325188E-01	-2.69163548447E+01	3.91631439832E-05	-2.09124910253E+01	7.13320135267E-05	-8.62544468655E+01	5.99980045150E-01	-7.82620066798E+01
7.68336673347E+10	3.93512297617E-01	-2.78908916491E+01	6.47415581710E-05	1.49872746338E+02	3.69544261344E-05	1.26196150783E+02	6.05658494982E-01	-7.97275478964E+01
7.68396793587E+10	4.01919720000E-01	-2.91248899636E+01	5.46070449716E-05	9.95243732878E+01	4.10077433421E-05	8.46354842361E+00	6.16529676709E-01	-8.24012685372E+01
7.68456913828E+10	4.05534924064E-01	-3.16722667805E+01	1.61636530318E-05	-1.71382879336E+02	5.65008247440E-05	-7.07241122002E+01	6.41064133246E-01	-8.57027768817E+01
7.68517034068E+10	4.06206979837E-01	-3.29646474210E+01	4.21603939098E-06	-1.45462379586E+02	4.40196596186E-05	-7.42818976796E+01	6.31609510474E-01	-8.60515559660E+01
7.68577154309E+10	3.96561247698E-01	-3.44567049543E+01	3.08421195355E-05	1.29838235336E+02	7.80853008697E-05	1.54081696541E+02	6.60808712893E-01	-8.98652593546E+01
7.68637274549E+10	4.09178045980E-01	-3.58970676721E+01	2.05577679864E-05	1.20732120456E+02	7.53301572471E-05	1.08494258779E+02	6.70869966164E-01	-9.19976976964E+01
7.68697394790E+10	4.04116635102E-01	-3.66965206652E+01	5.30583078039E-05	1.08573701477E+02	3.91555830402E-05	1.00458916935E+02	6.79712979545E-01	-9.41476477538E+01
7.68757515030E+10	4.09092753086E-01	-3.85501227674E+01	3.02748648993E-05	7.50837588667E+01	7.27570571753E-05	-1.44998214152E+02	6.95291453461E-01	-9.72901373636E+01
7.68817635271E+10	4.18201168477E-01	-4.01312605504E+01	1.01519623978E-05	1.08033649221E+02	3.41594740635E-05	1.38965468826E+02	7.02279811482E-01	-9.93714212640E+01
7.68877755511E+10	4.16800508663E-01	-4.25087182041E+01	3.93271424676E-05	9.56053669515E+01	1.34071331074E-05	1.17695185397E+02	7.14105339908E-01	-1.01763396924E+02
7.68937875752E+10	4.22780828159E-01	-4.34683262263E+01	3.03900240503E-05	8.85099362538E+01	5.62434713211E-05	-6.80335432976E+01	7.29243852813E-01	-1.04625279757E+02
7.68997995992E+10	4.18765752564E-01	-4.50588478196E+01	7.48357617500E-06	-4.52728393280E+01	4.05584330736E-05	-2.80791425200E+01	7.49652104234E-01	-1.08113922185E+02
7.69058116232E+10	4.28061697237E-01	-4.72913292303E+01	2.11574300875E-05	1.74610242050E+02	1.86623120317E-05	-6.10173327684E+01	7.64763176972E-01	-1.10977620643E+02
7.69118236473E+10	4.21700283992E-01	-4.80390274716E+01	5.83957034499E-05	5.94419395416E+01	4.61857589792E-05	1.36357867411E+02	7.89839446235E-01	-1.14880667995E+02
7.69178356713E+10	4.36952247620E-01	-5.15629459563E+01	1.84523822211E-06	-1.52553844164E+02	2.09068235227E-05	-1.67422786875E+02	8.04588234264E-01	-1.18013749656E+02
7.69238476954E+10	4.38889919858E-01	-5.26808795300E+01	3.99830298927E-05	1.06180489047E+01	2.20905796372E-05	1.92546805086E+01	8.20633392119E-01	-1.21547078105E+02
7.69298597194E+10	4.52126492086E-01	-5.47054477280E+01	3.94335110750E-05	-1.73271269107E+02	1.06641449820E-04	7.66635392467E+01	8.43177195521E-01	-1.25441041503E+02
7.69358717435E+10	4.35670444845E-01	-5.46189955924E+01	2.35865287851E-05	-6.11755388901E+00	3.04844600211E-05	4.73195338388E+01	8.35455880484E-01	-1.27549757591E+02
7.69418837675E+10	4.40658965365E-01	-5.67334759705E+01	4.34056848153E-05	-5.40941402971E+01	1.06060988651E-04	6.00635575189E+01	8.61343558063E-01	-1.32274060453E+02
7.69478957916E+10	4.60319784745E-01	-5.92500716978E+01	1.18511549790E-05	-1.94705550369E+01	1.32772721605E-04	6.16432717807E+01	8.45627972074E-01	-1.33626569098E+02
7.69539078156E+10	4.52229206946E-01	-5.92173344057E+01	4.42564452377E-05	4.29112770784E+00	8.12633786313E-05	-2.75673786060E+01	8.77500740218E-01	-1.39655980156E+02
7.69599198397E+10	4.50953977443E-01	-6.08838433159E+01	2.95851583136E-05	1.61545383048E+01	7.75000305126E-05	-4.59958621249E+00	8.94152128379E-01	-1.44251663138E+02
7.69659318637E+10	4.68781291439E-01	-6.39440685021E+01	1.67986837411E-05	1.50247527096E+02	4.46813211922E-05	7.15016663412E+01	8.82127335068E-01	-1.46632238754E+02
7.69719438878E+10	4.67730410851E-01	-6.54581695721E+01	4.35797300814E-05	5.50248581098E+01	5.58020720419E-05	-6.43813258261E+01	8.87125345471E-01	-1.51133488246E+02
7.69779559118E+10	4.73311320243E-01	-6.71693873470E+01	8.41111849111E-05	2.18822269579E+00	4.87325561030E-05	1.24670440919E+02	8.98426788842E-01	-1.56057162041E+02
7.69839679359E+10	4.74982444263E-01	-6.84459581892E+01	3.54411668372E-05	-7.23233066578E+00	6.68375878571E-05	-2.78231826690E+01	8.93656186117E-01	-1.60114056636E+02
7.69899799599E+10	4.76056222780E-01	-6.90288843159E+01	6.65456072314E-05	-1.57061294432E+01	9.94092735747E-05	-5.05067533711E+00	8.88015196648E-01	-1.64894733923E+02
7.69959919840E+10	4.72311862813E-01	-6.94958869286E+01	3.85416234303E-05	3.47461545703E+01	2.03511478093E-04	-1.73841476004E+01	8.77426792899E-01	-1.68809834120E+02
7.70020040080E+10	4.91464259458E-01	-7.32039727386E+01	1.13606260787E-04	-8.96205250831E+01	1.31875542511E-04	-6.26259914771E+01	8.65263101044E-01	-1.73306917768E+02
7.70080160321E+10	5.07825658704E-01	-7.59585954100E+01	8.35535852242E-05	-6.87416692677E+01	6.74125727889E-05	-6.91694079120E+01	8.45696996005E-01	-1.76805503476E+02
7.70140280561E+10	5.16727573596E-01	-7.73332820922E+01	7.37777601334E-05	-4.99002119695E+01	1.45048384724E-04	-6.44100048984E+01	8.31382993982E-01	1.78752805401E+02
7.70200400802E+10	5.19688366940E-01	-7.90717628156E+01	6.62754623312E-05	-3.34918653833E+00	1.52345457427E-04	-1.13584353374E+02	8.11646478056E-01	1.74591735028E+02
7.70260521042E+10	4.99549350836E-01	-7.77493953746E+01	6.09561124695E-05	-8.15184255836E+01	1.64747350496E-04	-1.05401206194E+02	7.96904103974E-01	1.69212543059E+02
7.70320641283E+10	5.25586694677E-01	-8.21411777018E+01	2.54032541101E-05	-3.17755083023E+01	1.23465426162E-04	-9.27170440297E+01	7.66212540789E-01	1.67823572233E+02
7.70380761523E+10	5.23263531970E-01	-8.16955522707E+01	2.17385980130E-05	-9.67221224889E+01	1.21087453133E-04	-7.83767986266E+01	7.42059559090E-01	1.62735413318E+02
7.70440881764E+10	5.46202067126E-01	-8.68427340610E+01	8.66944018052E-05	-7.19036383128E+01	8.04579658111E-05	-7.66122349296E+01	7.13773513199E-01	1.60169114521E+02
7.70501002004E+10	5.56351774694E-01	-8.80262712566E+01	7.77665393025E-05	-7.43177599215E+01	1.54352753578E-04	-5.91499163464E+01	6.90921489474E-01	1.57203607392E+02
7.70561122244E+10	5.63292089678E-01	-8.92501697397E+01	8.93609822229E-05	-9.14577975085E+01	1.54306876884E-04	-1.20291850080E+02	6.64959878885E-01	1.54216740084E+02
7.70621242485E+10	5.75094827996E-01	-9.15136554107E+01	1.20951427889E-04	-1.03069761793E+02	7.25123174402E-05	1.42009246272E+02	6.43008324683E-01	1.50331756160E+02
7.70681362725E+10	5.85540863284E-01	-9.41365043934E+01	8.85146438494E-05	-1.52398056456E+02	1.13798448329E-04	-1.69211275950E+02	6.19056334813E-01	1.47629219643E+02
7.70741482966E+10	5.88595842168E-01	-9.49390787440E+01	9.00674425659E-05	-1.29583207155E+02	1.76599170975E-04	-1.49307806806E+02	5.89404323088E-01	1.47949278978E+02
7.70801603206E+10	5.92408667853E-01	-9.61806598754E+01	4.95012382292E-05	-1.43579308589E+02	1.28780600041E-04	-1.52126478010E+02	5.68421321630E-01	1.45615934167E+02
7.70861723447E+10	6.01200268076E-01	-9.82592101955E+01	1.06595113440E-04	-1.69811302614E+02	2.53259830819E-05	-1.69031650288E+02	5.47406075852E-01	1.43391124877E+02
7.70921843687E+10	6.13440747820E-01	-1.00595916220E+02	3.94382437320E-05	-1.34100811738E+02	3.91670209708E-05	-9.17907706414E+01	5.33496238181E-01	1.40111723377E+02
7.70981963928E+10	6.35831672248E-01	-1.03064411846E+02	3.04770484463E-05	-1.21147347213E+02	4.63119279104E-05	-5.14538581670E+01	5.12908333841E-01	1.39166789479E+02
7.71042084168E+10	6.47869500673E-01	-1.05021579761E+02	4.01452558083E-05	-7.99920507950E+01	2.66211000998E-05	-1.58288174793E+02	4.93942921491E-01	1.38815153575E+02
7.71102204409E+10	6.71360502478E-01	-1.08334353784E+02	1.18142069794E-04	-1.42530162297E+02	6.22457092400E-05	1.46386242674E+02	4.79210783338E-01	1.37899542985E+02
7.71162324649E+10	6.79549098320E-01	-1.10360071259E+02	7.54336866523E-05	-1.55840524847E+02	8.86778203702E-05	1.58981813839E+02	4.69658679745E-01	1.34944453077E+02
7.71222444890E+10	6.78664075291E-01	-1.11437592958E+02	1.45379046468E-04	1.78327343853E+02	4.53189183999E-05	-1.39366767287E+02	4.55110901734E-01	1.34007106533E+02
7.71282565130E+10	6.90039003180E-01	-1.12985046314E+02	5.10194141138E-05	2.56919279790E+01	1.10558864280E-04	1.29637672404E+02	4.45079659063E-01	1.33987367949E+02
7.71342685371E+10	6.96170088274E-01	-1.14369201866E+02	5.58042054795E-05	-1.05481085679E+02	6.19621617555E-05	1.68547414206E+02	4.36994826790E-01	1.30972760387E+02
7.71402805611E+10	7.41262137881E-01	-1.19422499224E+02	5.40665288966E-05	1.67981282406E+02	1.24696209801E-04	1.66528053538E+02	4.28482879183E-01	1.30598699647E+02
7.71462925852E+10	7.44137278738E-01	-1.21285458362E+02	8.91266793975E-05	-1.73881746910E+02	1.55272603889E-04	1.34135128637E+02	4.22616320988E-01	1.31508524916E+02
7.71523046092E+10	7.54577972153E-01	-1.22634479129E+02	1.18003031317E-04	-1.70168991316E+02	9.38040044227E-05	1.13847047545E+02	4.16283789513E-01	1.30087815927E+02
7.71583166333E+10	7.65797200525E-01	-1.24497644467E+02	1.17465826978E-04	1.53803519994E+02	9.92072556750E-05	1.25586156853E+02	4.15645722246E-01	1.28406734442E+02
7.71643286573E+10	8.01653225644E-01	-1.28793228046E+02	1.19293578486E-04	1.66160426493E+02	8.75106242344E-05	1.37590074758E+02	4.09700154819E-01	1.29341741705E+02
7.71703406814E+10	8.11430538955E-01	-1.30564345373E+02	1.38276475963E-04	1.57672245163E+02	1.40823553887E-04	1.12880425742E+02	4.06191960226E-01	1.27637937985E+02
7.71763527054E+10	8.16252155230E-01	-1.32162998340E+02	8.89495650312E-05	1.44976493308E+02	2.90700312243E-04	9.60394797324E+01	4.10014831660E-01	1.25910735466E+02
7.71823647295E+10	8.21378135924E-01	-1.33387684298E+02	1.07044188145E-04	7.50393764215E+01	1.34028605177E-04	6.31532367213E+01	4.09153569715E-01	1.25941818773E+02
7.71883767535E+10	8.38495113986E-01	-1.36091739375E+02	2.82020784551E-05	9.61598036287E+01	1.12722556417E-04	4.93247906129E+01	4.08762061676E-01	1.25922082340E+02
7.71943887776E+10	8.74302838270E-01	-1.39907100024E+02	7.41395925082E-05	8.92263341201E+01	8.54241192778E-05	9.95499688955E+01	4.10851235860E-01	1.24996977124E+02
7.72004008016E+10	9.09880525507E-01	-1.44252845080E+02	1.55776213903E-04	4.99412855419E+01	2.38012172874E-05	-9.59971618064E+01	4.15975037958E-01	1.21920805941E+02
7.72064128257E+10	9.09791940484E-01	-1.45897696266E+02	9.29097992027E-05	5.22668051055E+01	4.64872897857E-05	1.39483396508E+01	4.17283040320E-01	1.20646429826E+02
7.72124248497E+10	9.36520100760E-01	-1.49205984137E+02	1.03304776354E-04	6.81116697968E+01	8.31574740933E-05	2.80694190466E+01	4.20437162483E-01	1.18573564388E+02
7.72184368737E+10	9.67187025522E-01	-1.53494630316E+02	1.08454611054E-04	1.42192677614E+02	1.16838371875E-04	2.69776531789E+01	4.26130687328E-01	1.17512548734E+02
7.72244488978E+10	9.78433545967E-01	-1.56156961010E+02	2.56513317015E-04	4.91500633634E+01	1.24845996800E-04	-4.35564350010E-01	4.31786137694E-01	1.15457502192E+02
7.72304609218E+10	1.01277916734E+00	-1.60689345321E+02	1.03375099495E-04	2.86380160453E+01	1.78455377929E-04	-1.71986097791E+01	4.34359826690E-01	1.15991451126E+02
7.72364729459E+10	1.01535919763E+00	-1.61880135812E+02	2.41182612754E-04	1.94715969914E+01	1.08735300286E-04	-1.39210547016E+01	4.37885751039E-01	1.15359975052E+02
7.72424849699E+10	1.04083636461E+00	-1.65642012533E+02	2.15202327706E-04	-2.04812851086E+01	9.42102007491E-05	-5.99878133379E+01	4.45833468351E-01	1.11126406927E+02
7.72484969940E+10	1.06063724784E+00	-1.69531796295E+02	7.02002798662E-05	-2.04233664579E+01	1.09825569910E-04	-4.18574261222E+01	4.49657455191E-01	1.08058682134E+02
7.72545090180E+10	1.07407575369E+00	-1.72339304532E+02	1.95051897390E-04	3.47432436857E+01	8.57499766896E-05	-7.55482106591E+01	4.54308018228E-01	1.06984434422E+02
7.72605210421E+10	1.09902651728E+00	-1.77244074785E+02	6.86856223723E-05	-2.56493178665E+01	8.34072866399E-05	-6.22315696720E+01	4.55812302228E-01	1.04068187246E+02
7.72665330661E+10	1.12252407369E+00	1.77230738359E+02	2.11711527899E-04	4.06910992103E+00	1.84957430887E-04	-2.35414533108E+01	4.60187186265E-01	1.02665500178E+02
7.72725450902E+10	1.11652223598E+00	1.75475461167E+02	1.13767217809E-04	-8.81568997521E+01	6.63721251904E-05	5.37412843276E+00	4.64391372174E-01	9.98696329223E+01
7.72785571142E+10	1.11461278750E+00	1.74134167472E+02	9.59454553829E-06	1.40574350630E+02	8.29867472677E-05	-2.30854000455E+01	4.67258224706E-01	9.73721177932E+01
7.72845691383E+10	1.15625813986E+00	1.66260529533E+02	1.21396654710E-04	2.40977810721E+01	2.23497578160E-05	-4.55922839582E+01	4.67255475429E-01	9.60652799602E+01
7.72905811623E+10	1.15810213356E+00	1.63256226917E+02	1.26948154515E-04	-4.68812316142E+01	6.48596495818E-05	-2.66384412927E+01	4.69010018401E-01	9.08054096347E+01
7.72965931864E+10	1.15950604406E+00	1.60033383749E+02	1.79196202862E-04	-6.95292341074E+01	4.70296422715E-05	-6.57433870408E+01	4.66875628081E-01	8.98486060495E+01
7.73026052104E+10	1.15636973677E+00	1.58653005738E+02	2.25063477191E-04	-6.58381071308E+01	8.91772800026E-05	-6.84993810081E+01	4.66129381591E-01	8.67102284552E+01
7.73086172345E+10	1.16110424811E+00	1.52070583186E+02	1.23226213969E-04	-1.25434597950E+02	9.30759654719E-05	-1.17756577489E+02	4.63954766927E-01	8.37355083257E+01
7.73146292585E+10	1.15510311507E+00	1.48330237298E+02	1.37723873176E-04	-8.29745296441E+01	2.12943526632E-05	-5.98026755064E+01	4.61709523241E-01	8.00481570341E+01
7.73206412826E+10	1.13898282863E+00	1.44729150267E+02	1.93655826416E-04	-2.03115012376E+01	5.39507925382E-05	-7.16986910690E+01	4.59422340357E-01	7.85799387016E+01
7.73266533066E+10	1.14965716801E+00	1.40253063487E+02	8.82841064668E-05	-8.44094484125E+01	5.64026105090E-05	-7.36175438180E+01	4.57474963566E-01	7.74061801850E+01
7.73326653307E+10	1.13753553531E+00	1.36361943661E+02	1.82826670390E-04	-9.80593135115E+01	3.82911868414E-05	-9.17952451896E+01	4.54155231703E-01	7.43243409881E+01
7.73386773547E+10	1.12830946416E+00	1.33229496640E+02	1.73579665920E-04	-1.25308203955E+02	1.17870837463E-04	-1.03876366870E+02	4.46279090905E-01	7.11064888266E+01
7.73446893788E+10	1.12008412953E+00	1.28370380243E+02	7.85529382827E-05	-1.21362251208E+02	9.45690646483E-05	-1.27576548842E+02	4.43669396730E-01	6.95517184951E+01
7.73507014028E+10	1.09620128147E+00	1.23540782884E+02	1.18990570559E-04	-1.41476966774E+02	3.81783414629E-05	-9.67058262198E+01	4.43969376693E-01	6.73147343973E+01
7.73567134269E+10	1.08755807229E+00	1.19089468027E+02	2.91057414288E-04	-1.52724743908E+02	9.57125764597E-05	-1.62322107471E+02	4.37536511615E-01	6.52807199705E+01
7.73627254509E+10	1.07200798947E+00	1.16270982187E+02	5.88698653235E-05	1.01862137631E+02	1.06995050519E-04	1.53059647210E+02	4.33221366720E-01	6.17061156792E+01
7.73687374749E+10	1.04112063425E+00	1.13642412550E+02	5.74536598774E-05	-1.57258154312E+02	5.27080611628E-05	1.06589405252E+02	4.30101479468E-01	5.84129759607E+01
7.73747494990E+10	1.02557081411E+00	1.11553702616E+02	2.35021574580E-04	-1.45969810319E+02	7.52688107625E-05	-1.07984899522E+02	4.26348290308E-01	5.66621055834E+01
7.73807615230E+10	1.02010989594E+00	1.05951786068E+02	1.14300591408E-04	-1.33655374985E+02	4.51921868006E-05	-1.32204565955E+02	4.26692941866E-01	5.63674723095E+01
7.73867735471E+10	1.00314949749E+00	1.04661785091E+02	1.22423887435E-04	-1.51192044153E+02	1.83467140412E-05	-1.61743736180E+02	4.22218567035E-01	5.41990220747E+01
7.73927855711E+10	9.74483491594E-01	1.02639081225E+02	1.70871025996E-04	-1.77061745126E+02	4.38577890022E-05	1.78989226087E+02	4.17909926817E-01	5.19865653180E+01
7.73987975952E+10	9.61838640150E-01	9.99170167072E+01	9.20516761107E-05	1.77225369096E+02	6.92403888058E-05	1.57824816983E+02	4.15885588188E-01	4.91824363851E+01
7.74048096192E+10	9.39792067508E-01	9.61096212464E+01	1.64328774554E-04	1.73838391550E+02	2.02191375265E-05	1.43243772401E+02	4.15582749641E-01	4.73881243265E+01
7.74108216433E+10	9.29392577734E-01	9.52875115073E+01	2.51712813681E-05	4.82854424554E+01	1.05974290369E-05	-1.16797150865E+02	4.17507242781E-01	4.61925259733E+01
7.74168336673E+10	8.98182489638E-01	8.96703724232E+01	7.91784263179E-05	1.45853783475E+02	2.88770361573E-05	1.40120518087E+02	4.15008500976E-01	4.29443373471E+01
7.74228456914E+10	8.76842017927E-01	8.57086753609E+01	8.09129483324E-05	1.59171335402E+02	9.98393695533E-05	1.25990171049E+02	4.14725561577E-01	4.20593692034E+01
7.74288577154E+10	8.53248974232E-01	8.21592039860E+01	8.54700965684E-05	3.86673584406E+01	5.47887864030E-05	-1.65369887431E+02	4.11501501546E-01	3.80179812751E+01
7.74348697395E+10	8.42652355979E-01	8.11259173638E+01	2.81012839262E-05	-6.18463227438E+00	3.66012265422E-05	1.23787724726E+02	4.14857580827E-01	3.67469794381E+01
7.74408817635E+10	8.37539771366E-01	8.21279821928E+01	8.22841706013E-05	-1.74194855915E+02	4.19083601416E-05	1.23898514052E+02	4.12102777095E-01	3.40292757301E+01
7.74468937876E+10	8.17286158872E-01	7.84514002897E+01	1.00176494085E-04	1.37302930915E+02	7.28948049961E-05	1.77994437033E+02	4.10676278718E-01	3.17945440940E+01
7.74529058116E+10	7.94098170890E-01	7.42193925832E+01	8.30603421115E-05	1.41654454154E+02	5.96070486738E-05	-1.22692089111E+02	4.11067742362E-01	3.05618915740E+01
7.74589178357E+10	7.72164684438E-01	7.05935514782E+01	7.00068263131E-05	1.11686501130E+02	1.04981784048E-04	1.39040136991E+02	4.08916404251E-01	2.76839247696E+01
7.74649298597E+10	7.69727086695E-01	7.11032748507E+01	1.08761174343E-04	1.44373619698E+02	8.36603132800E-05	1.25636181376E+02	4.07702062883E-01	2.38715128768E+01
7.74709418838E+10	7.57127286620E-01	6.92792615345E+01	6.52243746936E-05	1.33024473447E+02	4.00647717382E-05	-1.70348449026E+02	4.01212693441E-01	2.09846800972E+01
7.74769539078E+10	7.36875302467E-01	6.51014812480E+01	8.68736928614E-05	1.27263590011E+02	1.00115900849E-04	1.12972779937E+02	4.00356382143E-01	2.01670515816E+01
7.74829659319E+10	7.25540633732E-01	6.33909878219E+01	1.65874136551E-04	8.22839980867E+01	6.33766897627E-05	1.24017432534E+02	4.02222269888E-01	1.67116057031E+01
7.74889779559E+10	7.18602299761E-01	6.28579336175E+01	1.59613094421E-04	8.81940510989E+01	8.06715345396E-05	1.02080300639E+02	3.98830717755E-01	1.42480936429E+01
7.74949899800E+10	6.95424224342E-01	5.91176004774E+01	1.42197404182E-04	9.28422652243E+01	5.45966059369E-05	9.42501833090E+01	3.89443123657E-01	1.08825811464E+01
7.75010020040E+10	6.79838230916E-01	5.63394624259E+01	1.40752888977E-04	8.99749392418E+01	7.97632329390E-05	8.92075609622E+01	3.89755684314E-01	1.04383428279E+01
7.75070140281E+10	6.75513656541E-01	5.44595701482E+01	1.29607219251E-04	6.19882902624E+01	9.42662785529E-05	8.25927527374E+01	3.86196486741E-01	7.21104366884E+00
7.75130260521E+10	6.58985354388E-01	5.22247008677E+01	1.22225859957E-04	5.89405562511E+01	8.54967363677E-05	9.40305698612E+01	3.83427592029E-01	4.85314742820E+00
7.75190380762E+10	6.36608474083E-01	4.80771082443E+01	1.02625065188E-04	3.07303616415E+01	9.59777071423E-05	6.98145315209E+01	3.81791298298E-01	2.00590773518E+00
7.75250501002E+10	6.39795932204E-01	4.80535826126E+01	1.39126517380E-04	4.27926176878E+01	4.65028075286E-05	1.19345065404E+01	3.76459543115E-01	-3.75538963097E-01
7.75310621242E+10	6.24680527820E-01	4.55381610057E+01	7.31050822831E-05	4.19910062942E+01	7.52389926493E-05	6.55784160172E+00	3.77560594267E-01	-2.14918690389E+00
7.75370741483E+10	6.17248542666E-01	4.50168270525E+01	9.56420766687E-05	4.98244454413E+01	7.69264459759E-05	6.64273305481E+01	3.78590515470E-01	-4.72522436363E+00
7.75430861723E+10	6.14715304688E-01	4.36564745134E+01	1.52694726794E-04	1.71532675287E+00	9.18374144899E-05	-9.16609961458E+00	3.71594966596E-01	-6.54568420063E+00
7.75490981964E+10	6.03590547796E-01	4.07063594060E+01	3.97754932902E-05	1.14936159477E+01	7.79358435260E-05	-1.56824954867E+01	3.70760677286E-01	-8.22689572183E+00
7.75551102204E+10	5.95572038890E-01	3.93746525414E+01	8.27829625686E-05	-2.56978452367E+01	9.94752350223E-05	-1.27880551224E+01	3.68211975990E-01	-1.18199794304E+01
7.75611222445E+10	5.87995555302E-01	3.75947523288E+01	8.31547848069E-05	-2.30119806923E+00	3.38309900999E-05	2.31744395562E+01	3.65471975080E-01	-1.29331392091E+01
7.75671342685E+10	5.83637869971E-01	3.70200072114E+01	4.54397797570E-05	6.18450579418E+00	4.83040019608E-05	-3.22956747953E+01	3.64411153179E-01	-1.54771480519E+01
7.75731462926E+10	5.57859876607E-01	3.20121870386E+01	9.36946782960E-05	-5.26071037126E+01	6.86758416645E-05	-3.07057934380E+01	3.63520689575E-01	-1.79491883118E+01
7.75791583166E+10	5.54787712609E-01	3.06458360071E+01	6.21156302806E-05	-6.39640185953E+01	7.19566591064E-05	-4.67789661217E+01	3.62558822876E-01	-2.00621793292E+01
7.75851703407E+10	5.51239670319E-01	3.00820037480E+01	6.20945034089E-05	-3.59866558985E+01	6.83890129622E-05	-4.20523249188E+01	3.59629444795E-01	-2.24563311710E+01
7.75911823647E+10	5.47485076461E-01	2.82990519144E+01	3.79127362735E-05	1.05711703816E+00	2.86892413827E-05	-6.47987911012E+01	3.54266412978E-01	-2.47872417935E+01
7.75971943888E+10	5.35562361834E-01	2.65419953806E+01	4.38345907852E-05	-4.73614591733E+01	7.47186580247E-05	-3.73505463357E+01	3.57579527531E-01	-2.69945247020E+01
7.76032064128E+10	5.26935848594E-01	2.41471882406E+01	5.14570110233E-05	-4.30543655980E+01	4.30896995002E-05	-6.29590300097E+01	3.57627668730E-01	-2.95686729942E+01
7.76092184369E+10	5.27696486678E-01	2.40851990659E+01	6.98319298507E-05	-5.95802776888E+01	5.93711505173E-05	-4.19797093306E+01	3.54081868538E-01	-3.18970239229E+01
7.76152304609E+10	5.29171006104E-01	2.22997506228E+01	5.62203927175E-05	-7.27447182747E+01	8.25253892824E-05	-2.08286844428E+01	3.53813544301E-01	-3.46071796100E+01
7.76212424850E+10	5.10142557183E-01	1.91275637789E+01	9.63413045590E-05	-7.91525334044E+01	6.87089716585E-05	-7.45057184353E+01	3.54766961501E-01	-3.72542038819E+01
7.76272545090E+10	5.05290724406E-01	1.61754604579E+01	5.12662533577E-05	-4.62192545862E+01	1.19975025323E-05	-1.83407360875E+01	3.52096644906E-01	-3.79222932422E+01
7.76332665331E+10	5.06791502713E-01	1.62502940390E+01	5.98014565069E-05	-7.36005939784E+01	2.96953984543E-05	1.63542688484E+00	3.51471560846E-01	-4.09626468768E+01
7.76392785571E+10	5.01728046127E-01	1.53879258034E+01	8.31135632201E-05	-8.86073271259E+01	7.78939045107E-05	-9.51811315322E+00	3.47833563420E-01	-4.39664377786E+01
7.76452905812E+10	4.97510174044E-01	1.39450945841E+01	4.24250239672E-05	-5.17942220929E+01	7.82625348697E-05	-6.67450974093E+01	3.51327292003E-01	-4.73394951597E+01
7.76513026052E+10	4.84783993110E-01	9.77195646713E+00	5.64402798189E-05	-7.91460741551E+01	4.87779230074E-05	-4.91602966956E+01	3.48422942791E-01	-4.80401933589E+01
7.76573146293E+10	4.92665008327E-01	9.10100507782E+00	6.01831256956E-05	-8.42219538718E+01	4.06501565969E-05	-8.74814532787E+01	3.45855362748E-01	-5.00271792507E+01
7.76633266533E+10	4.84677333294E-01	7.83176050508E+00	1.05686656064E-04	-6.70487555425E+01	4.77485680786E-05	-8.50436847993E+01	3.46944727706E-01	-5.24705036693E+01
7.76693386774E+10	4.80768114984E-01	6.18350067338E+00	8.21101735768E-05	-1.34339099161E+02	8.59314751201E-05	-1.05649325706E+02	3.48260450248E-01	-5.49930095669E+01
7.76753507014E+10	4.71962177993E-01	4.88269254519E+00	3.57575786892E-05	-1.34737503394E+02	8.70733902685E-05	-8.59679894747E+01	3.44394196918E-01	-5.75969778094E+01
7.76813627255E+10	4.70084364215E-01	3.43028269889E+00	7.40899329796E-05	-1.26961764661E+02	1.08925394984E-04	-1.02463643882E+02	3.43926856511E-01	-5.99048273173E+01
7.76873747495E+10	4.78062440005E-01	9.26498319159E-01	6.80635748489E-05	-1.49281843498E+02	9.71030893756E-05	-1.43211967316E+02	3.47466081696E-01	-6.11766410158E+01
7.76933867735E+10	4.58290897894E-01	-7.43676225704E-01	7.35479231455E-05	-1.25060522826E+02	4.28053372690E-05	-1.23845413220E+02	3.45624469651E-01	-6.31809673610E+01
7.76993987976E+10	4.66102006138E-01	-9.92472405964E-01	3.76357136505E-05	-1.67778406193E+02	8.94276707427E-05	1.44793936906E+02	3.47141953130E-01	-6.60086325841E+01
7.77054108216E+10	4.57796872882E-01	-2.51214795006E+00	2.13020735029E-05	1.60090480731E+02	5.11763530032E-05	-1.29566907384E+02	3.46114767406E-01	-6.76709352190E+01
7.77114228457E+10	4.59668685040E-01	-4.97361974856E+00	5.13011072824E-05	1.71847499965E+02	7.02149054554E-05	-1.48179507192E+02	3.47702975855E-01	-6.94960583019E+01
7.77174348697E+10	4.47520459988E-01	-6.79728377103E+00	6.16950961080E-05	1.71776319762E+02	6.47525718584E-05	-1.10817093743E+02	3.54087996479E-01	-7.12450792441E+01
7.77234468938E+10	4.41931340572E-01	-8.80783741919E+00	6.87654957906E-05	1.64495298779E+02	6.97502857407E-05	-1.74097172845E+02	3.55688976443E-01	-7.31744433958E+01
7.77294589178E+10	4.52049399670E-01	-8.89305302324E+00	5.78250765283E-05	1.67864839012E+02	8.68490287977E-05	-1.43276154220E+02	3.58122450961E-01	-7.51108600408E+01
7.77354709419E+10	4.39477210430E-01	-1.24465057332E+01	6.90172830518E-05	1.29087290702E+02	7.99332269980E-05	1.50978993096E+02	3.60475349864E-01	-7.75930565428E+01
7.77414829659E+10	4.40758994197E-01	-1.21973831177E+01	6.60392362103E-05	1.06523315087E+02	5.75780327029E-05	1.51582795459E+02	3.65773383278E-01	-7.93824209033E+01
7.77474949900E+10	4.39850961485E-01	-1.45799941207E+01	3.28303597577E-05	1.26852215502E+02	6.26485544244E-05	1.70558162827E+02	3.74833945264E-01	-8.14041006996E+01
7.77535070140E+10	4.39094287021E-01	-1.70194284571E+01	5.14733104341E-05	1.26333471634E+02	8.43767490868E-05	9.27955642882E+01	3.84182902463E-01	-8.45211746073E+01
7.77595190381E+10	4.37399122823E-01	-1.84402304386E+01	3.52177126419E-05	8.01733266108E+01	3.65465950180E-05	7.01875181727E+01	3.89751638564E-01	-8.66439589538E+01
7.77655310621E+10	4.30209343763E-01	-1.87755682188E+01	4.74046040383E-05	7.92110952052E+01	6.00549584244E-06	-6.51821903095E+01	3.98745012504E-01	-8.90323460829E+01
7.77715430862E+10	4.34306223000E-01	-2.03967696992E+01	8.55550562170E-06	1.02570474986E+02	7.18366839597E-05	1.34818945492E+02	4.01942306181E-01	-9.06347797388E+01
7.77775551102E+10	4.37312302651E-01	-2.23212870063E+01	2.87443537165E-05	1.04024028735E+02	2.31996006256E-05	1.41625707833E+02	4.09668999638E-01	-9.24517603306E+01
7.77835671343E+10	4.35391793028E-01	-2.47589913445E+01	6.08260381406E-05	1.18846839497E+02	6.44416956989E-05	1.18047962054E+02	4.30585356549E-01	-9.60460628651E+01
7.77895791583E+10	4.30391786302E-01	-2.59767468171E+01	2.66009205830E-05	1.18255660333E+02	6.50134527334E-05	1.01767557828E+02	4.42345006552E-01	-9.86166595572E+01
7.77955911824E+10	4.34869354118E-01	-2.90982357929E+01	2.72794102070E-05	1.15344097890E+02	6.46169151460E-05	7.36511216168E+01	4.45504303943E-01	-1.00675444266E+02
7.78016032064E+10	4.26668390546E-01	-2.96638337741E+01	3.36059520458E-05	4.76353450618E+00	3.48333764960E-05	1.58580233048E+01	4.56967993678E-01	-1.03153145391E+02
7.78076152305E+10	4.24832443454E-01	-3.06942119643E+01	4.07148583654E-05	1.04057703110E+02	2.42744252282E-05	-1.71894868359E+02	4.72955687573E-01	-1.06012433199E+02
7.78136272545E+10	4.33035485033E-01	-3.25315615963E+01	5.19189839077E-05	1.73158086038E+02	7.16477126435E-05	-1.70218345220E+02	4.93187372104E-01	-1.09265037494E+02
7.78196392786E+10	4.33143122352E-01	-3.37448640622E+01	2.70206353810E-05	1.15963703609E+02	2.69893039037E-05	1.69843291671E+02	5.00717694771E-01	-1.11765371130E+02
7.78256513026E+10	4.34026310446E-01	-3.58599839716E+01	1.55387498949E-05	4.86652208043E+01	6.28219261657E-05	1.20413790680E+02	5.13668414592E-01	-1.14903309003E+02
7.78316633267E+10	4.25648789204E-01	-3.88322461081E+01	2.66324697479E-05	9.42824488861E+01	4.75165461275E-05	8.36560197931E+01	5.40890566298E-01	-1.19002287445E+02
7.78376753507E+10	4.32039111857E-01	-4.01663807905E+01	4.85220626843E-05	9.68860885307E+00	5.14962978519E-05	1.21083849789E+02	5.57138688164E-01	-1.22021561054E+02
7.78436873747E+10	4.34336173047E-01	-4.08213872624E+01	4.91748945915E-05	5.41485062090E+01	6.02764318654E-05	7.65670101447E+01	5.70094413622E-01	-1.24702543261E+02
7.78496993988E+10	4.36945345153E-01	-4.25623459534E+01	3.88339826191E-05	-1.66166900387E+01	5.72918279858E-05	1.24706464775E+02	5.95511435469E-01	-1.28921470650E+02
7.78557114228E+10	4.25646402312E-01	-4.42803330773E+01	3.04493500184E-05	2.89727421352E+01	9.05296756909E-05	5.85504090252E+01	6.14822572163E-01	-1.32528444635E+02
7.78617234469E+10	4.30749061221E-01	-4.63088253776E+01	1.51223707062E-05	5.99144280248E+00	3.31421883967E-05	-1.76627253543E+01	6.33145893050E-01	-1.35826522308E+02
7.78677354709E+10	4.34219547659E-01	-4.81922329442E+01	4.54920143341E-05	1.72196413634E+01	2.21810370872E-05	-3.40671346067E+01	6.63797544665E-01	-1.40667651308E+02
7.78737474950E+10	4.36973921607E-01	-4.97467674731E+01	2.60469452872E-05	1.33799658274E+01	6.19858049665E-05	-9.38486418786E+01	6.83447529312E-01	-1.44435403832E+02
7.78797595190E+10	4.37460984148E-01	-5.23307318858E+01	4.09185938576E-05	-5.28496085932E+01	7.16883061390E-05	-1.94055561346E+01	7.01650713052E-01	-1.47972650367E+02
7.78857715431E+10	4.32572250030E-01	-5.48158183885E+01	1.87091868271E-05	-5.98117554967E+01	7.10977900626E-05	5.61214664803E-01	7.18524213130E-01	-1.51632602589E+02
7.78917835671E+10	4.40745194554E-01	-5.49273240263E+01	5.76655404440E-05	-4.79195186607E+01	9.22057284039E-05	-2.96452156107E+01	7.45366464181E-01	-1.56362850022E+02
7.78977955912E+10	4.46329179826E-01	-5.83355665080E+01	2.37874958164E-05	-6.35614373257E+01	7.48619560665E-05	-6.85913140890E+01	7.72147308423E-01	-1.61266822584E+02
7.79038076152E+10	4.45202115129E-01	-6.04971225692E+01	1.02557959542E-05	1.90270082381E+00	1.45226590341E-04	-6.19657205950E+01	7.90924744733E-01	-1.65624135093E+02
7.79098196393E+10	4.49239222374E-01	-6.14621463855E+01	2.46484725624E-05	-3.06320067495E+01	6.74467239782E-05	-8.22142151708E+01	8.21958250334E-01	-1.71322660172E+02
7.79158316633E+10	4.44989585245E-01	-6.14668795830E+01	5.08112409039E-05	-1.22139220476E+02	4.06344276771E-05	1.18957049362E+02	8.39223746508E-01	-1.76082253512E+02
7.79218436874E+10	4.54652621144E-01	-6.60016865259E+01	1.07097735291E-05	9.00124443556E+01	1.06580818118E-04	-1.73235363526E+02	8.56875866599E-01	1.78954438431E+02
7.79278557114E+10	4.58530534738E-01	-6.80459942352E+01	6.63669556716E-05	-1.69015833886E+02	7.52926577149E-05	1.47390547520E+02	8.70496973126E-01	1.73187157677E+02
7.79338677355E+10	4.76860547906E-01	-7.05936113403E+01	3.88442131976E-05	-1.71977093372E+02	6.69870705483E-05	-1.59973836299E+02	8.88324804119E-01	1.68471578215E+02
7.79398797595E+10	4.63935233686E-01	-7.10262604060E+01	3.35830344189E-05	1.41101666738E+02	1.02450493419E-04	1.30731076325E+02	8.91663594896E-01	1.63931608353E+02
7.79458917836E+10	4.65073112998E-01	-7.27907528101E+01	3.44115365025E-05	1.47115590166E+02	8.80755606104E-05	-1.45561948490E+02	8.95151243018E-01	1.59163162859E+02
7.79519038076E+10	4.61539046443E-01	-7.51902325988E+01	2.31921488230E-05	6.27114079634E+01	9.68417428186E-05	5.07054750801E+01	9.05083376317E-01	1.52670802412E+02
7.79579158317E+10	4.74964290425E-01	-7.66257742734E+01	5.27532468872E-05	1.17463674594E+02	3.11288942974E-05	9.99961335453E+01	9.11510321214E-01	1.45523125839E+02
7.79639278557E+10	4.83468855697E-01	-7.88139379315E+01	6.43996337415E-06	-4.20201359593E+01	1.32635851372E-04	7.27638072808E+01	8.93946739677E-01	1.43956627549E+02
7.79699398798E+10	4.78818817347E-01	-8.12775680549E+01	3.58467289801E-05	5.81653231676E+01	1.33365977259E-04	-9.32461516142E+01	9.00115814953E-01	1.35060330201E+02
7.79759519038E+10	4.81286356846E-01	-8.31634058744E+01	8.35260246442E-06	-9.71452128180E+00	8.26387980489E-05	-1.46595408354E+02	8.85636451652E-01	1.31533470619E+02
7.79819639279E+10	5.02088161351E-01	-8.61916869462E+01	2.70799069121E-05	-5.82232358973E+01	2.05793640857E-05	-4.74087888552E+01	8.67992025751E-01	1.29149472868E+02
7.79879759519E+10	4.98448328205E-01	-8.80529497480E+01	4.10458445506E-05	1.63111601424E+02	8.21351425587E-05	1.52756342780E+02	8.62442912501E-01	1.21827320235E+02
7.79939879760E+10	5.11356803035E-01	-9.01406502811E+01	5.28455864981E-05	-1.48159248896E+02	4.49741151808E-05	-5.32090082487E+01	8.47353700298E-01	1.17915834759E+02
7.80000000000E+10	5.12803305531E-01	-9.27249308282E+01	6.42429645846E-05	-2.05750837073E+01	1.04263726373E-05	1.75035208794E+02	8.34463415601E-01	1.12623768344E+02
