# Hz S MA R 50
! CMT, C4420, 21421029, 25.1.2/3
! Date: 8/4/2025 4:29:33 PM
! Data: Format (Calibration Info)
! Freq	S33:Mag/Ang(F2)	S43:Mag/Ang(F2)	S34:Mag/Ang(F2)	S44:Mag/Ang(F2)
7.50000000000E+10	2.33542266417E-01	1.74487860485E+02	2.34515134440E-04	-5.63340049618E+01	1.54326986799E-04	-2.39299288735E+01	3.48563607587E-01	-2.76377663684E+01
7.50060120240E+10	2.37947699114E-01	1.67837306337E+02	1.47589366875E-04	-8.03275086701E+01	1.28557534018E-04	-5.25890834744E+01	3.55723951933E-01	-3.20559232251E+01
7.50120240481E+10	2.42821732549E-01	1.62255853126E+02	1.67878810104E-04	-7.33123297945E+01	1.39767395323E-04	-8.26163783503E+01	3.72508529099E-01	-3.86858164208E+01
7.50180360721E+10	2.43742911853E-01	1.56225975117E+02	1.62838974456E-04	-6.54490096493E+01	1.48925261755E-04	-6.11234448930E+01	3.85234722797E-01	-4.42512884269E+01
7.50240480962E+10	2.47987211989E-01	1.47773969443E+02	1.43445395463E-04	-1.14877571522E+02	2.55776928496E-04	-9.97099629330E+01	4.02921275376E-01	-5.08446535586E+01
7.50300601202E+10	2.52643537151E-01	1.43816552795E+02	3.01822918090E-04	-1.16091989169E+02	2.57027254193E-04	-1.22379825849E+02	4.15831957174E-01	-5.59204723075E+01
7.50360721443E+10	2.57034079239E-01	1.38956050970E+02	2.70925983321E-04	-1.38085273565E+02	2.88171223936E-04	-1.24029359560E+02	4.26811252965E-01	-6.07622518625E+01
7.50420841683E+10	2.61287876579E-01	1.34404014919E+02	2.18253217003E-04	-1.47873778218E+02	2.55020868098E-04	-1.46067514741E+02	4.41715725121E-01	-6.60944386605E+01
7.50480961924E+10	2.59932821589E-01	1.27973918468E+02	3.11492203457E-04	-1.68895982212E+02	2.40384391927E-04	-1.53193621298E+02	4.69473225109E-01	-7.53811654492E+01
7.50541082164E+10	2.62271846501E-01	1.25617482803E+02	2.86396249580E-04	-1.79361421785E+02	2.66592079053E-04	-1.57936086295E+02	4.92523584665E-01	-8.22850617582E+01
7.50601202405E+10	2.69251526900E-01	1.22695616204E+02	3.12697210311E-04	1.70546393025E+02	3.78106728763E-04	-1.76972462931E+02	5.22065652132E-01	-9.07687211282E+01
7.50661322645E+10	2.73899368811E-01	1.17918483699E+02	2.38210236805E-04	1.47391054005E+02	3.30818474210E-04	-1.71304777589E+02	5.48057236372E-01	-9.94878898179E+01
7.50721442886E+10	2.73027278778E-01	1.13650340824E+02	2.53491197550E-04	1.44367203286E+02	3.66947479631E-04	1.67021665099E+02	5.75339653933E-01	-1.08484597469E+02
7.50781563126E+10	2.73838932900E-01	1.07834256289E+02	2.87974964954E-04	1.29806918485E+02	3.78008252661E-04	1.31119673332E+02	5.99424979913E-01	-1.18319212807E+02
7.50841683367E+10	2.74577166401E-01	1.06627598214E+02	2.91026684972E-04	1.16728678587E+02	3.77360088559E-04	1.21040028508E+02	6.23768189104E-01	-1.29742112211E+02
7.50901803607E+10	2.79710324667E-01	1.04051395391E+02	2.49892226411E-04	1.02566663097E+02	3.46386169863E-04	1.14750671125E+02	6.31560395078E-01	-1.37522356292E+02
7.50961923848E+10	2.83116947465E-01	1.00311891847E+02	2.67210028279E-04	9.82131657229E+01	3.29482940189E-04	7.87841217518E+01	6.33931121281E-01	-1.49039994598E+02
7.51022044088E+10	2.81905815123E-01	9.65232266632E+01	1.82486118537E-04	8.40600935581E+01	3.31234161252E-04	5.27110267192E+01	6.33150022059E-01	-1.59885598054E+02
7.51082164329E+10	2.82766551501E-01	9.59138545074E+01	2.27553955812E-04	8.76490751335E+01	3.47620322262E-04	6.60615920901E+01	6.21713837792E-01	-1.70390165136E+02
7.51142284569E+10	2.82499794385E-01	9.07394259891E+01	1.64436411041E-04	7.35486521873E+01	2.60889435542E-04	5.89070720087E+01	6.05964008823E-01	-1.78347629875E+02
7.51202404810E+10	2.85534320111E-01	8.86540710945E+01	1.79738663759E-04	9.76323709662E+01	2.63528780013E-04	7.58562187282E+01	5.87355509736E-01	1.71597029929E+02
7.51262525050E+10	2.83763225848E-01	8.42844964789E+01	2.01433026372E-04	7.91125216878E+01	2.53508378777E-04	6.49489936385E+01	5.64013151364E-01	1.62592179320E+02
7.51322645291E+10	2.87098591107E-01	8.22502247263E+01	2.65553843957E-04	8.58919833121E+01	3.38207075249E-04	4.53185509793E+01	5.46853756578E-01	1.56452750535E+02
7.51382765531E+10	2.88249608793E-01	8.02889558294E+01	1.87096767605E-04	5.36131399918E+01	2.17609953586E-04	3.34984359291E+01	5.23858615208E-01	1.48633779133E+02
7.51442885772E+10	2.88068969316E-01	7.78878071043E+01	1.52653209281E-04	4.49413488305E+01	2.50480451713E-04	1.18464534120E+01	5.15887350739E-01	1.45048937452E+02
7.51503006012E+10	2.87736661200E-01	7.56200306302E+01	1.61409060305E-04	4.20406534236E+01	1.71593159981E-04	3.65021134003E+01	4.89998582962E-01	1.37114047278E+02
7.51563126253E+10	2.86545378264E-01	7.29274587381E+01	1.28116500136E-04	6.06731089966E+01	9.60478338345E-05	6.73780668315E-02	4.74790411568E-01	1.31738615567E+02
7.51623246493E+10	2.92402709640E-01	7.04614541394E+01	1.11713288285E-04	6.00030279075E+01	1.23445107190E-04	2.99718256989E+01	4.62141213131E-01	1.26776177169E+02
7.51683366733E+10	2.89608210566E-01	6.99755978217E+01	1.03060537048E-04	3.52738669169E+01	9.24269609958E-05	1.30539686755E+01	4.53252508003E-01	1.22001039144E+02
7.51743486974E+10	2.95705991707E-01	6.61330066903E+01	9.69538406142E-05	8.28794598248E+01	1.25594303014E-04	6.31888727759E+01	4.37364756137E-01	1.16857453159E+02
7.51803607214E+10	2.95177088459E-01	6.50827541114E+01	1.18408308505E-04	7.51709350433E+01	1.12531882724E-04	3.33006082759E+01	4.25736461156E-01	1.13467321234E+02
7.51863727455E+10	2.97501610906E-01	6.34187907514E+01	1.40435415697E-04	6.58453377411E+01	1.59319356050E-04	6.00775407387E+01	4.21399867137E-01	1.10380777146E+02
7.51923847695E+10	2.92148796124E-01	6.04819919674E+01	9.78091322403E-05	7.97174271449E+01	1.31670395306E-04	5.54401178490E+01	4.16632428095E-01	1.05970249520E+02
7.51983967936E+10	2.96036381209E-01	5.95328162950E+01	1.98198046071E-04	4.20028856862E+01	1.65922691114E-04	5.75493239063E+01	4.08573654860E-01	1.02317825208E+02
7.52044088176E+10	3.01352852318E-01	5.81650083164E+01	1.61295598169E-04	8.17854347271E+01	1.55835056122E-04	1.87758981502E+01	4.04366734730E-01	9.99450164184E+01
7.52104208417E+10	2.96899867996E-01	5.44046623610E+01	1.39274113804E-04	5.96089413767E+01	1.97657572118E-04	5.60155545147E+01	3.97669838157E-01	9.63751517133E+01
7.52164328657E+10	2.99840343166E-01	5.21517346022E+01	1.39849939204E-04	3.73914246757E+01	1.58793038488E-04	5.43087978411E+01	3.95821139145E-01	9.13847812151E+01
7.52224448898E+10	2.97543691876E-01	5.11126188826E+01	1.86971666892E-04	5.73413755066E+01	1.55342229069E-04	3.72856866924E+01	3.95940086740E-01	9.01191041446E+01
7.52284569138E+10	3.04793799613E-01	5.01072585314E+01	1.58218026051E-04	5.04796805767E+01	2.07592114823E-04	5.66546093367E+01	3.92356881813E-01	8.70651321107E+01
7.52344689379E+10	2.99262443154E-01	4.77133764682E+01	1.76093800606E-04	4.54414481656E+01	1.85475928267E-04	4.99354907978E+01	3.92856318479E-01	8.30231866345E+01
7.52404809619E+10	3.05885924780E-01	4.73331534403E+01	2.27637389818E-04	5.21207083764E+01	1.95968396045E-04	3.11792187460E+01	3.89756211123E-01	7.92533420047E+01
7.52464929860E+10	3.04300673704E-01	4.58871105203E+01	1.90610019320E-04	4.06244173004E+01	2.09069259712E-04	2.92449798962E+01	3.88754793524E-01	7.64474563588E+01
7.52525050100E+10	2.99704550938E-01	4.35626884783E+01	2.07556221317E-04	4.01608460504E+01	2.70951102683E-04	4.03489056559E+01	3.85645522653E-01	7.34840180556E+01
7.52585170341E+10	3.02552361953E-01	4.28202949569E+01	2.50692290072E-04	2.62601003850E+01	3.43384989859E-04	1.73242370207E+01	3.85226041542E-01	7.05410498513E+01
7.52645290581E+10	3.08595037614E-01	4.06145884699E+01	2.94720222758E-04	2.61298264736E+01	3.39741711062E-04	-1.78949029806E+00	3.85374390901E-01	6.78874258270E+01
7.52705410822E+10	3.07307243205E-01	3.89707442945E+01	2.51145599677E-04	1.36638448250E+01	2.91966845933E-04	1.76723497166E+00	3.80042610363E-01	6.52022189366E+01
7.52765531062E+10	3.07222551547E-01	3.74220897276E+01	2.67624708368E-04	7.95861704688E+00	3.19681885102E-04	-4.62561918450E+00	3.73372645363E-01	6.25489821532E+01
7.52825651303E+10	3.06231110672E-01	3.61513083588E+01	2.23073861242E-04	2.38964839260E+00	2.91314395348E-04	-2.49321835987E+01	3.71783828121E-01	5.89326928479E+01
7.52885771543E+10	3.12777889749E-01	3.66367272504E+01	2.29788396264E-04	-5.15581833605E+00	3.48796302012E-04	-6.65782022342E+00	3.76027747169E-01	5.78161126306E+01
7.52945891784E+10	3.20403587668E-01	3.43993767409E+01	2.47068077796E-04	-1.22993659924E+00	3.17089901222E-04	-9.78882685807E+00	3.74335905156E-01	5.48940515136E+01
7.53006012024E+10	3.19870581844E-01	3.36159518434E+01	2.68161796129E-04	2.48880728180E+00	3.22863021809E-04	-1.09353309734E+00	3.68846006212E-01	5.31863177350E+01
7.53066132265E+10	3.16925760457E-01	3.25255346994E+01	3.11870110642E-04	-6.62055090480E-01	3.83173116279E-04	-1.25664674051E+01	3.64637928620E-01	5.04628752857E+01
7.53126252505E+10	3.20222021034E-01	3.03395198394E+01	3.31371085525E-04	-1.32350684060E+01	3.28165600953E-04	-2.42437296408E+01	3.59941285156E-01	4.79061309651E+01
7.53186372745E+10	3.30062739353E-01	2.83988513165E+01	3.77428615207E-04	-1.96330630954E+01	3.72336341343E-04	-1.97946509325E+01	3.61372585854E-01	4.48660562082E+01
7.53246492986E+10	3.33496995850E-01	2.66432136679E+01	3.59653323393E-04	-1.40507305233E+01	4.03970982158E-04	-3.88487921169E+01	3.63282825107E-01	4.29002215353E+01
7.53306613226E+10	3.36547302128E-01	2.61746754453E+01	3.65313851419E-04	-2.81325577834E+01	4.53592200500E-04	-4.02048243510E+01	3.63306267205E-01	4.14943987052E+01
7.53366733467E+10	3.34329261514E-01	2.44165191656E+01	3.95884352486E-04	-2.82345915037E+01	4.11911759439E-04	-4.73105681748E+01	3.52552353964E-01	4.03957616221E+01
7.53426853707E+10	3.40272024389E-01	2.40205727006E+01	4.72658509195E-04	-3.50095543600E+01	4.12359429986E-04	-4.94195234141E+01	3.55043376853E-01	3.84746132625E+01
7.53486973948E+10	3.54695745219E-01	2.01610859433E+01	4.65018976392E-04	-4.43890874255E+01	4.74169971882E-04	-5.61844424845E+01	3.54347311850E-01	3.67322810880E+01
7.53547094188E+10	3.50395651260E-01	2.05399788780E+01	4.78314243324E-04	-5.37743207602E+01	4.89244108862E-04	-6.77106337974E+01	3.54745832951E-01	3.54159693621E+01
7.53607214429E+10	3.53874918921E-01	1.95242215411E+01	4.64610032781E-04	-6.63516215537E+01	5.17435701935E-04	-7.58115850148E+01	3.54438539573E-01	3.37312975818E+01
7.53667334669E+10	3.60557171110E-01	1.56822784557E+01	5.52312201728E-04	-6.51835963839E+01	5.51078940043E-04	-7.81054348493E+01	3.52305542959E-01	3.32284495439E+01
7.53727454910E+10	3.69471403640E-01	1.37991449773E+01	5.24964148326E-04	-7.30641238012E+01	5.25693581830E-04	-8.76201169311E+01	3.56341985682E-01	3.19612117306E+01
7.53787575150E+10	3.66138235499E-01	1.34959687193E+01	5.36663752567E-04	-8.57550970359E+01	5.80132073108E-04	-1.00957271308E+02	3.59787696811E-01	3.00908044043E+01
7.53847695391E+10	3.72063908500E-01	1.23537505746E+01	5.00533721307E-04	-9.25844916957E+01	5.22295044974E-04	-1.03614771507E+02	3.65596809505E-01	2.83322839495E+01
7.53907815631E+10	3.74804644493E-01	1.07980183451E+01	4.89862692849E-04	-9.78113723504E+01	5.03703063066E-04	-1.07850333278E+02	3.69600551363E-01	2.62279723624E+01
7.53967935872E+10	3.81606865976E-01	8.60368271667E+00	4.73670337430E-04	-9.97257425292E+01	5.05253126849E-04	-1.17031942154E+02	3.79081857329E-01	2.55642431925E+01
7.54028056112E+10	3.89317774396E-01	5.22561097546E+00	5.20031286123E-04	-1.10667395128E+02	5.09018726286E-04	-1.28407526455E+02	3.81147823313E-01	2.55768448975E+01
7.54088176353E+10	3.85315744971E-01	4.56910660941E+00	5.42623373658E-04	-1.19713702011E+02	4.27522520022E-04	-1.31968830125E+02	3.84620205682E-01	2.27594368968E+01
7.54148296593E+10	3.93071376634E-01	3.68689473676E+00	4.84039857751E-04	-1.27054685620E+02	4.67473943360E-04	-1.42747182132E+02	3.84698276700E-01	2.00574541027E+01
7.54208416834E+10	4.06005621739E-01	1.22563379332E+00	5.07360447817E-04	-1.35759074058E+02	4.77068195333E-04	-1.47813483164E+02	3.97098405108E-01	1.87495306238E+01
7.54268537074E+10	4.03562020552E-01	4.47634759040E-01	5.04153499873E-04	-1.37717317352E+02	4.39970417947E-04	-1.56129408037E+02	4.04176079411E-01	1.77896227040E+01
7.54328657315E+10	4.00758041857E-01	-6.55249343570E-01	4.80636268583E-04	-1.47170678020E+02	4.00367825482E-04	-1.63401603721E+02	4.06489041335E-01	1.51391757366E+01
7.54388777555E+10	4.04442864884E-01	-2.21597366211E+00	4.63223482264E-04	-1.56546359768E+02	3.83948992054E-04	-1.69905439649E+02	4.06022463324E-01	1.32733695127E+01
7.54448897796E+10	4.04492927106E-01	-3.52277694351E+00	4.18937387736E-04	-1.64057644348E+02	3.96675500062E-04	-1.67156054092E+02	4.14187472132E-01	1.12826615645E+01
7.54509018036E+10	4.29440540914E-01	-7.33899750078E+00	4.70437809312E-04	-1.62887286401E+02	3.77032075629E-04	-1.73715731253E+02	4.17079816949E-01	1.01933378247E+01
7.54569138277E+10	4.26258047206E-01	-8.19824849151E+00	4.03371012970E-04	-1.69458094293E+02	3.64705801216E-04	1.73535942739E+02	4.21743993077E-01	7.74627540327E+00
7.54629258517E+10	4.29974764622E-01	-8.58258586446E+00	3.93896092105E-04	-1.79038305657E+02	3.27022461900E-04	1.74386280170E+02	4.32343954971E-01	5.47464114405E+00
7.54689378758E+10	4.34452330068E-01	-1.17221939608E+01	4.08024424928E-04	-1.77502617373E+02	3.13325854492E-04	1.69449837034E+02	4.33233331398E-01	5.10874178343E+00
7.54749498998E+10	4.45820868778E-01	-1.34494662200E+01	4.04493235608E-04	-1.78084301849E+02	3.33279051632E-04	1.65038904504E+02	4.39842292128E-01	2.50625450537E+00
7.54809619238E+10	4.48868120038E-01	-1.42484977550E+01	3.62818270033E-04	1.74527176790E+02	2.86327669968E-04	1.68629245378E+02	4.44809654342E-01	3.39799280629E-01
7.54869739479E+10	4.52818059869E-01	-1.56377426055E+01	3.72421424206E-04	1.69894298543E+02	3.22832723190E-04	1.62325499202E+02	4.46041794335E-01	-1.37164814451E+00
7.54929859719E+10	4.53719479015E-01	-1.71338064343E+01	3.46165454453E-04	1.55134082420E+02	2.94242188636E-04	1.52225205716E+02	4.56580759986E-01	-3.26971717007E+00
7.54989979960E+10	4.58968691274E-01	-1.97590748672E+01	3.86240866513E-04	1.62931074424E+02	3.33115463128E-04	1.44788705304E+02	4.59846556685E-01	-4.53586575005E+00
7.55050100200E+10	4.75094946343E-01	-2.25959162242E+01	3.09548341322E-04	1.44401829146E+02	2.50138278894E-04	1.31528913276E+02	4.68868985547E-01	-6.42758190333E+00
7.55110220441E+10	4.82673353580E-01	-2.34480217028E+01	3.28350516916E-04	1.39790192855E+02	2.62836755993E-04	1.35277980925E+02	4.73914209465E-01	-9.18861451808E+00
7.55170340681E+10	4.84975635063E-01	-2.52065873960E+01	3.35405328353E-04	1.49253587179E+02	2.44530665799E-04	1.40466266985E+02	4.78651828022E-01	-1.03705195557E+01
7.55230460922E+10	4.85938937523E-01	-2.60677593282E+01	2.58967438773E-04	1.37790462109E+02	2.24644235162E-04	1.45241144310E+02	4.80914723911E-01	-1.15816234064E+01
7.55290581162E+10	4.90357372909E-01	-2.77278921698E+01	2.94886680412E-04	1.28227518122E+02	2.38901564692E-04	1.40632496204E+02	4.83835610591E-01	-1.28591028022E+01
7.55350701403E+10	5.08045039498E-01	-3.03826067138E+01	2.97330688841E-04	1.40818519876E+02	1.91552239091E-04	1.19712111869E+02	4.86367184710E-01	-1.49323774643E+01
7.55410821643E+10	5.15733361350E-01	-3.20161583844E+01	2.94931346610E-04	1.33879813242E+02	2.36634303625E-04	1.11815427474E+02	5.06367003637E-01	-1.79181241956E+01
7.55470941884E+10	5.29436017438E-01	-3.42795924489E+01	3.11621469962E-04	1.27371139824E+02	2.24647056638E-04	1.22899864113E+02	5.13285521602E-01	-1.99043160305E+01
7.55531062124E+10	5.34068268647E-01	-3.58390603475E+01	2.93811660726E-04	1.27381812818E+02	2.40166377835E-04	1.22051748002E+02	5.16240013742E-01	-2.04229307719E+01
7.55591182365E+10	5.38150753437E-01	-3.79825168552E+01	2.62298095091E-04	1.22148098991E+02	2.75006869038E-04	1.27246357788E+02	5.16423697753E-01	-2.24646655878E+01
7.55651302605E+10	5.46600771574E-01	-3.94201632531E+01	2.73734299371E-04	1.03592500252E+02	2.63786496232E-04	1.16200894155E+02	5.22940937106E-01	-2.36605114765E+01
7.55711422846E+10	5.66446294437E-01	-4.14086876151E+01	2.85075256996E-04	1.06770851307E+02	2.31046603466E-04	1.15061340445E+02	5.41821918263E-01	-2.61842770902E+01
7.55771543086E+10	5.61678257392E-01	-4.22947370548E+01	3.08099317083E-04	1.00260180270E+02	2.51652966890E-04	1.02469820920E+02	5.53015544499E-01	-2.85475786412E+01
7.55831663327E+10	5.62089005346E-01	-4.39201148489E+01	2.55185928870E-04	8.90894297826E+01	2.05979882812E-04	9.51428317498E+01	5.48151708790E-01	-2.91331090492E+01
7.55891783567E+10	5.95100347967E-01	-4.76031168814E+01	2.26573806533E-04	9.07964461639E+01	2.22604402810E-04	1.02792019272E+02	5.57131748281E-01	-3.08713893692E+01
7.55951903808E+10	6.09581551831E-01	-5.00601360167E+01	2.23571996912E-04	1.03314483625E+02	2.58375430530E-04	9.52190992089E+01	5.76763884035E-01	-3.33123999821E+01
7.56012024048E+10	6.32624577382E-01	-5.24712549462E+01	2.79233973870E-04	9.59681834678E+01	1.46318459268E-04	1.07371506145E+02	5.84180758713E-01	-3.49341254597E+01
7.56072144289E+10	6.22574325176E-01	-5.27579639042E+01	3.30037339299E-04	1.07481568856E+02	2.60498285747E-04	9.08634374562E+01	5.85730741563E-01	-3.66122398768E+01
7.56132264529E+10	6.24537175312E-01	-5.37723151394E+01	2.83633367904E-04	9.00162051938E+01	2.57859734771E-04	7.57965493660E+01	6.06060145995E-01	-3.87296882993E+01
7.56192384770E+10	6.30907732093E-01	-5.57265448640E+01	2.43102671227E-04	8.82536134623E+01	2.09466878152E-04	8.97825716974E+01	6.12023687805E-01	-3.97782459004E+01
7.56252505010E+10	6.60345275319E-01	-5.91720025249E+01	3.19530828349E-04	9.51357142620E+01	2.02989056672E-04	9.19243140753E+01	6.26752011331E-01	-4.18104740263E+01
7.56312625251E+10	6.87204376475E-01	-6.19766361082E+01	3.87532069914E-04	8.78432369597E+01	2.92487339802E-04	8.32854972650E+01	6.34115375180E-01	-4.37455589859E+01
7.56372745491E+10	6.80002974106E-01	-6.24912681938E+01	3.76783261203E-04	8.18774145090E+01	2.35549895565E-04	7.69290629023E+01	6.47779603044E-01	-4.52160324646E+01
7.56432865731E+10	6.82664837304E-01	-6.39562367439E+01	3.18852852167E-04	8.89087529323E+01	2.45748426018E-04	7.26187578398E+01	6.65662284247E-01	-4.70602475785E+01
7.56492985972E+10	7.22528619509E-01	-6.83839223062E+01	4.05588858488E-04	6.61984197273E+01	3.17917186741E-04	6.94097944768E+01	6.84458380807E-01	-4.99063534063E+01
7.56553106212E+10	7.56639851335E-01	-7.17933066780E+01	4.03408261905E-04	7.48850654942E+01	2.40402121646E-04	7.25747747899E+01	6.99659060638E-01	-5.17903531768E+01
7.56613226453E+10	7.66798223926E-01	-7.34901517195E+01	3.41264746296E-04	7.30744939544E+01	2.88672084045E-04	5.73619626642E+01	7.18257200965E-01	-5.38444119712E+01
7.56673346693E+10	7.54823908890E-01	-7.36812032387E+01	5.18595793911E-04	5.39849486788E+01	3.62864997766E-04	5.35707901294E+01	7.37290834824E-01	-5.57184602374E+01
7.56733466934E+10	7.69397417014E-01	-7.59794352470E+01	4.35634069787E-04	5.52845991423E+01	3.68402831590E-04	5.60191410918E+01	7.46999576487E-01	-5.72902571962E+01
7.56793587174E+10	8.00992355079E-01	-7.93790859297E+01	4.99423092180E-04	5.04818140774E+01	3.90081748621E-04	4.31586843710E+01	7.52256964568E-01	-5.85018718230E+01
7.56853707415E+10	8.37356615134E-01	-8.35150749668E+01	4.52003526802E-04	4.87756040550E+01	3.76660750395E-04	4.43316804717E+01	8.06690327829E-01	-6.28526714505E+01
7.56913827655E+10	8.50606495741E-01	-8.56328316664E+01	5.67353505778E-04	3.87697749365E+01	3.76478138376E-04	4.56564562035E+01	7.97107959091E-01	-6.30772519427E+01
7.56973947896E+10	8.68342853593E-01	-8.82058495103E+01	4.48857603555E-04	2.27239308446E+01	4.65289017189E-04	2.45260523088E+01	8.03568826363E-01	-6.41956731270E+01
7.57034068136E+10	8.84135167078E-01	-9.05807069445E+01	4.82810798312E-04	2.15599150769E+01	3.63687295759E-04	2.22390306265E+01	8.34534204376E-01	-6.71422242942E+01
7.57094188377E+10	9.05778016569E-01	-9.34225149477E+01	5.26005094896E-04	1.42717852239E+01	3.20168737724E-04	2.42032724018E+01	8.73561853448E-01	-7.02227294325E+01
7.57154308617E+10	9.29852467543E-01	-9.66959361344E+01	4.86921823565E-04	1.60188756753E+01	3.86419695824E-04	1.51539524177E+01	9.11472612821E-01	-7.35262031827E+01
7.57214428858E+10	9.56733224217E-01	-1.00435062992E+02	5.47465929316E-04	4.73941562480E+00	5.15639971677E-04	8.65951697754E+00	9.43025704492E-01	-7.64435277471E+01
7.57274549098E+10	9.83793470993E-01	-1.03681280593E+02	5.63674251205E-04	1.40706093422E+00	3.74333512600E-04	3.35938346434E+00	9.56307162541E-01	-7.78053329399E+01
7.57334669339E+10	1.00554050673E+00	-1.06937852751E+02	6.45309285272E-04	-1.59243128536E+01	5.26340533385E-04	-9.89430733720E+00	1.01256562162E+00	-8.19788669983E+01
7.57394789579E+10	1.00516556030E+00	-1.08222580375E+02	5.75854538759E-04	-8.27920765566E+00	5.29577739188E-04	-1.34255891200E+01	1.02499801938E+00	-8.39336131731E+01
7.57454909820E+10	1.04877885970E+00	-1.13698130772E+02	6.07823305967E-04	-2.36773026600E+01	4.55537671132E-04	-1.56389770897E+01	1.02475906674E+00	-8.46872794543E+01
7.57515030060E+10	1.05957424454E+00	-1.16930570252E+02	6.40048475317E-04	-1.47050729430E+01	4.79898458382E-04	-1.77638557006E+01	1.09146552544E+00	-8.97258315035E+01
7.57575150301E+10	1.07911192424E+00	-1.19844846482E+02	6.16120858308E-04	-3.90449262448E+01	3.99963545036E-04	-1.23345616464E+01	1.13958499550E+00	-9.28715452106E+01
7.57635270541E+10	1.10120688526E+00	-1.23355767638E+02	5.68386766151E-04	-2.13651520185E+01	5.88331852642E-04	-2.54399635639E+01	1.17690471727E+00	-9.61072694845E+01
7.57695390782E+10	1.14237204026E+00	-1.30645193665E+02	6.64373086902E-04	-4.06384926122E+01	4.62163690037E-04	-2.32703635371E+01	1.17440019008E+00	-9.77509154341E+01
7.57755511022E+10	1.17148392591E+00	-1.36685036027E+02	6.38745616320E-04	-5.52397712402E+01	4.69157111739E-04	-2.76954914225E+01	1.23473197068E+00	-1.02382882784E+02
7.57815631263E+10	1.17042808931E+00	-1.38002468218E+02	6.83069530964E-04	-4.17965957960E+01	4.35194770220E-04	-3.37543922618E+01	1.26876087249E+00	-1.05128475227E+02
7.57875751503E+10	1.15866409846E+00	-1.38728195581E+02	6.20167233917E-04	-5.72401003854E+01	5.25681588551E-04	-4.16375070487E+01	1.32345861952E+00	-1.09473580471E+02
7.57935871743E+10	1.17148695760E+00	-1.45151081496E+02	6.28158144092E-04	-5.57203190548E+01	5.80712109098E-04	-5.17308677344E+01	1.34854630414E+00	-1.13168945765E+02
7.57995991984E+10	1.16895467554E+00	-1.44816349315E+02	6.34651220205E-04	-6.95182726074E+01	5.79817254740E-04	-6.05627686668E+01	1.35760784374E+00	-1.15433264616E+02
7.58056112224E+10	1.19134421194E+00	-1.53991309435E+02	5.50912913062E-04	-7.73504422288E+01	6.23167580595E-04	-5.52503445203E+01	1.44987866928E+00	-1.21865270251E+02
7.58116232465E+10	1.18600932688E+00	-1.60186917747E+02	7.95733367249E-04	-7.41001280693E+01	6.85178126766E-04	-6.31932950487E+01	1.47610857155E+00	-1.25584534142E+02
7.58176352705E+10	1.18805841166E+00	-1.63084425434E+02	7.64592607656E-04	-9.38688002507E+01	5.51363580855E-04	-7.82857974648E+01	1.45838987894E+00	-1.26639242652E+02
7.58236472946E+10	1.18483588771E+00	-1.72649637593E+02	6.46640763913E-04	-9.03833876962E+01	7.38734176497E-04	-8.19394583459E+01	1.52056911465E+00	-1.33703209974E+02
7.58296593186E+10	1.17002571876E+00	-1.70234267098E+02	6.40286597787E-04	-1.02965374707E+02	6.88811461540E-04	-9.63564108645E+01	1.54925155148E+00	-1.40088713013E+02
7.58356713427E+10	1.15381034289E+00	-1.78704884573E+02	7.68754321594E-04	-1.21201907505E+02	7.37036069646E-04	-9.24163339894E+01	1.55056635902E+00	-1.41098781784E+02
7.58416833667E+10	1.14302193202E+00	-1.76348592837E+02	6.93343496435E-04	-1.14176013798E+02	7.51157695643E-04	-1.07982386676E+02	1.58266689349E+00	-1.46694707353E+02
7.58476953908E+10	1.12458040588E+00	1.71510410267E+02	6.25629181460E-04	-1.16241334885E+02	7.64166659714E-04	-1.13766182301E+02	1.62325291577E+00	-1.53754264339E+02
7.58537074148E+10	1.10353265316E+00	1.73953503390E+02	6.78225055514E-04	-1.33283096317E+02	7.51631192242E-04	-1.14373216595E+02	1.61067135498E+00	-1.61172451253E+02
7.58597194389E+10	1.06931770201E+00	1.65748372671E+02	6.05185072776E-04	-1.41068523492E+02	6.13801167098E-04	-1.18279168355E+02	1.63263075127E+00	-1.68503915817E+02
7.58657314629E+10	1.06165319197E+00	1.65729822334E+02	6.26658276754E-04	-1.36279384746E+02	7.52415400295E-04	-1.28796022238E+02	1.57080132819E+00	-1.66629318409E+02
7.58717434870E+10	1.03467115405E+00	1.58560402809E+02	6.60058025356E-04	-1.40558691780E+02	6.31019637209E-04	-1.45431599232E+02	1.55778539834E+00	-1.71573088484E+02
7.58777555110E+10	1.02004020972E+00	1.58661183907E+02	6.44667093975E-04	-1.48372966121E+02	6.36267114341E-04	-1.43065905572E+02	1.53614887067E+00	-1.78832189254E+02
7.58837675351E+10	9.78632729994E-01	1.50579883829E+02	5.41448647560E-04	-1.64928535200E+02	6.63062157443E-04	-1.54296954064E+02	1.53275876825E+00	1.73606738262E+02
7.58897795591E+10	9.64940873048E-01	1.50042025413E+02	5.21696703120E-04	-1.49555209154E+02	9.34820943360E-04	-1.52958051013E+02	1.49754200689E+00	1.70712004522E+02
7.58957915832E+10	9.29720889698E-01	1.44470780208E+02	6.98788734604E-04	-1.67393043146E+02	8.37893036820E-04	-1.58254241588E+02	1.46686727466E+00	1.68807993223E+02
7.59018036072E+10	9.09907103608E-01	1.42254240784E+02	5.64660704239E-04	-1.74175664843E+02	6.92908787233E-04	-1.58615886868E+02	1.42182504098E+00	1.62888874647E+02
7.59078156313E+10	8.79704527510E-01	1.38025106838E+02	6.06676923741E-04	1.79027585389E+02	7.49124411353E-04	-1.62402834331E+02	1.37796550794E+00	1.60221515771E+02
7.59138276553E+10	8.61183491229E-01	1.35864044900E+02	5.85606510650E-04	1.78126402353E+02	8.66832404615E-04	-1.73857084733E+02	1.33189322225E+00	1.53807972053E+02
7.59198396794E+10	8.49974427648E-01	1.36099330408E+02	5.48067024872E-04	1.78120714027E+02	6.33705058796E-04	1.73771352747E+02	1.29622573980E+00	1.50507303830E+02
7.59258517034E+10	8.23662965672E-01	1.31860077772E+02	5.00978383928E-04	1.71585477238E+02	7.97274041529E-04	1.76295533161E+02	1.26462842638E+00	1.49565351312E+02
7.59318637275E+10	7.90652745641E-01	1.26371729813E+02	5.43895639790E-04	1.61936229550E+02	6.09941989564E-04	1.66095044354E+02	1.21667281129E+00	1.44458783694E+02
7.59378757515E+10	7.64318151457E-01	1.23069015690E+02	5.73874708850E-04	1.62573396861E+02	6.41688243845E-04	1.52054807551E+02	1.18021454352E+00	1.40500386184E+02
7.59438877756E+10	7.59353373837E-01	1.22793030032E+02	4.90254305372E-04	1.58542561263E+02	6.57854661202E-04	1.48126947274E+02	1.15047241245E+00	1.39554269486E+02
7.59498997996E+10	7.47711252259E-01	1.22195129037E+02	4.88380295051E-04	1.51767171561E+02	5.75023150497E-04	1.48901121106E+02	1.10719815491E+00	1.34147121205E+02
7.59559118236E+10	7.15965408337E-01	1.16887378744E+02	4.72122091607E-04	1.51269247444E+02	6.49639420547E-04	1.51867862257E+02	1.07944417380E+00	1.32262070912E+02
7.59619238477E+10	6.92858241169E-01	1.13654169679E+02	4.33032535505E-04	1.51465054474E+02	6.73816132519E-04	1.42224820545E+02	1.04302752689E+00	1.28488487940E+02
7.59679358717E+10	6.85509012015E-01	1.12418957636E+02	4.87173428107E-04	1.33263896707E+02	5.47561898008E-04	1.32264800498E+02	9.99331233873E-01	1.23687340759E+02
7.59739478958E+10	6.74867393338E-01	1.11605501554E+02	4.11507939948E-04	1.35163543409E+02	5.03163756915E-04	1.41816710400E+02	9.85018962153E-01	1.23749102295E+02
7.59799599198E+10	6.59744208491E-01	1.09171043914E+02	5.02381501964E-04	1.38408877519E+02	4.69520589683E-04	1.34669248335E+02	9.60720175624E-01	1.22225610875E+02
7.59859719439E+10	6.27450106309E-01	1.04244793142E+02	4.56392073380E-04	1.26120575966E+02	5.64162279324E-04	1.21616215646E+02	9.29909709924E-01	1.18902413558E+02
7.59919839679E+10	6.30235220590E-01	1.04639047323E+02	4.64738643289E-04	1.33396196698E+02	5.60808476062E-04	1.12688978309E+02	9.00161764431E-01	1.15958726812E+02
7.59979959920E+10	6.13877812909E-01	1.01078707498E+02	4.41146589584E-04	1.24960785245E+02	6.10168741072E-04	1.18565160098E+02	8.75112959279E-01	1.13424330920E+02
7.60040080160E+10	5.94892499491E-01	9.86709565674E+01	4.42103019269E-04	1.14287564798E+02	5.49611204321E-04	1.12584520334E+02	8.49318401452E-01	1.11004090256E+02
7.60100200401E+10	5.79751236696E-01	9.56742435770E+01	4.01091152539E-04	1.07081540319E+02	4.97234176330E-04	1.03346327267E+02	8.32098825196E-01	1.09279785326E+02
7.60160320641E+10	5.72189488802E-01	9.49325157398E+01	4.79762670845E-04	1.06178096105E+02	5.31375129664E-04	1.05542791413E+02	8.09778063548E-01	1.06866650757E+02
7.60220440882E+10	5.60744868184E-01	9.29047567054E+01	4.59986256191E-04	1.05203451450E+02	5.76559467539E-04	1.02896563374E+02	7.98873074088E-01	1.06839180108E+02
7.60280561122E+10	5.53315755187E-01	9.16798017533E+01	4.16229158508E-04	1.06174939298E+02	5.59848354749E-04	9.57938772477E+01	7.59427216737E-01	1.01554923936E+02
7.60340681363E+10	5.51629743005E-01	9.18762588151E+01	4.47390777717E-04	1.04802435319E+02	6.01455445171E-04	8.88291574936E+01	7.40342112855E-01	9.89809483154E+01
7.60400801603E+10	5.36847316430E-01	8.85172458683E+01	4.92576956460E-04	9.97170996298E+01	5.89269414570E-04	8.18509764152E+01	7.30824025576E-01	9.84647731668E+01
7.60460921844E+10	5.27602970245E-01	8.73747809812E+01	4.64600258870E-04	9.51268745879E+01	5.26619220412E-04	8.26791087858E+01	7.14727648475E-01	9.61130919632E+01
7.60521042084E+10	5.11872020642E-01	8.43933571139E+01	5.14167210558E-04	8.30076198499E+01	4.92830830647E-04	7.03537528413E+01	7.01260251191E-01	9.48247250966E+01
7.60581162325E+10	5.02406557409E-01	8.15454662408E+01	4.90625107898E-04	7.53619493925E+01	4.96306604267E-04	6.90446291673E+01	6.84815537958E-01	9.23481370229E+01
7.60641282565E+10	5.01329867156E-01	7.98223914494E+01	4.32899777478E-04	7.31794321542E+01	5.23713490073E-04	6.06678073305E+01	6.68143697297E-01	9.07415091334E+01
7.60701402806E+10	4.89871246298E-01	7.83409782223E+01	4.80877539736E-04	6.92393043451E+01	5.16097426391E-04	5.82640744335E+01	6.57060142629E-01	8.92822168051E+01
7.60761523046E+10	4.77522853424E-01	7.47563194894E+01	4.75453733936E-04	6.10903092021E+01	4.70340465724E-04	5.25764623852E+01	6.45833303542E-01	8.76175257192E+01
7.60821643287E+10	4.79813265417E-01	7.50048860725E+01	3.97772853769E-04	5.29667181423E+01	4.93139028687E-04	4.67136910344E+01	6.36473944175E-01	8.65357001709E+01
7.60881763527E+10	4.73038192811E-01	7.44648050736E+01	4.65612780669E-04	6.30531772522E+01	4.55809600288E-04	5.31904720073E+01	6.17112461665E-01	8.28724428550E+01
7.60941883768E+10	4.54801940388E-01	7.06348681235E+01	4.72964347197E-04	5.45739445439E+01	5.05215883860E-04	3.82001197840E+01	6.04288209566E-01	8.11655196369E+01
7.61002004008E+10	4.55530682086E-01	6.91352930217E+01	4.23601478023E-04	4.77720905604E+01	4.67340769442E-04	3.89639396643E+01	5.98644600503E-01	8.05467710409E+01
7.61062124248E+10	4.53317281109E-01	6.73919801805E+01	4.27954937609E-04	4.92205095067E+01	4.38510311478E-04	3.17355281877E+01	5.92955008829E-01	8.01163971662E+01
7.61122244489E+10	4.34327648981E-01	6.43857827392E+01	4.29324514102E-04	3.97666179932E+01	3.77709590633E-04	3.13441965348E+01	5.73340667148E-01	7.59030274197E+01
7.61182364729E+10	4.38597383342E-01	6.33576021787E+01	4.50925295815E-04	3.93187963704E+01	4.69034408830E-04	2.66046713057E+01	5.66299623871E-01	7.41599960057E+01
7.61242484970E+10	4.28753058222E-01	6.31722615286E+01	3.95368800652E-04	3.66465326610E+01	4.38652614734E-04	1.85122994986E+01	5.60847414100E-01	7.32137592722E+01
7.61302605210E+10	4.26808854347E-01	6.21895158680E+01	3.87926098296E-04	2.65055806832E+01	4.64709040409E-04	1.67256083186E+01	5.53398318884E-01	7.20734901597E+01
7.61362725451E+10	4.17336387092E-01	5.91849274045E+01	4.14759755415E-04	2.48421635287E+01	4.35164470921E-04	1.39124687547E+01	5.37528759133E-01	6.92966298845E+01
7.61422845691E+10	4.16652240592E-01	5.70593416560E+01	3.82601849626E-04	2.33770328369E+01	3.84719724095E-04	1.19084865407E+01	5.29540487667E-01	6.72668722935E+01
7.61482965932E+10	4.05921906943E-01	5.48179063409E+01	3.97509483192E-04	1.54403750282E+01	4.28577773386E-04	8.47887846356E+00	5.26715747608E-01	6.52892964447E+01
7.61543086172E+10	4.13284163561E-01	5.40304442630E+01	3.79892926981E-04	1.57252522192E+01	4.32882944292E-04	-1.74053630961E+00	5.21257209970E-01	6.49540248266E+01
7.61603206413E+10	4.04498594893E-01	5.25726140927E+01	4.33106342708E-04	1.47444530724E+01	3.85829971550E-04	4.90411511319E+00	5.15483574889E-01	6.29120477605E+01
7.61663326653E+10	3.98326171595E-01	5.07520211052E+01	4.01635100927E-04	9.21225084832E+00	4.05650096860E-04	-5.32031281033E+00	5.06519092859E-01	6.16359324320E+01
7.61723446894E+10	3.98239339072E-01	5.00853759950E+01	3.86173489770E-04	6.08124065034E+00	4.16255191417E-04	-5.43746921491E+00	4.97214647007E-01	5.93994281085E+01
7.61783567134E+10	3.94009350402E-01	4.82201401387E+01	4.14388205090E-04	-4.69565005541E+00	4.71467420865E-04	-4.55388220880E+00	4.91930887369E-01	5.73444723454E+01
7.61843687375E+10	3.88501751384E-01	4.69976563878E+01	4.44715692215E-04	-6.91582920062E+00	3.70436266347E-04	-1.52806010235E+01	4.85335631413E-01	5.64117588501E+01
7.61903807615E+10	3.82272129521E-01	4.36730702003E+01	3.44894499464E-04	-1.03580792866E+01	3.76718599977E-04	-9.34056362494E+00	4.80022934815E-01	5.46545658282E+01
7.61963927856E+10	3.83423984426E-01	4.29025947774E+01	3.53938142464E-04	-5.15623893514E+00	3.64655209066E-04	-1.62121840422E+01	4.75971349932E-01	5.34313713402E+01
7.62024048096E+10	3.71399545258E-01	4.04012527320E+01	4.65380487022E-04	-1.14342418713E+01	4.02677984560E-04	-1.36587990492E+01	4.70523507121E-01	5.13375682880E+01
7.62084168337E+10	3.71386269608E-01	4.02988279802E+01	4.46509906949E-04	-2.01432522125E+01	4.28104006575E-04	-1.85875678935E+01	4.65762483339E-01	5.05790304184E+01
7.62144288577E+10	3.72966426449E-01	3.92994314796E+01	4.40202526730E-04	-2.57540760080E+01	3.82700196777E-04	-2.72220706852E+01	4.60884881310E-01	4.78137932984E+01
7.62204408818E+10	3.68821395032E-01	3.68747869410E+01	4.69540031055E-04	-2.40958227060E+01	4.29600668947E-04	-2.89929093015E+01	4.54720726586E-01	4.61407773714E+01
7.62264529058E+10	3.68736246095E-01	3.38502843534E+01	4.44284456286E-04	-2.77467654527E+01	4.10233579177E-04	-3.11459638741E+01	4.49281446914E-01	4.52728900679E+01
7.62324649299E+10	3.60438600263E-01	3.29374454699E+01	4.38878869754E-04	-3.80216306519E+01	4.64434557202E-04	-3.68234028452E+01	4.45869241723E-01	4.39459893766E+01
7.62384769539E+10	3.59830070338E-01	3.29292146444E+01	4.74937161935E-04	-3.76575681957E+01	4.55050940074E-04	-4.34520081202E+01	4.39667132336E-01	4.17734824674E+01
7.62444889780E+10	3.60182674777E-01	3.07324567248E+01	4.35766779983E-04	-4.71281440062E+01	3.86349237541E-04	-5.64793363849E+01	4.37913418628E-01	3.97663120856E+01
7.62505010020E+10	3.60287400249E-01	2.86286322117E+01	4.64394256663E-04	-5.01538343786E+01	3.92469345385E-04	-5.42699754528E+01	4.36235210193E-01	3.79044874057E+01
7.62565130261E+10	3.58631822495E-01	2.68737114698E+01	4.54936568941E-04	-5.06051247670E+01	4.14634791933E-04	-5.82031823302E+01	4.30665922872E-01	3.64164754964E+01
7.62625250501E+10	3.53108745660E-01	2.43632047203E+01	4.33888240287E-04	-5.35541712980E+01	4.25152314384E-04	-5.93614053706E+01	4.32480496703E-01	3.56389352567E+01
7.62685370741E+10	3.49946884484E-01	2.46738080759E+01	4.63802159610E-04	-5.88211373579E+01	4.42503031717E-04	-6.74656270012E+01	4.24993561865E-01	3.45436403634E+01
7.62745490982E+10	3.48652039866E-01	2.27021211367E+01	4.43191057566E-04	-6.06262299411E+01	3.38626089688E-04	-7.21236261574E+01	4.26829440433E-01	3.23841854334E+01
7.62805611222E+10	3.52552447163E-01	2.13916102740E+01	4.04631379000E-04	-6.71096375275E+01	4.35686507377E-04	-7.26774565343E+01	4.16915154581E-01	2.96823010574E+01
7.62865731463E+10	3.47890357324E-01	1.97731487326E+01	4.33337806461E-04	-7.62876328908E+01	3.68544986838E-04	-7.33814874199E+01	4.13461034127E-01	2.84340859605E+01
7.62925851703E+10	3.44225206248E-01	1.72771064252E+01	3.97545371100E-04	-7.04840382524E+01	4.53575666747E-04	-9.24226002786E+01	4.11587448381E-01	2.78779910770E+01
7.62985971944E+10	3.44077799345E-01	1.55192020769E+01	4.42132076562E-04	-7.75362118892E+01	4.34373054146E-04	-8.76458907933E+01	4.10380553168E-01	2.67688463420E+01
7.63046092184E+10	3.38063329153E-01	1.32381104847E+01	4.53241200052E-04	-8.77885794814E+01	3.99319957988E-04	-9.28476816946E+01	4.09293893399E-01	2.45931943283E+01
7.63106212425E+10	3.40862486302E-01	1.38385822969E+01	3.82046322284E-04	-8.97307826468E+01	4.52362143276E-04	-9.89868987844E+01	4.07380192959E-01	2.19978803179E+01
7.63166332665E+10	3.36423388196E-01	1.11974427872E+01	4.60287953892E-04	-9.48111777186E+01	4.15048822093E-04	-1.04447981619E+02	4.02520906939E-01	2.03230342521E+01
7.63226452906E+10	3.45501321088E-01	1.08717027020E+01	4.66995120096E-04	-9.90690310102E+01	3.82105300631E-04	-1.03086599746E+02	3.99406663111E-01	1.86674464032E+01
7.63286573146E+10	3.36642600203E-01	1.07240201114E+01	4.82933522186E-04	-1.05988339966E+02	4.46518571206E-04	-1.07777769213E+02	3.97772538042E-01	1.77727824396E+01
7.63346693387E+10	3.34002531608E-01	7.23400026616E+00	5.11479427027E-04	-1.11296781050E+02	4.32493749109E-04	-1.12341594692E+02	4.01107784272E-01	1.63548675627E+01
7.63406813627E+10	3.33935222077E-01	6.81253561708E+00	4.91312729215E-04	-1.15048002446E+02	4.50189541683E-04	-1.22848213783E+02	3.94273051466E-01	1.38808580235E+01
7.63466933868E+10	3.42736509784E-01	4.15072146993E+00	4.47165811343E-04	-1.20639683355E+02	4.24625701680E-04	-1.32216838327E+02	3.93454304204E-01	1.21501214600E+01
7.63527054108E+10	3.36406716734E-01	3.42314678334E+00	4.67296350354E-04	-1.25641504862E+02	4.47965481209E-04	-1.29005227362E+02	3.97396104061E-01	1.06724664353E+01
7.63587174349E+10	3.35594820225E-01	2.01853979705E+00	4.61101640256E-04	-1.32360168921E+02	4.42126804017E-04	-1.34657865098E+02	3.95371657584E-01	9.87387992694E+00
7.63647294589E+10	3.39983507123E-01	-6.91257823598E-01	4.21691092229E-04	-1.30850811243E+02	4.18767611106E-04	-1.42758823773E+02	3.91098592770E-01	8.67302609732E+00
7.63707414830E+10	3.38714262205E-01	-1.40435007134E+00	4.66415590575E-04	-1.45747778897E+02	4.58436878741E-04	-1.48826185681E+02	3.88361527345E-01	6.20276988978E+00
7.63767535070E+10	3.39009961638E-01	-3.16175702947E+00	4.40048665170E-04	-1.46396667558E+02	4.49542888742E-04	-1.48159837049E+02	3.90067523340E-01	4.16373500943E+00
7.63827655311E+10	3.38721560462E-01	-6.27118339387E+00	4.68371891416E-04	-1.50904566666E+02	4.66816962799E-04	-1.56106822157E+02	3.88357439750E-01	2.78603077794E+00
7.63887775551E+10	3.39900357521E-01	-6.72133570152E+00	4.67596102317E-04	-1.61186917650E+02	4.72677409561E-04	-1.63787814175E+02	3.87119514552E-01	1.78958800277E+00
7.63947895792E+10	3.38202602263E-01	-8.07095070603E+00	4.13760526809E-04	-1.61765577697E+02	4.14874385237E-04	-1.72105849264E+02	3.85744064110E-01	1.30973471338E-01
7.64008016032E+10	3.33319008836E-01	-9.96869980650E+00	3.45294404324E-04	-1.65661456344E+02	3.77403524739E-04	-1.71439268020E+02	3.82272210232E-01	-2.01791332682E+00
7.64068136273E+10	3.44305716104E-01	-1.07573526792E+01	4.22534401468E-04	-1.71023376776E+02	3.33583358877E-04	-1.71833799456E+02	3.83115817359E-01	-4.43083909133E+00
7.64128256513E+10	3.44768043928E-01	-1.50780250946E+01	3.93505635141E-04	-1.78076872208E+02	3.53973802060E-04	-1.77490981615E+02	3.84582304486E-01	-5.62266686701E+00
7.64188376754E+10	3.42684348829E-01	-1.56041765333E+01	3.46845892768E-04	-1.77940799389E+02	3.56322897328E-04	1.74982649316E+02	3.85592600405E-01	-6.58061916128E+00
7.64248496994E+10	3.42408960333E-01	-1.68185094723E+01	3.26599821138E-04	1.79569778869E+02	3.28558604017E-04	1.71232660431E+02	3.82852067541E-01	-9.55756585036E+00
7.64308617234E+10	3.45616605962E-01	-1.70203506527E+01	3.17872947564E-04	1.73898129814E+02	3.55669803278E-04	1.63721467817E+02	3.84564730780E-01	-1.14740529324E+01
7.64368737475E+10	3.50313461103E-01	-2.06817722990E+01	3.38169555385E-04	1.61486510518E+02	3.17188557355E-04	1.67473649279E+02	3.90169119726E-01	-1.27935129447E+01
7.64428857715E+10	3.49134484361E-01	-2.10851850997E+01	3.11278895948E-04	1.65727654274E+02	2.90157892277E-04	1.62054374981E+02	3.84479623580E-01	-1.31933107862E+01
7.64488977956E+10	3.48806735641E-01	-2.38533860069E+01	3.46516727708E-04	1.59634678305E+02	2.53621476581E-04	1.48549396078E+02	3.86482695764E-01	-1.58700579364E+01
7.64549098196E+10	3.47903994402E-01	-2.56764726288E+01	3.17706461299E-04	1.55539877101E+02	2.93467111111E-04	1.43704016493E+02	3.84564481889E-01	-1.65248656316E+01
7.64609218437E+10	3.50533422288E-01	-2.78579102070E+01	3.00122669262E-04	1.61613855523E+02	2.56335244688E-04	1.47942127670E+02	3.84615295143E-01	-1.88032147825E+01
7.64669338677E+10	3.54379526970E-01	-2.97379674901E+01	2.60434694972E-04	1.59252324273E+02	2.51421601692E-04	1.44382900087E+02	3.89559356030E-01	-2.21770727089E+01
7.64729458918E+10	3.59409766216E-01	-3.12544620751E+01	3.24609473820E-04	1.51041008390E+02	2.72291167620E-04	1.43589816093E+02	3.91413256343E-01	-2.33561616751E+01
7.64789579158E+10	3.60009362943E-01	-3.16734111490E+01	3.01647906599E-04	1.50949767317E+02	2.62191392811E-04	1.48785484825E+02	3.87653185502E-01	-2.42353187306E+01
7.64849699399E+10	3.64660379182E-01	-3.45053207073E+01	3.52552226600E-04	1.53592308759E+02	3.07309499530E-04	1.41843877799E+02	3.89728522709E-01	-2.57865267042E+01
7.64909819639E+10	3.61447364941E-01	-3.60970508419E+01	3.62528997712E-04	1.38371618369E+02	3.28151905989E-04	1.31121927265E+02	3.92517401299E-01	-2.86859360551E+01
7.64969939880E+10	3.62915889219E-01	-3.78277533765E+01	3.40677483235E-04	1.27330440722E+02	2.59597910429E-04	1.22150669987E+02	3.90437512591E-01	-3.02742070746E+01
7.65030060120E+10	3.63993867127E-01	-3.98890111094E+01	3.32344185317E-04	1.27034991071E+02	2.94091273954E-04	1.20107042120E+02	3.93129188942E-01	-3.22935644458E+01
7.65090180361E+10	3.75572383466E-01	-4.30799714996E+01	3.39678235228E-04	1.23582416612E+02	3.04471955659E-04	1.11753509138E+02	3.92823042949E-01	-3.37136407240E+01
7.65150300601E+10	3.76636525295E-01	-4.46500246764E+01	3.07137528270E-04	1.18712646836E+02	3.08184412048E-04	1.14109739962E+02	3.95178882090E-01	-3.61777347350E+01
7.65210420842E+10	3.72199014085E-01	-4.60728121546E+01	3.18018247759E-04	1.16273007618E+02	3.26617169422E-04	1.00269771457E+02	3.97459063922E-01	-3.73369703983E+01
7.65270541082E+10	3.71965908846E-01	-4.71840933290E+01	4.19359383632E-04	1.11278619932E+02	2.94464969581E-04	9.79703760913E+01	3.98889310145E-01	-3.90175341862E+01
7.65330661323E+10	3.83217199291E-01	-5.00682673142E+01	3.39477043901E-04	1.04243838098E+02	3.63729801205E-04	1.04445119986E+02	4.03168192637E-01	-4.15710960727E+01
7.65390781563E+10	3.87380586774E-01	-5.25356898608E+01	2.88900173249E-04	8.17322187460E+01	2.77856412995E-04	8.50154570508E+01	4.01746037838E-01	-4.36038065702E+01
7.65450901804E+10	3.93092030762E-01	-5.42299533455E+01	3.09390718248E-04	7.94393331460E+01	3.23994467011E-04	8.54084575792E+01	4.04088556671E-01	-4.55071078546E+01
7.65511022044E+10	3.87239000648E-01	-5.49538465481E+01	3.70155732206E-04	8.46817494020E+01	2.92582511261E-04	8.14977693197E+01	4.01412723884E-01	-4.65453686311E+01
7.65571142285E+10	3.91599515438E-01	-5.81128875869E+01	3.16954539681E-04	7.62968243366E+01	2.91849364329E-04	7.52083828860E+01	4.07987612167E-01	-4.85390052865E+01
7.65631262525E+10	4.02754795499E-01	-6.15448156179E+01	3.09181731196E-04	6.00197849665E+01	2.91297830654E-04	7.41411361399E+01	4.13973018983E-01	-5.10019423118E+01
7.65691382766E+10	3.97400249049E-01	-6.17787380949E+01	3.40582739406E-04	6.61594054471E+01	2.70069438633E-04	6.32415784764E+01	4.09774742897E-01	-5.27934151381E+01
7.65751503006E+10	4.07771793694E-01	-6.54538267474E+01	2.24195811882E-04	5.95275820924E+01	2.79765588846E-04	5.78862135492E+01	4.16093758188E-01	-5.44864195794E+01
7.65811623246E+10	4.11765034024E-01	-6.77522351116E+01	2.73037747794E-04	4.92462171292E+01	2.42879654152E-04	4.74614651638E+01	4.20559809715E-01	-5.67099898143E+01
7.65871743487E+10	4.11782585015E-01	-6.89791954573E+01	3.38367746030E-04	3.45076129559E+01	2.46211376933E-04	4.25982886403E+01	4.29825008223E-01	-5.99904971418E+01
7.65931863727E+10	4.11941406164E-01	-7.01230128192E+01	2.03162392044E-04	3.72118122362E+01	2.27233983786E-04	4.29557884347E+01	4.26708333126E-01	-6.08845733819E+01
7.65991983968E+10	4.24673583457E-01	-7.37042846187E+01	2.77350375415E-04	3.12013540548E+01	2.46038625898E-04	3.91081613878E+01	4.26524323900E-01	-6.19797568674E+01
7.66052104208E+10	4.26419026073E-01	-7.58595475058E+01	2.84498940346E-04	2.37473046121E+01	2.38182406903E-04	1.99944733848E+01	4.26671186531E-01	-6.38755490306E+01
7.66112224449E+10	4.25086271504E-01	-7.73561159329E+01	2.67378865107E-04	1.21668048848E+01	2.14774568385E-04	2.22949649600E+00	4.41649042043E-01	-6.74471881662E+01
7.66172344689E+10	4.37280183978E-01	-8.02382423020E+01	2.43509575486E-04	7.74387280839E-01	1.71217761550E-04	-1.62551352703E+01	4.48618108473E-01	-7.00461591728E+01
7.66232464930E+10	4.45001088665E-01	-8.27754529957E+01	1.55553854712E-04	-1.03286482409E+01	2.47260649400E-04	-1.36992372412E+01	4.44824315704E-01	-7.07897597348E+01
7.66292585170E+10	4.43503543733E-01	-8.36065315290E+01	1.26041930160E-04	-4.38209142914E+01	1.42301817709E-04	-1.41272901729E+01	4.50881697072E-01	-7.34703230672E+01
7.66352705411E+10	4.54371999623E-01	-8.69247649935E+01	1.48676095339E-04	-5.27098549474E+01	1.51284987463E-04	-2.04299823226E+01	4.56369123155E-01	-7.58787935284E+01
7.66412825651E+10	4.65016577344E-01	-9.02997991924E+01	1.30623267043E-04	-4.55157500086E+01	9.80198594264E-05	-6.76301294519E+01	4.62488877149E-01	-7.81880441993E+01
7.66472945892E+10	4.77012611943E-01	-9.35233610768E+01	1.32478284813E-04	-4.98279320819E+01	1.56714412335E-04	-7.45433748347E+01	4.71983198462E-01	-8.05219852422E+01
7.66533066132E+10	4.84035688523E-01	-9.55818665116E+01	1.83582816460E-04	-3.11492126683E+01	1.45115474169E-04	-5.23881197550E+01	4.80461681480E-01	-8.32306808130E+01
7.66593186373E+10	4.86802117222E-01	-9.79221908476E+01	1.39013489717E-04	-8.11308085845E+01	1.29949670416E-04	-1.38839331595E+02	4.84086733520E-01	-8.57340288764E+01
7.66653306613E+10	5.02475899147E-01	-1.00671450357E+02	3.58024655652E-05	-9.89056782091E+01	1.70619382181E-04	-1.37461311297E+02	4.89579332166E-01	-8.76497047640E+01
7.66713426854E+10	5.05695474394E-01	-1.02272027032E+02	1.43009829939E-04	-1.19956945440E+02	1.16651150370E-04	-1.64992301193E+02	4.94934250236E-01	-9.01866674174E+01
7.66773547094E+10	5.07726846782E-01	-1.03450360203E+02	9.61752963648E-05	-1.37553314727E+02	1.92900829547E-04	-1.52318374344E+02	5.04804529311E-01	-9.37454883361E+01
7.66833667335E+10	5.23429797707E-01	-1.07268280206E+02	2.33971983996E-04	-1.72312836331E+02	1.88834445247E-04	-1.78323299221E+02	5.23381295702E-01	-9.71653463111E+01
7.66893787575E+10	5.51001990249E-01	-1.12876818975E+02	3.71549912705E-04	1.65779818733E+02	2.96670251685E-04	1.55660735790E+02	5.23764756774E-01	-9.91961751978E+01
7.66953907816E+10	5.48775939262E-01	-1.12982507008E+02	2.33161783086E-04	1.56312392382E+02	2.72501242390E-04	1.29626505598E+02	5.25694992607E-01	-1.01066103399E+02
7.67014028056E+10	5.61056805902E-01	-1.15621805308E+02	2.23662387326E-04	1.17499786991E+02	3.23892148149E-04	1.24330274454E+02	5.35041315254E-01	-1.04466661832E+02
7.67074148297E+10	5.86025004542E-01	-1.20598005727E+02	3.28006407622E-04	1.06087831912E+02	3.05921906644E-04	1.24756480828E+02	5.46393979831E-01	-1.08002252852E+02
7.67134268537E+10	5.94234961752E-01	-1.23175220064E+02	3.03336904586E-04	8.88769174890E+01	2.97491799158E-04	9.05499744913E+01	5.48773971893E-01	-1.10567701909E+02
7.67194388778E+10	6.15325188106E-01	-1.27275158874E+02	3.24406187680E-04	8.97276779873E+01	3.39161576107E-04	9.24054450835E+01	5.53582321179E-01	-1.13374778166E+02
7.67254509018E+10	6.48841108045E-01	-1.33757454957E+02	3.78087134808E-04	8.78116243475E+01	4.38652939392E-04	1.03157469389E+02	5.74922931501E-01	-1.18932971344E+02
7.67314629259E+10	6.60935257502E-01	-1.36710663282E+02	4.67424245881E-04	8.96636125870E+01	3.97908528016E-04	8.81146579669E+01	5.85072856479E-01	-1.23091486780E+02
7.67374749499E+10	6.77111315095E-01	-1.40324097074E+02	6.13253711482E-04	7.02049028940E+01	6.40223968944E-04	6.90074075080E+01	5.82232013338E-01	-1.25878774023E+02
7.67434869739E+10	6.79765435218E-01	-1.42207721716E+02	6.75597776489E-04	5.32945560526E+01	6.41690543936E-04	5.17766361505E+01	5.80104661411E-01	-1.28680553949E+02
7.67494989980E+10	7.06276685583E-01	-1.48543896101E+02	7.43681707158E-04	4.34805994113E+01	6.31108118186E-04	4.23907106709E+01	5.89847953963E-01	-1.33676813240E+02
7.67555110220E+10	7.26928235066E-01	-1.54328358657E+02	7.92186042838E-04	2.97554737328E+01	7.72124550922E-04	2.57498130616E+01	5.98837656056E-01	-1.38796977625E+02
7.67615230461E+10	7.43706021455E-01	-1.59047721816E+02	8.65166648442E-04	2.06133054695E+01	6.55610643725E-04	1.92946108886E+01	5.97759795887E-01	-1.43553875672E+02
7.67675350701E+10	7.39584021525E-01	-1.61179395668E+02	8.18034108509E-04	2.00517045571E+00	7.37850999812E-04	5.05885424052E+00	5.87294904841E-01	-1.46504299054E+02
7.67735470942E+10	7.58408054875E-01	-1.67567861147E+02	8.84904279348E-04	-8.90402578370E+00	7.33488208786E-04	-7.15232842966E+00	5.75587816298E-01	-1.49717734099E+02
7.67795591182E+10	7.75256032278E-01	-1.74377279910E+02	9.27261509781E-04	-1.57968106776E+01	8.43379026396E-04	-7.96873670437E+00	5.76851944875E-01	-1.55882204266E+02
7.67855711423E+10	7.70201536722E-01	-1.77420925066E+02	1.01171612594E-03	-2.94147516180E+01	7.35401837755E-04	-2.31572202276E+01	5.66670258078E-01	-1.60921713878E+02
7.67915831663E+10	7.80425828210E-01	1.74659490634E+02	1.06597792065E-03	-4.45669929557E+01	8.80492806015E-04	-3.42073182680E+01	5.55739969990E-01	-1.66307904735E+02
7.67975951904E+10	7.77104226495E-01	1.70371640078E+02	1.08211481802E-03	-5.09222477250E+01	9.14458025624E-04	-4.98941428672E+01	5.36465009842E-01	-1.69862438191E+02
7.68036072144E+10	7.78499349246E-01	1.62109067661E+02	1.24092316618E-03	-6.75144991466E+01	9.45000776286E-04	-6.03650261462E+01	5.14465419306E-01	-1.71753988658E+02
7.68096192385E+10	7.69021400557E-01	1.54483530680E+02	1.09960075261E-03	-7.86333551094E+01	8.91715727774E-04	-7.58182445007E+01	4.99156095743E-01	-1.76900003953E+02
7.68156312625E+10	7.53366399194E-01	1.51905300769E+02	1.13109980552E-03	-9.07140767203E+01	9.15385787679E-04	-8.89980733812E+01	4.83776320652E-01	1.78537326966E+02
7.68216432866E+10	7.43958131325E-01	1.46042131805E+02	1.16021201697E-03	-1.07368651257E+02	8.54317721352E-04	-9.21860584200E+01	4.58936644909E-01	1.78736790687E+02
7.68276553106E+10	7.27410030708E-01	1.42752489622E+02	1.09035764376E-03	-1.21511356028E+02	8.97929280721E-04	-1.09037684633E+02	4.43504390224E-01	1.75661461405E+02
7.68336673347E+10	7.08365654683E-01	1.36627791152E+02	1.12101232961E-03	-1.28812505318E+02	8.39787325963E-04	-1.19158706628E+02	4.27897734861E-01	1.73383339551E+02
7.68396793587E+10	6.88687675029E-01	1.30037000905E+02	9.84347520625E-04	-1.45942659115E+02	8.04869255374E-04	-1.30851539188E+02	4.15009090732E-01	1.69591082870E+02
7.68456913828E+10	6.74876135194E-01	1.29261897339E+02	9.21319575049E-04	-1.56525324196E+02	7.69766450544E-04	-1.43027649328E+02	4.03362430830E-01	1.66249290536E+02
7.68517034068E+10	6.52371271398E-01	1.21125554046E+02	9.03462046399E-04	-1.64894048691E+02	6.42055740228E-04	-1.56743206214E+02	3.88726028105E-01	1.64677678151E+02
7.68577154309E+10	6.28302872281E-01	1.15241276460E+02	7.70315406203E-04	-1.79523311185E+02	6.12740487282E-04	-1.56951886971E+02	3.77172754841E-01	1.62008704886E+02
7.68637274549E+10	6.16586054518E-01	1.13948488232E+02	7.04202632931E-04	1.78813576407E+02	6.17394679689E-04	-1.67117383437E+02	3.62689324055E-01	1.60725225429E+02
7.68697394790E+10	5.93844727430E-01	1.08292162292E+02	5.87714679664E-04	1.73674545708E+02	5.69604414891E-04	-1.64982638201E+02	3.49537778796E-01	1.58083203192E+02
7.68757515030E+10	5.81451011816E-01	1.06885493500E+02	6.29582613388E-04	1.63213533690E+02	5.28367087737E-04	1.69101632001E+02	3.34829304226E-01	1.55152595302E+02
7.68817635271E+10	5.63627201962E-01	1.01792809223E+02	6.65914571000E-04	1.55270029807E+02	4.84774394904E-04	1.66559537895E+02	3.20620809848E-01	1.52741979432E+02
7.68877755511E+10	5.43272675365E-01	9.78820593870E+01	6.20983206414E-04	1.45094084666E+02	5.15512675848E-04	1.69110564094E+02	3.07455679658E-01	1.51743498685E+02
7.68937875752E+10	5.26618446698E-01	9.28364243560E+01	5.81038910155E-04	1.42503650440E+02	5.05782175008E-04	1.60502675925E+02	2.90569800029E-01	1.52266079267E+02
7.68997995992E+10	5.13195524653E-01	9.17640947531E+01	4.60442176496E-04	1.39195017571E+02	5.22576613589E-04	1.57627809515E+02	2.77744290331E-01	1.49441345564E+02
7.69058116232E+10	4.98133353903E-01	8.59375636261E+01	5.44541890129E-04	1.31564617150E+02	5.44501784680E-04	1.41565300187E+02	2.65541478430E-01	1.47992974441E+02
7.69118236473E+10	4.81895158996E-01	8.29149207244E+01	4.93672135467E-04	1.24620916793E+02	4.83392127539E-04	1.42984023700E+02	2.53627180826E-01	1.49162617580E+02
7.69178356713E+10	4.65807342089E-01	7.79541771335E+01	3.93354769354E-04	1.06690614904E+02	5.49254813106E-04	1.34479037524E+02	2.41437288619E-01	1.51200120869E+02
7.69238476954E+10	4.60893256566E-01	7.71734979957E+01	4.86961240880E-04	1.00077553544E+02	4.43406242389E-04	1.33236134159E+02	2.35177162490E-01	1.53138133318E+02
7.69298597194E+10	4.51162075639E-01	7.22029276134E+01	3.44358911859E-04	8.92817048344E+01	4.01379170233E-04	1.17635112843E+02	2.32416481176E-01	1.54925487356E+02
7.69358717435E+10	4.30797388394E-01	6.78171100322E+01	3.10016138816E-04	9.13912374428E+01	4.50271709803E-04	1.08035981773E+02	2.34424046436E-01	1.57634756171E+02
7.69418837675E+10	4.22295931432E-01	6.69459731462E+01	3.48625185001E-04	9.60229372789E+01	3.89121441029E-04	9.54408416782E+01	2.39805036219E-01	1.58599894740E+02
7.69478957916E+10	4.21120536806E-01	6.46825760669E+01	3.67671772529E-04	8.62010950555E+01	4.78592054423E-04	9.53897458821E+01	2.46268073016E-01	1.63632658240E+02
7.69539078156E+10	4.10566001938E-01	6.17210357690E+01	2.98616180090E-04	8.08219624159E+01	4.11237765675E-04	9.70021312872E+01	2.63301517537E-01	1.63851511382E+02
7.69599198397E+10	3.97960021862E-01	5.86904070337E+01	2.91637733600E-04	8.12969043132E+01	3.48243651624E-04	9.83710045257E+01	2.81100015688E-01	1.64721574906E+02
7.69659318637E+10	3.92560904908E-01	5.44089503190E+01	2.55583506893E-04	6.35127574067E+01	3.80902907192E-04	8.75559057967E+01	3.03773646723E-01	1.62781933531E+02
7.69719438878E+10	3.81231720340E-01	5.04250497720E+01	1.74787246552E-04	6.96611124704E+01	3.17206027298E-04	7.87600275431E+01	3.25338994512E-01	1.63319639038E+02
7.69779559118E+10	3.74183725130E-01	4.81480225028E+01	1.75261091505E-04	5.60071819223E+01	3.49596700410E-04	6.53324263677E+01	3.51775727339E-01	1.59966780510E+02
7.69839679359E+10	3.68648882212E-01	4.58084766797E+01	1.38190391052E-04	8.50894047175E+01	2.56062879063E-04	8.29659307844E+01	3.78480371487E-01	1.57344255471E+02
7.69899799599E+10	3.66613429319E-01	4.55254383533E+01	2.19603006229E-04	5.83870536200E+01	1.70093170526E-04	5.52539665464E+01	4.06839284806E-01	1.52170069126E+02
7.69959919840E+10	3.57002196646E-01	4.01441040901E+01	1.93081634924E-04	4.51828576746E+01	2.78578275393E-04	5.68668770698E+01	4.32214293499E-01	1.48730848062E+02
7.70020040080E+10	3.52983179049E-01	3.68618634908E+01	2.32739366909E-04	5.83550460542E+01	2.13658921021E-04	7.67359420912E+01	4.53778083617E-01	1.45457953999E+02
7.70080160321E+10	3.51699767829E-01	3.38870926231E+01	2.15784619184E-04	7.03709546846E+01	2.39188793548E-04	6.33893644921E+01	4.73998127852E-01	1.41006831764E+02
7.70140280561E+10	3.50720514429E-01	3.22964354228E+01	2.00217426285E-04	5.57822125626E+01	2.22936499699E-04	5.58631793586E+01	4.92657661729E-01	1.35569083536E+02
7.70200400802E+10	3.44554708763E-01	2.98888925836E+01	2.14059438491E-04	4.33893976208E+01	2.77324088261E-04	6.95412023906E+01	5.04365435856E-01	1.29650030196E+02
7.70260521042E+10	3.36527437943E-01	2.79683113267E+01	1.96411474424E-04	3.50385305809E+01	2.85600512167E-04	4.55269078992E+01	5.12920064243E-01	1.22702568712E+02
7.70320641283E+10	3.34411976796E-01	2.52903316933E+01	1.84813364585E-04	3.85186872319E+01	1.77398527771E-04	2.31359601689E+01	5.20164838323E-01	1.17926342688E+02
7.70380761523E+10	3.35205705794E-01	2.23185426296E+01	1.54531160873E-04	4.61100959071E+01	1.82549579374E-04	4.61840455885E+01	5.22053512185E-01	1.14273766820E+02
7.70440881764E+10	3.26719929869E-01	1.95272450831E+01	1.59841608561E-04	4.82402886549E+01	2.57432432197E-04	4.65479342992E+01	5.20242443560E-01	1.09035433131E+02
7.70501002004E+10	3.28301571438E-01	1.75825320007E+01	1.72451722409E-04	3.75115307132E+01	2.37946303014E-04	4.16624216600E+01	5.17306731321E-01	1.03566535815E+02
7.70561122244E+10	3.29622987815E-01	1.42287494619E+01	1.59779409524E-04	5.29787294911E+01	2.24373468828E-04	4.19110168042E+01	5.14764403653E-01	9.95411921356E+01
7.70621242485E+10	3.26206931777E-01	1.14995205860E+01	2.30378007365E-04	3.23189862584E+01	2.96242609124E-04	2.28747259588E+01	5.04582072844E-01	9.26985288380E+01
7.70681362725E+10	3.20224054993E-01	1.02308776703E+01	2.46309015030E-04	1.87245000500E+01	2.93666966725E-04	1.58010598697E+01	5.01475774636E-01	9.08819603819E+01
7.70741482966E+10	3.19539877071E-01	7.28983765258E+00	2.04226699302E-04	1.35825326275E+01	2.90417218597E-04	1.57920126334E+01	4.92868600823E-01	8.67076408782E+01
7.70801603206E+10	3.18855682215E-01	5.33543358424E+00	2.71914898899E-04	2.45612889863E+01	2.73230135553E-04	8.18382007872E+00	4.84143796790E-01	8.30427325136E+01
7.70861723447E+10	3.13873198550E-01	2.69979489702E+00	2.97814760678E-04	1.62754515791E+01	2.89781461071E-04	1.28183113352E+01	4.72707863463E-01	7.65313948304E+01
7.70921843687E+10	3.12945187507E-01	8.05484224844E-02	2.51747467228E-04	4.12910964406E+00	3.27144128722E-04	-2.74162663555E+00	4.64129624323E-01	7.27957214228E+01
7.70981963928E+10	3.19206165457E-01	-1.46286488193E+00	2.57711405783E-04	1.03010654979E+01	3.34191377731E-04	-3.26780139507E+00	4.54669292852E-01	6.95405775968E+01
7.71042084168E+10	3.19002131210E-01	-4.18701181332E+00	2.97889722762E-04	-6.89226615990E-01	3.38360283686E-04	-8.65120965126E+00	4.46096926031E-01	6.73020589381E+01
7.71102204409E+10	3.19547109058E-01	-6.72482302113E+00	2.47798897469E-04	-8.57145454205E+00	2.73756494579E-04	-2.12598995336E+01	4.37222496736E-01	6.41576014478E+01
7.71162324649E+10	3.14688441436E-01	-8.79283670733E+00	2.82346032479E-04	-6.09016491249E+00	2.60805331415E-04	-2.36807197616E+01	4.26646514466E-01	5.93539882907E+01
7.71222444890E+10	3.08455386230E-01	-1.16504882318E+01	2.80584443259E-04	-2.00163021024E+01	2.84908864540E-04	-2.70080992758E+01	4.17196966174E-01	5.49749993446E+01
7.71282565130E+10	3.13096467400E-01	-1.43490509883E+01	2.55922933373E-04	-7.20834616369E+00	3.17230564297E-04	-3.74333928615E+01	4.08819963742E-01	5.31483394875E+01
7.71342685371E+10	3.14163086752E-01	-1.62882392673E+01	2.49594518051E-04	-1.63761805073E+01	3.15490811722E-04	-3.27381996651E+01	3.97914880961E-01	4.93710845207E+01
7.71402805611E+10	3.22951542772E-01	-1.89368104717E+01	3.27904676663E-04	-3.11318079181E+01	3.17824607068E-04	-4.61155648206E+01	3.91147001511E-01	4.70695410446E+01
7.71462925852E+10	3.08824531874E-01	-2.07594316391E+01	3.10086365255E-04	-3.37975036838E+01	3.44907122594E-04	-5.39486092537E+01	3.85176944532E-01	4.39538695487E+01
7.71523046092E+10	3.11827286835E-01	-2.24880043519E+01	3.15621391017E-04	-3.78145354755E+01	3.53381558294E-04	-6.40795217560E+01	3.72080418780E-01	4.01771806884E+01
7.71583166333E+10	3.20737491466E-01	-2.52077003941E+01	3.45165574800E-04	-3.74788514289E+01	3.31817025567E-04	-6.67962557858E+01	3.67758464954E-01	3.80018465664E+01
7.71643286573E+10	3.16233814820E-01	-2.64614352007E+01	3.27599674303E-04	-5.72684906853E+01	3.28280746562E-04	-8.32023931215E+01	3.61003553574E-01	3.47909783477E+01
7.71703406814E+10	3.15086332349E-01	-3.05799474224E+01	2.88752243226E-04	-5.58926803705E+01	3.71536828779E-04	-7.08984927902E+01	3.49367547571E-01	3.27044260569E+01
7.71763527054E+10	3.13733125939E-01	-3.12881702387E+01	3.22932767587E-04	-7.40853210626E+01	3.29597284812E-04	-9.36622851456E+01	3.48771768589E-01	3.02959601844E+01
7.71823647295E+10	3.17578776968E-01	-3.31903106101E+01	3.14159392720E-04	-6.25531461479E+01	3.26877830805E-04	-8.84005117339E+01	3.37856696057E-01	2.87131535132E+01
7.71883767535E+10	3.18573661412E-01	-3.43243575173E+01	3.05191962523E-04	-7.32093906474E+01	2.55047752770E-04	-9.08524247562E+01	3.30921661336E-01	2.54080102827E+01
7.71943887776E+10	3.19394971674E-01	-3.79032300330E+01	2.91033423371E-04	-7.81447814606E+01	2.94229432669E-04	-1.09954135503E+02	3.25840075875E-01	2.19176774396E+01
7.72004008016E+10	3.21962592338E-01	-4.03645874385E+01	3.13798123955E-04	-8.35432007553E+01	2.68241761540E-04	-1.16827528058E+02	3.21228635967E-01	2.04440975948E+01
7.72064128257E+10	3.28155813569E-01	-4.22216560542E+01	3.31393776351E-04	-8.93690204184E+01	3.11526639658E-04	-1.15213997050E+02	3.14214468422E-01	1.77480440196E+01
7.72124248497E+10	3.31417513892E-01	-4.52265145497E+01	3.21470893340E-04	-1.02610889144E+02	3.59379319671E-04	-1.16589545873E+02	3.07818517194E-01	1.45473753178E+01
7.72184368737E+10	3.37003432193E-01	-4.80817306407E+01	3.61549298708E-04	-1.08948250548E+02	3.00920780339E-04	-1.33914693221E+02	3.03012493929E-01	1.24990203471E+01
7.72244488978E+10	3.39355967276E-01	-4.84777033751E+01	3.42975082413E-04	-1.11867014448E+02	2.99777494094E-04	-1.44276977626E+02	3.04440384869E-01	1.03073868445E+01
7.72304609218E+10	3.43097113424E-01	-5.18430419178E+01	2.95697373400E-04	-1.25531378482E+02	2.77917610803E-04	-1.52214032684E+02	2.99799385113E-01	8.99976650017E+00
7.72364729459E+10	3.45394078334E-01	-5.31461534541E+01	3.06218631291E-04	-1.30202231539E+02	2.61130272530E-04	-1.53630310359E+02	2.94763012703E-01	7.57930626001E+00
7.72424849699E+10	3.47468017387E-01	-5.50041140211E+01	2.92246013409E-04	-1.27408897992E+02	2.78239698818E-04	-1.62987953939E+02	2.95086898569E-01	4.79940674832E+00
7.72484969940E+10	3.54436578646E-01	-5.88359990542E+01	3.63733786589E-04	-1.33346703596E+02	2.35837649351E-04	-1.59314645098E+02	2.89874698593E-01	2.15229394474E+00
7.72545090180E+10	3.56421124148E-01	-6.01179459612E+01	2.99226090212E-04	-1.50653449341E+02	2.72922337597E-04	-1.77463074201E+02	2.88216801125E-01	-5.63446590677E-01
7.72605210421E+10	3.54843558562E-01	-6.09836725378E+01	3.09849824426E-04	-1.53269528074E+02	2.41952522229E-04	1.75143056977E+02	2.84633791193E-01	-1.62024798544E+00
7.72665330661E+10	3.69205010887E-01	-6.41491690878E+01	3.18866353109E-04	-1.67103701649E+02	2.63220068180E-04	1.76333050078E+02	2.86805106484E-01	-4.56393068710E+00
7.72725450902E+10	3.72302861312E-01	-6.62334652662E+01	2.81916882776E-04	-1.73764067376E+02	2.34936460013E-04	1.51406000368E+02	2.84683547512E-01	-6.40112680740E+00
7.72785571142E+10	3.84581840146E-01	-6.90727685981E+01	2.41359856169E-04	-1.73005123618E+02	2.51013366416E-04	1.62792137941E+02	2.82960472311E-01	-8.26923652176E+00
7.72845691383E+10	3.81075963916E-01	-7.08162879348E+01	2.31084793820E-04	-1.75823644026E+02	2.08532331129E-04	1.41925160312E+02	2.79891235977E-01	-9.76749757736E+00
7.72905811623E+10	3.86353880820E-01	-7.23536668820E+01	1.30985493612E-04	1.74681936773E+02	1.92105474692E-04	1.47063481668E+02	2.83475806364E-01	-1.26525234478E+01
7.72965931864E+10	3.91377620468E-01	-7.42185652349E+01	1.93317174629E-04	1.73321085436E+02	2.23830102758E-04	1.36135945515E+02	2.81768395519E-01	-1.50250329799E+01
7.73026052104E+10	3.98202938119E-01	-7.64810192115E+01	1.79485137904E-04	1.69152028183E+02	1.70137129429E-04	1.19277013812E+02	2.82916341483E-01	-1.75121406296E+01
7.73086172345E+10	4.09565532261E-01	-7.98298553447E+01	1.68155919361E-04	1.56985988429E+02	1.62646561263E-04	1.06736660469E+02	2.83159481445E-01	-1.96564742545E+01
7.73146292585E+10	4.18137984410E-01	-8.20390186020E+01	1.46139366133E-04	1.49160664679E+02	1.70529699149E-04	1.19365374637E+02	2.83692193336E-01	-2.08135088981E+01
7.73206412826E+10	4.25476258844E-01	-8.34250286751E+01	1.46607341157E-04	1.54215296337E+02	9.59171451106E-05	9.44160884013E+01	2.87008053905E-01	-2.49430529789E+01
7.73266533066E+10	4.30119322913E-01	-8.71912243221E+01	4.43976379554E-05	1.33804759890E+02	7.67978996507E-05	1.15151262635E+02	2.87353233707E-01	-2.64797159348E+01
7.73326653307E+10	4.45650889528E-01	-8.99069353385E+01	7.03406981294E-05	1.29740268160E+02	6.06420101957E-05	7.48962114005E+01	2.87660326207E-01	-2.88405339584E+01
7.73386773547E+10	4.49097309039E-01	-9.13778103374E+01	6.85461004559E-05	1.21390959022E+02	5.45202310581E-05	1.24303883600E+01	2.85205877740E-01	-3.02651547907E+01
7.73446893788E+10	4.55215210584E-01	-9.37345965157E+01	3.82856016532E-05	-1.05391745841E+02	6.74445735309E-05	9.27162686713E+01	2.86161330896E-01	-3.26564958229E+01
7.73507014028E+10	4.69877492419E-01	-9.69046626526E+01	8.33546728658E-05	8.67224927332E+01	3.44664801442E-05	-3.05930186131E-01	2.95103544288E-01	-3.53217626769E+01
7.73567134269E+10	4.74789884903E-01	-9.94889175602E+01	3.40152940499E-05	3.07996128910E+01	9.63767654284E-05	-1.90517631542E+01	2.93117077166E-01	-3.75422743540E+01
7.73627254509E+10	4.77595631578E-01	-1.00801996854E+02	8.90027396295E-05	-2.81634010727E+01	6.91674536576E-05	-1.05770104334E+01	2.96829475050E-01	-4.07863454057E+01
7.73687374749E+10	4.96887718067E-01	-1.03386691653E+02	1.50770412303E-04	-2.51008513813E+01	9.49095854394E-05	-4.42545540717E+01	3.02084526722E-01	-4.44356536370E+01
7.73747494990E+10	5.03589025941E-01	-1.05410781447E+02	1.45097310492E-04	-5.75024712225E+01	1.43518833692E-04	-5.86234530635E+01	3.03212294612E-01	-4.68423462456E+01
7.73807615230E+10	5.08514414840E-01	-1.08413569100E+02	1.90471579197E-04	-7.05208466869E+01	1.51657841846E-04	-7.83675186089E+01	3.07517404198E-01	-4.92372171168E+01
7.73867735471E+10	5.27255148339E-01	-1.11385209880E+02	2.81228286734E-04	-7.97217468720E+01	1.50337036281E-04	-8.39919313161E+01	3.06090924801E-01	-5.08104308874E+01
7.73927855711E+10	5.46181076634E-01	-1.14975505564E+02	2.96019498867E-04	-8.22565843998E+01	2.46784281284E-04	-1.07222948108E+02	3.06801641538E-01	-5.44644727198E+01
7.73987975952E+10	5.48123984891E-01	-1.16863792074E+02	2.62364991142E-04	-9.78683944034E+01	2.28255181239E-04	-1.14645978316E+02	3.10077902340E-01	-5.79928075122E+01
7.74048096192E+10	5.47729821012E-01	-1.17308915942E+02	3.32160601426E-04	-1.17192256362E+02	2.38232129470E-04	-1.17963157803E+02	3.10715544145E-01	-6.05261480942E+01
7.74108216433E+10	5.77475582669E-01	-1.22668425399E+02	3.51044371504E-04	-1.20864864359E+02	2.66958214400E-04	-1.42542432400E+02	3.11841762886E-01	-6.30868152209E+01
7.74168336673E+10	5.89133252030E-01	-1.25763081144E+02	4.60569502407E-04	-1.26207022580E+02	3.08075452434E-04	-1.57104544188E+02	3.11007677168E-01	-6.58948036375E+01
7.74228456914E+10	6.07950413914E-01	-1.29335834235E+02	5.00903246194E-04	-1.34687224919E+02	2.77120207991E-04	-1.60065360230E+02	3.07244762901E-01	-6.78213792282E+01
7.74288577154E+10	6.20099785070E-01	-1.31759691593E+02	5.53701079835E-04	-1.52945985956E+02	3.42617707835E-04	-1.79009946393E+02	3.06281352269E-01	-7.12665542398E+01
7.74348697395E+10	6.11473438231E-01	-1.31741603872E+02	5.26566215943E-04	-1.64098887850E+02	2.98111980998E-04	1.75373707821E+02	3.09847206018E-01	-7.46286665540E+01
7.74408817635E+10	6.27313620557E-01	-1.35029861050E+02	5.90363631210E-04	-1.77089045956E+02	3.58073543197E-04	1.73484469520E+02	3.05771614948E-01	-7.65984100871E+01
7.74468937876E+10	6.51030339204E-01	-1.39444968974E+02	5.94760468163E-04	-1.74526194734E+02	3.67337109083E-04	1.57143815715E+02	3.00385535828E-01	-7.74855728410E+01
7.74529058116E+10	6.60835268047E-01	-1.41677522276E+02	5.72216683332E-04	1.73885482937E+02	3.92907826604E-04	1.44801748692E+02	2.97136938030E-01	-7.84443717445E+01
7.74589178357E+10	6.61082244511E-01	-1.43022752560E+02	5.56030357522E-04	1.60461227518E+02	4.06044320320E-04	1.38906336931E+02	2.96752550027E-01	-8.08385818925E+01
7.74649298597E+10	6.95946184371E-01	-1.48381107546E+02	6.37628080460E-04	1.54578321919E+02	3.44773180943E-04	1.36266043291E+02	2.98831318648E-01	-8.32660909599E+01
7.74709418838E+10	7.24281529055E-01	-1.53269700132E+02	5.74950190892E-04	1.40219570782E+02	3.55168346348E-04	1.25057973939E+02	2.93172981288E-01	-8.36162839792E+01
7.74769539078E+10	7.47910935949E-01	-1.58451651002E+02	5.73396465389E-04	1.37597271674E+02	3.43587227756E-04	1.12569307944E+02	2.95874921646E-01	-8.54266754293E+01
7.74829659319E+10	7.38312714385E-01	-1.58258254921E+02	5.56451684753E-04	1.32394623135E+02	3.76825789098E-04	1.20158487333E+02	3.02500097417E-01	-8.66883583175E+01
7.74889779559E+10	7.50429707430E-01	-1.60586447416E+02	6.32348620706E-04	1.23797322042E+02	3.07509712173E-04	1.16349553350E+02	3.04962131386E-01	-8.70759490733E+01
7.74949899800E+10	7.29710338770E-01	-1.59574621968E+02	6.25990214405E-04	1.16464018583E+02	3.64948836557E-04	1.05362349780E+02	3.02506909758E-01	-8.68596200259E+01
7.75010020040E+10	7.74746703302E-01	-1.66929818878E+02	6.75406132238E-04	1.14845844076E+02	3.25940879345E-04	9.69622921937E+01	3.12444742419E-01	-8.81374084921E+01
7.75070140281E+10	7.93670474831E-01	-1.71375755541E+02	6.44308320958E-04	1.10136376994E+02	3.86321627660E-04	8.93666227426E+01	3.21877004719E-01	-8.92911754932E+01
7.75130260521E+10	8.00122915694E-01	-1.74059968637E+02	5.24780014299E-04	9.55189017433E+01	3.00934230063E-04	8.21186424956E+01	3.29368163696E-01	-8.91936058074E+01
7.75190380762E+10	8.28345725532E-01	-1.79804231179E+02	5.07090320385E-04	9.08781661704E+01	2.80629245764E-04	7.96638848710E+01	3.46653228789E-01	-9.16226389324E+01
7.75250501002E+10	8.39809337788E-01	1.76904193606E+02	6.55567553731E-04	9.02279032182E+01	3.11501016193E-04	8.95277450842E+01	3.57661792670E-01	-9.27645179278E+01
7.75310621242E+10	8.56305185309E-01	1.73855915236E+02	5.92986390655E-04	7.64632443240E+01	3.12103456444E-04	8.18193308513E+01	3.76812392328E-01	-9.42831248790E+01
7.75370741483E+10	8.74396935231E-01	1.68841217300E+02	6.19155755224E-04	7.99762702137E+01	3.04189939313E-04	7.52841952027E+01	3.92026841224E-01	-9.50386345655E+01
7.75430861723E+10	8.72751576065E-01	1.66530416993E+02	5.69606378768E-04	6.64416950534E+01	2.93626699904E-04	7.00804866481E+01	4.02995790176E-01	-9.64432440637E+01
7.75490981964E+10	8.71071264948E-01	1.62720286909E+02	4.82157160368E-04	5.45220334330E+01	2.47313381153E-04	5.85204246439E+01	4.30218262117E-01	-1.00210872583E+02
7.75551102204E+10	8.70592451971E-01	1.62076038521E+02	3.39976552243E-04	4.51305046900E+01	1.60762735650E-04	5.53954486026E+01	4.48633473442E-01	-1.02620156444E+02
7.75611222445E+10	8.95347154408E-01	1.54651092208E+02	3.08760766520E-04	5.73425436641E+01	1.99291482551E-04	5.41097220336E+01	4.69675162281E-01	-1.05078131364E+02
7.75671342685E+10	9.01184722697E-01	1.50714594787E+02	3.61369168905E-04	5.33923958860E+01	1.11210124005E-04	5.15947277922E+01	4.79605728477E-01	-1.05947461704E+02
7.75731462926E+10	8.97264322031E-01	1.49487491414E+02	3.76407429000E-04	7.22336212475E+01	1.74496267378E-04	4.91832130980E+01	5.01296591494E-01	-1.08734709041E+02
7.75791583166E+10	8.99514050837E-01	1.46470214469E+02	4.79139752385E-04	6.05043807131E+01	2.30214504166E-04	6.01885775709E+01	5.35546548465E-01	-1.13229108096E+02
7.75851703407E+10	9.16791800295E-01	1.39150888112E+02	5.69023874111E-04	5.62705500474E+01	2.11238503392E-04	7.68307053685E+01	5.43958821942E-01	-1.14534017488E+02
7.75911823647E+10	9.12701440243E-01	1.34993163330E+02	5.24579823409E-04	4.45686274671E+01	3.27969751500E-04	7.18473129850E+01	5.71399016865E-01	-1.18588916448E+02
7.75971943888E+10	9.06576346769E-01	1.34999253249E+02	5.69970881906E-04	4.83202517258E+01	2.31408662095E-04	4.99038574104E+01	5.86419461378E-01	-1.20238216018E+02
7.76032064128E+10	9.03517564972E-01	1.31706911794E+02	4.77277556358E-04	4.63209788590E+01	2.77410353425E-04	7.00995945215E+01	6.22031229019E-01	-1.24674029669E+02
7.76092184369E+10	9.01245174747E-01	1.28265617134E+02	5.18782949959E-04	3.51451850840E+01	3.63489490837E-04	5.77812566141E+01	6.52501258597E-01	-1.28725233396E+02
7.76152304609E+10	8.95571774402E-01	1.21854986377E+02	5.77677809095E-04	2.76444161830E+01	2.84241369376E-04	5.85937215644E+01	6.81111015024E-01	-1.32444940888E+02
7.76212424850E+10	8.95938683514E-01	1.17576112327E+02	6.74352950120E-04	3.80345272608E+01	3.36479408132E-04	5.15409158106E+01	7.06861643406E-01	-1.35845972473E+02
7.76272545090E+10	8.85251313924E-01	1.11514004194E+02	6.35003874044E-04	2.55247221244E+01	4.06806892150E-04	5.09076428009E+01	7.20371294269E-01	-1.38064828506E+02
7.76332665331E+10	8.77553948705E-01	1.09564270196E+02	5.95624162973E-04	1.78962752694E+01	4.19304933657E-04	5.70250160731E+01	7.30202253581E-01	-1.40187851620E+02
7.76392785571E+10	8.66615692482E-01	1.09772242280E+02	6.67970075581E-04	1.51042694311E+01	5.15298654718E-04	6.04423972921E+01	7.60257171709E-01	-1.44168034479E+02
7.76452905812E+10	8.60441857420E-01	1.07339592467E+02	6.23497888620E-04	6.17657852997E-02	5.26467557709E-04	4.74486290663E+01	8.06779797403E-01	-1.49786378493E+02
7.76513026052E+10	8.48844080635E-01	1.01042593541E+02	7.51009790385E-04	6.77314358542E-01	5.03911707718E-04	3.43664440163E+01	8.30177176723E-01	-1.52865377265E+02
7.76573146293E+10	8.40743658237E-01	9.99782018551E+01	7.18536050223E-04	-1.29945821272E+01	5.78500749191E-04	3.68309651184E+01	8.51295129212E-01	-1.55938096622E+02
7.76633266533E+10	8.32355648634E-01	9.60051735367E+01	6.42221805064E-04	-2.21427232574E+01	5.56765235685E-04	3.42027336567E+01	8.64948299515E-01	-1.58584074406E+02
7.76693386774E+10	8.16029964285E-01	9.14596310082E+01	6.61850883046E-04	-2.33496224004E+01	6.06103574476E-04	2.59467861074E+01	8.98974100372E-01	-1.62508072760E+02
7.76753507014E+10	8.01758573428E-01	8.59554787714E+01	6.03138159884E-04	-2.40493693822E+01	5.81668269993E-04	1.20218248951E+01	9.19782691978E-01	-1.65139883887E+02
7.76813627255E+10	7.98247321797E-01	8.77270083968E+01	5.78149134930E-04	-3.02542436522E+01	6.39815879866E-04	7.70501387625E+00	9.66488768644E-01	-1.70218045433E+02
7.76873747495E+10	7.79176603195E-01	8.30056044578E+01	7.61990792548E-04	-3.46036809364E+01	6.87428788942E-04	8.44235081394E+00	1.01751300476E+00	-1.75760789423E+02
7.76933867735E+10	7.69585022200E-01	7.94648348256E+01	7.18026504483E-04	-5.14047590582E+01	7.69576337533E-04	-1.71877334736E+00	1.05466384115E+00	-1.79902196813E+02
7.76993987976E+10	7.62739854486E-01	7.86608717019E+01	6.92350335343E-04	-4.78237903421E+01	8.24593064694E-04	-3.95295272209E+00	1.07153830329E+00	1.77514649819E+02
7.77054108216E+10	7.44172725844E-01	7.40214641380E+01	6.58056202931E-04	-5.31188845462E+01	9.34309130064E-04	-1.75600597247E+01	1.09221137585E+00	1.74508313838E+02
7.77114228457E+10	7.31431463656E-01	7.02383167488E+01	6.36206490173E-04	-5.87045998819E+01	8.07631522165E-04	-2.20549226204E+01	1.13532092411E+00	1.68453913740E+02
7.77174348697E+10	7.27663485759E-01	7.11221555303E+01	7.00511031227E-04	-6.20158497449E+01	8.25606660750E-04	-2.37820384771E+01	1.16832351244E+00	1.62347638974E+02
7.77234468938E+10	7.08514582435E-01	6.59354027888E+01	6.22270251916E-04	-6.12997390629E+01	8.07270420319E-04	-3.51048495319E+01	1.17567757207E+00	1.59269735768E+02
7.77294589178E+10	6.98721840206E-01	6.33403559286E+01	6.14815483482E-04	-7.33987215761E+01	9.27331425062E-04	-3.37628103009E+01	1.19328269059E+00	1.54566406730E+02
7.77354709419E+10	6.81549678004E-01	5.95957201761E+01	6.72862405248E-04	-7.50231365604E+01	1.02167123895E-03	-4.84669347611E+01	1.23596044209E+00	1.46443770865E+02
7.77414829659E+10	6.74892467103E-01	5.86605228238E+01	6.19761048384E-04	-8.46234707737E+01	1.07478223941E-03	-5.83025303107E+01	1.24477467577E+00	1.40100574937E+02
7.77474949900E+10	6.62619904456E-01	5.54784179427E+01	5.69601558089E-04	-8.96206130051E+01	1.01031541631E-03	-5.78719672968E+01	1.22516669403E+00	1.37230455275E+02
7.77535070140E+10	6.51460654889E-01	5.34140264741E+01	6.08766091266E-04	-8.64332845627E+01	1.14037788556E-03	-6.47966319458E+01	1.22279176837E+00	1.31595349528E+02
7.77595190381E+10	6.45339593910E-01	5.15476383741E+01	6.70573067025E-04	-8.80811551164E+01	1.16424806495E-03	-7.48491794432E+01	1.21437773841E+00	1.28153513156E+02
7.77655310621E+10	6.34911741241E-01	5.01062649769E+01	6.85055634837E-04	-9.29307951118E+01	1.26217003080E-03	-9.01524317586E+01	1.21688398638E+00	1.21410397841E+02
7.77715430862E+10	6.33527441264E-01	4.99825274114E+01	7.41214273192E-04	-1.03832681533E+02	1.14103048788E-03	-9.35192055781E+01	1.20599348072E+00	1.15915495617E+02
7.77775551102E+10	6.19768865693E-01	4.55262608896E+01	6.62183643640E-04	-1.13373061990E+02	1.10765859271E-03	-9.92225377142E+01	1.18846073907E+00	1.13136196007E+02
7.77835671343E+10	6.08633926886E-01	4.26095564642E+01	6.15645645626E-04	-1.26020269846E+02	1.17489567287E-03	-1.07510536723E+02	1.16689126515E+00	1.09701738695E+02
7.77895791583E+10	5.97983170022E-01	4.09377621837E+01	6.07538518965E-04	-1.28137908069E+02	1.02339926259E-03	-1.20555324608E+02	1.15001172019E+00	1.06213473159E+02
7.77955911824E+10	5.87826901736E-01	3.75876354082E+01	6.13279619713E-04	-1.30148638459E+02	1.00349859048E-03	-1.25504898601E+02	1.13961239123E+00	1.00735848229E+02
7.78016032064E+10	5.78515478543E-01	3.63020840808E+01	5.79955103523E-04	-1.41070531054E+02	1.04043513368E-03	-1.32935228222E+02	1.11841609295E+00	9.70546238415E+01
7.78076152305E+10	5.75038139446E-01	3.60460478252E+01	5.70734820372E-04	-1.40960312063E+02	9.64311745307E-04	-1.34176429203E+02	1.09190091040E+00	9.26048632488E+01
7.78136272545E+10	5.71113642302E-01	3.37384004296E+01	5.55417291977E-04	-1.47155282782E+02	8.19240115844E-04	-1.45337489213E+02	1.06632432686E+00	8.81886642036E+01
7.78196392786E+10	5.66811140437E-01	3.27510729192E+01	5.58871132566E-04	-1.57694093199E+02	9.22516548906E-04	-1.52572400324E+02	1.05748977900E+00	8.59827170359E+01
7.78256513026E+10	5.58810284367E-01	3.02305048481E+01	4.76864820872E-04	-1.54774032554E+02	7.76696556678E-04	-1.60109323597E+02	1.03022947307E+00	8.16758977705E+01
7.78316633267E+10	5.37526121044E-01	2.54149108190E+01	4.86259872889E-04	-1.53298801203E+02	7.88291110745E-04	-1.63164214949E+02	1.00613106787E+00	7.81075312954E+01
7.78376753507E+10	5.42237762642E-01	2.64343487014E+01	4.96099621262E-04	-1.63358542273E+02	7.08495414630E-04	-1.70501196747E+02	9.82231046320E-01	7.50387320889E+01
7.78436873747E+10	5.38515029444E-01	2.46616577849E+01	5.16446191916E-04	-1.61376252557E+02	7.35599539183E-04	-1.77957640906E+02	9.59502895322E-01	7.15032748492E+01
7.78496993988E+10	5.32803748604E-01	2.24840337045E+01	4.78103203446E-04	-1.62213069723E+02	7.30893253386E-04	1.78966358394E+02	9.43175783386E-01	6.99469444797E+01
7.78557114228E+10	5.15956069825E-01	1.95308925338E+01	4.55975802440E-04	-1.66622305420E+02	7.04365036949E-04	1.79268482988E+02	9.20858252405E-01	6.64161090495E+01
7.78617234469E+10	5.14368882100E-01	1.83611963977E+01	4.89935512509E-04	-1.77306088348E+02	6.72108852748E-04	1.74326679455E+02	8.96810739533E-01	6.27692170733E+01
7.78677354709E+10	5.11508159077E-01	1.74267226942E+01	4.33227996091E-04	1.76740940441E+02	6.63147246377E-04	1.65537216844E+02	8.67222690147E-01	5.80470972862E+01
7.78737474950E+10	5.08948635719E-01	1.65874646811E+01	3.60509074449E-04	1.79456105104E+02	7.22320992103E-04	1.61257379617E+02	8.46685071191E-01	5.56502404759E+01
7.78797595190E+10	5.02226229620E-01	1.43424842985E+01	3.98857771469E-04	1.69821741878E+02	6.67193148855E-04	1.54189238293E+02	8.36037900452E-01	5.45266705727E+01
7.78857715431E+10	4.87867562815E-01	1.11651612413E+01	4.04841926881E-04	1.66211342303E+02	6.59855490524E-04	1.56516183853E+02	8.18719199869E-01	5.22035910071E+01
7.78917835671E+10	4.90147893774E-01	9.16995740324E+00	3.72449804438E-04	1.67972356149E+02	6.18543082163E-04	1.55060852487E+02	8.01467241040E-01	4.99184497852E+01
7.78977955912E+10	4.85018738765E-01	7.62694541676E+00	3.56229524626E-04	1.62890249097E+02	5.83091562927E-04	1.56034065857E+02	7.81411731179E-01	4.65322419228E+01
7.79038076152E+10	4.77270733970E-01	6.11158785265E+00	3.67055619917E-04	1.66031588384E+02	6.29026764024E-04	1.49663481715E+02	7.64232755817E-01	4.40955720281E+01
7.79098196393E+10	4.78978268254E-01	6.01637089734E+00	3.38424488001E-04	1.56896090846E+02	5.33254383339E-04	1.37547696823E+02	7.44486446664E-01	4.11801627106E+01
7.79158316633E+10	4.75616784960E-01	5.63358856077E+00	4.10840019700E-04	1.55709726807E+02	5.27860120806E-04	1.42951161263E+02	7.37037354231E-01	4.04031220856E+01
7.79218436874E+10	4.68242795967E-01	1.83548584710E+00	3.97595063767E-04	1.49262617668E+02	4.82757783852E-04	1.41354077511E+02	7.25512338638E-01	3.85895866529E+01
7.79278557114E+10	4.63803691747E-01	-1.76596660470E-01	4.26981638851E-04	1.49260411457E+02	5.11053793611E-04	1.35879232439E+02	7.10938203827E-01	3.60566671775E+01
7.79338677355E+10	4.70461396449E-01	-2.01771201144E+00	3.58145994127E-04	1.45909150938E+02	5.34625373076E-04	1.25924667744E+02	6.90059331069E-01	3.27803466401E+01
7.79398797595E+10	4.59248301275E-01	-1.20344392787E+00	3.61159625238E-04	1.39419677897E+02	5.03754262313E-04	1.27781618397E+02	6.84218320579E-01	3.21671175087E+01
7.79458917836E+10	4.55732528684E-01	-2.60185994823E+00	3.68168090349E-04	1.44564222981E+02	4.45908596852E-04	1.27770692710E+02	6.69528300852E-01	2.96677987011E+01
7.79519038076E+10	4.44126612209E-01	-5.87960436939E+00	3.88552435933E-04	1.33195392840E+02	4.52019301023E-04	1.13869766436E+02	6.52145845763E-01	2.64448737845E+01
7.79579158317E+10	4.51103634051E-01	-6.30281846486E+00	3.97281684437E-04	1.31516540995E+02	4.35153855812E-04	1.12261304532E+02	6.50368252553E-01	2.61095142358E+01
7.79639278557E+10	4.50822943899E-01	-8.63385028777E+00	3.95144504546E-04	1.26556966299E+02	4.25040897857E-04	1.12961783903E+02	6.37473441145E-01	2.34727655965E+01
7.79699398798E+10	4.37877591871E-01	-1.15065059527E+01	3.22898396020E-04	1.22385926269E+02	4.49449737747E-04	1.08542443093E+02	6.21316575089E-01	2.04315371401E+01
7.79759519038E+10	4.33956873673E-01	-1.24955579571E+01	3.47046529520E-04	1.24656135603E+02	4.09790886088E-04	9.90754116242E+01	6.18479970634E-01	2.00923221963E+01
7.79819639279E+10	4.39812236893E-01	-1.37523976969E+01	3.38373092522E-04	1.23734801116E+02	3.90411695015E-04	9.43046019549E+01	6.11505299693E-01	1.87790253072E+01
7.79879759519E+10	4.33024439047E-01	-1.39869215978E+01	3.17118549030E-04	1.17442624191E+02	3.55651052188E-04	9.31842406878E+01	6.00411185294E-01	1.62738188068E+01
7.79939879760E+10	4.35852406270E-01	-1.48692326104E+01	2.76350715101E-04	1.19801059253E+02	3.99029869501E-04	9.20231587808E+01	5.89517555946E-01	1.46021755206E+01
7.80000000000E+10	4.28208966586E-01	-1.77436617993E+01	3.03487094400E-04	1.15481668158E+02	3.96007544587E-04	9.58032430131E+01	5.79313342275E-01	1.18097586047E+01
