# Hz S MA R 50
! CMT, C4420, 21421029, 25.1.2/3
! Date: 8/4/2025 4:03:25 PM
! Data: Format (Calibration Info)
! Freq	S33:Mag/Ang(F2)	S43:Mag/Ang(F2)	S34:Mag/Ang(F2)	S44:Mag/Ang(F2)
7.50000000000E+10	7.26927828193E-04	-1.50630400377E+01	9.98922829885E-01	-1.06282324758E+00	9.99583759999E-01	2.66091368394E+00	6.34349514665E-04	9.41602581318E+00
7.50060120240E+10	7.52128920710E-04	-1.26953064699E+01	1.00054299632E+00	-1.67843799630E+00	9.96519986765E-01	3.27950378702E+00	1.12181228091E-03	-3.90154920568E+01
7.50120240481E+10	1.28587241424E-03	-6.88575675643E+00	9.98781342916E-01	-9.62263602088E-01	9.96782129289E-01	2.70600871067E+00	5.79429869666E-04	-2.62936145797E+00
7.50180360721E+10	7.18316915384E-04	1.69879999758E+02	1.00329179336E+00	-2.49331187798E+00	1.00081961562E+00	1.15725809072E+00	5.49202104869E-04	1.60468651613E+02
7.50240480962E+10	7.69002535734E-04	1.67229193598E+02	1.00090054883E+00	-1.70542205172E+00	1.00437281933E+00	2.02835700006E-01	6.10303379793E-04	-1.31840152052E+02
7.50300601202E+10	1.34266937978E-03	1.61554551562E+02	1.00065652429E+00	-9.45852296760E-01	1.00684836431E+00	-8.74807609863E-01	1.07546461460E-03	-1.08916632521E+02
7.50360721443E+10	6.90990280379E-04	1.50964704582E+02	1.00282357158E+00	-2.42791138051E+00	9.97885095241E-01	8.75518964122E-01	1.92079314770E-03	1.16003603241E+02
7.50420841683E+10	1.33596281905E-03	-3.12813112127E+01	9.97502616137E-01	-5.75129139475E-01	9.97043152680E-01	2.19100162459E+00	7.33456253689E-04	7.51655652921E+01
7.50480961924E+10	4.87050997599E-04	-5.64367154888E+01	1.00252665487E+00	-1.94309501767E+00	9.98175019552E-01	2.21240905062E+00	1.56009825296E-03	-7.10079346491E+01
7.50541082164E+10	1.31757285394E-03	-3.67709078367E+01	9.98747071803E-01	-8.51943503408E-01	9.99333229895E-01	2.90329409905E+00	7.42198625283E-04	-4.94287824610E+01
7.50601202405E+10	4.18243997676E-04	5.41767389450E+01	9.95776637639E-01	-5.67359712651E-02	1.00007009508E+00	6.25947213323E-01	1.46362810312E-03	9.91743593913E+01
7.50661322645E+10	1.32942123892E-03	1.15453334326E+02	1.00028060305E+00	-2.24497454278E+00	9.99065126606E-01	1.26190937600E+00	3.17883700083E-04	1.26222400476E+02
7.50721442886E+10	1.21180982431E-03	-5.46171534410E+01	9.98367667655E-01	-2.64220708191E-01	1.00019655076E+00	1.54648416472E+00	1.22696377879E-04	-4.52246041819E+01
7.50781563126E+10	1.30959971110E-03	1.61480023845E+02	1.00176967748E+00	-1.69306715167E+00	1.00596094097E+00	-1.16662273184E+00	5.17650272371E-04	-1.13769360504E+02
7.50841683367E+10	5.63579629805E-04	-1.49416484178E+02	1.00335154610E+00	-2.06567952208E+00	9.99644385055E-01	6.29583231290E-01	4.43969939587E-04	-1.05275801227E+02
7.50901803607E+10	6.91816493965E-04	-8.61589838334E+01	1.00118162316E+00	-2.14234706148E+00	9.98347718329E-01	2.37952485548E+00	1.41500331322E-03	1.00608473551E+02
7.50961923848E+10	1.12972927490E-03	-4.82104816068E+01	9.98847882233E-01	-7.95259401181E-01	9.96940028478E-01	2.64893373446E+00	1.92862855855E-04	1.25099272620E+02
7.51022044088E+10	1.85829457582E-03	-1.03564276412E+01	9.88873345069E-01	2.24066976174E+00	9.98372344586E-01	2.78535236728E+00	5.80442777586E-04	-4.99805169253E+01
7.51082164329E+10	1.89570100736E-03	1.06569146495E+02	1.00494813112E+00	-3.27685653110E+00	1.00063709704E+00	1.38106514853E+00	1.47122675228E-03	-7.71345755359E+01
7.51142284569E+10	2.72011252742E-03	9.86405182748E+01	1.00220326397E+00	-2.11722877390E+00	1.00294304833E+00	2.28754200055E-01	5.03456645238E-04	-7.89123131690E+01
7.51202404810E+10	3.17580410229E-04	7.26094161069E+01	9.94428808517E-01	7.25341892661E-01	1.00432974274E+00	-6.25048703017E-01	1.02630543720E-03	1.05180000950E+02
7.51262525050E+10	2.24675079068E-03	-8.45663205037E+01	1.00003002191E+00	-6.46065423609E-01	9.98697083029E-01	2.06531436889E+00	1.43226188667E-03	1.06707414664E+02
7.51322645291E+10	1.08880982720E-03	-5.08985198935E+01	9.96974368628E-01	-3.85606267104E-01	9.98292372098E-01	2.87101048877E+00	5.21976513933E-04	9.98480246998E+01
7.51382765531E+10	6.82755255937E-04	-7.31495953693E+01	1.00086053993E+00	-1.35622322690E+00	9.97041668970E-01	2.17647412765E+00	1.30407940523E-03	-6.74519618082E+01
7.51442885772E+10	1.07460404036E-04	1.50011113238E+02	9.99389166242E-01	-1.18086017545E+00	1.00184768494E+00	6.81894104616E-01	5.53882040368E-04	-8.04201646932E+01
7.51503006012E+10	3.36636620367E-04	-8.12352859353E+01	9.99742281681E-01	-1.06699330231E+00	1.00008347826E+00	1.28869729944E+00	1.49448239738E-03	1.13860101681E+02
7.51563126253E+10	1.79804850544E-03	9.07981180735E+01	9.99364130210E-01	-1.44739227246E+00	1.00666896528E+00	-1.31114081756E+00	6.43962710500E-04	-8.28671033793E+01
7.51623246493E+10	1.89511794676E-03	6.07780145314E+01	9.98962329398E-01	-1.70144542728E+00	9.95705793306E-01	3.08614822443E+00	8.72733169888E-04	-5.43668163676E+01
7.51683366733E+10	1.07565086513E-03	-8.74035779235E+01	1.00094875501E+00	-1.59265928474E+00	9.95063620601E-01	3.51126595797E+00	1.04851969554E-03	1.10572277058E+02
7.51743486974E+10	2.59948599903E-03	-1.11599774262E+02	9.98620749405E-01	-1.65026581981E-01	1.00247878216E+00	7.71577621357E-01	5.03452474736E-04	1.09926599452E+02
7.51803607214E+10	1.21639085880E-03	-1.17961471944E+02	9.98813687955E-01	-8.69014145500E-01	1.00171231627E+00	-5.27545609533E-02	1.15330732670E-03	-5.46058634201E+01
7.51863727455E+10	2.29652247053E-03	-1.09929302407E+02	9.99183303357E-01	-8.15209184966E-01	9.97952779283E-01	1.81969414287E+00	4.53260792013E-04	-2.67711601157E+01
7.51923847695E+10	1.48185450326E-03	-1.09746888768E+02	1.00261475011E+00	-1.91506995520E+00	9.96933494490E-01	2.68161149168E+00	2.41456096134E-04	7.62546625830E+00
7.51983967936E+10	1.96903173903E-03	6.28472729035E+01	1.00264609250E+00	-2.09703088422E+00	1.00215997007E+00	7.92677746291E-01	7.95773335463E-04	1.68501307047E+02
7.52044088176E+10	1.88181737766E-03	5.25016701335E+01	9.93578808347E-01	4.74205006539E-01	1.00362678628E+00	-1.55843452279E-01	3.39883396347E-04	1.35631621677E+02
7.52104208417E+10	1.33124322088E-03	6.18317197390E+01	9.98563277580E-01	-9.62369961602E-01	1.00056307037E+00	1.52071968835E+00	2.88812261038E-04	-2.67790106120E+01
7.52164328657E+10	1.47844707322E-03	-1.24240986251E+02	9.97431980433E-01	-2.72615920991E-01	9.99203765177E-01	1.73183282182E+00	1.46879489931E-03	-1.64386511022E+01
7.52224448898E+10	3.80169942428E-03	-1.24530947245E+02	9.99728455063E-01	-6.20068613860E-01	9.92409474780E-01	3.91091038061E+00	1.03402034761E-03	4.40503745044E+01
7.52284569138E+10	3.06806202431E-03	-1.30852266875E+02	1.00508991521E+00	-1.97895373092E+00	9.99477557538E-01	2.79473314965E+00	3.30273658866E-04	1.37068378163E+02
7.52344689379E+10	1.40769021674E-04	-3.95368924542E+01	1.00700844983E+00	-3.06699114061E+00	1.00100108558E+00	5.74631246514E-01	8.58708127146E-04	-1.31196757431E+02
7.52404809619E+10	4.76037431557E-04	6.18150340010E+00	1.00128217427E+00	-1.51864671864E+00	1.00144069004E+00	9.63308744713E-01	5.88354905216E-04	1.73540992578E+02
7.52464929860E+10	4.28937430938E-04	6.66611557179E+01	9.96321467239E-01	-8.42688671677E-01	9.96930299330E-01	3.31044593746E+00	6.72766082034E-04	6.31473240092E+01
7.52525050100E+10	1.68975662786E-04	4.86282337779E+00	1.00009680882E+00	-1.56129136868E+00	9.99930408508E-01	1.64457493572E+00	5.14268237710E-04	-1.30754489522E+01
7.52585170341E+10	1.29791580354E-03	1.57203640023E+01	1.00445879161E+00	-2.55715252352E+00	1.00524580353E+00	-2.86499644828E-01	1.01326378364E-03	-1.33350210168E+02
7.52645290581E+10	4.82868416218E-04	-2.81345977603E+01	1.00395042850E+00	-2.41165488983E+00	1.00159973529E+00	9.70138578803E-01	4.55257635041E-04	-1.28023638765E+02
7.52705410822E+10	5.22275830689E-04	1.46612413373E+01	1.00132704559E+00	-1.84344273046E+00	9.99316690708E-01	1.38759493328E+00	1.66849706935E-04	-5.41531436576E+01
7.52765531062E+10	2.05212343285E-03	-1.57001777548E+02	9.96571967363E-01	3.43040412622E-01	1.00006329294E+00	1.74577387805E+00	9.63477800631E-04	1.19612018437E+01
7.52825651303E+10	4.81616997328E-04	6.16562481544E+01	9.97273327632E-01	-1.05984459007E+00	9.98041340319E-01	2.24369219352E+00	3.86608416027E-04	3.08231564466E+01
7.52885771543E+10	2.89067788561E-03	1.26902409494E+01	1.00385945596E+00	-3.09859462756E+00	1.00288703804E+00	3.40904367671E-01	7.48711216913E-04	-1.55468720412E+02
7.52945891784E+10	1.85571856816E-03	-4.89438520753E+00	1.00438671687E+00	-2.73331831502E+00	1.00259441226E+00	2.96660024817E-02	1.41184770147E-03	-1.77330261891E+02
7.53006012024E+10	2.85536865520E-03	-1.57171611277E+02	1.00179081064E+00	-1.78316291226E+00	9.95253908456E-01	3.35226822877E+00	2.68855263651E-04	5.07281374545E+01
7.53066132265E+10	2.57036916501E-03	-1.63590767589E+02	1.00109227034E+00	-1.45793321500E+00	9.94380839119E-01	3.24087209613E+00	9.45451939301E-04	-1.56783796539E+00
7.53126252505E+10	2.33505870292E-03	-8.11552557867E+00	1.00288742368E+00	-2.83085587830E+00	1.00359585661E+00	-1.68199057236E-03	7.60607620167E-04	-1.73570789692E+02
7.53186372745E+10	2.33458695940E-03	3.42840666873E+01	9.97982829218E-01	-1.33689111613E+00	1.00059293564E+00	1.91215695929E+00	1.33252524719E-03	1.64074955185E+02
7.53246492986E+10	5.75128282658E-04	1.16657723585E+01	9.94150559106E-01	2.52341893175E-01	1.00569526011E+00	-4.68058864477E-01	1.38446293174E-03	1.62131548844E+02
7.53306613226E+10	1.64515315513E-03	-1.24586878666E+01	1.00527519816E+00	-2.99826882734E+00	1.00213154593E+00	1.09656154069E+00	8.56193196177E-04	1.74802543389E+02
7.53366733467E+10	1.10562315382E-03	1.73886956181E+02	9.98758547161E-01	-5.18794521361E-01	9.99845413357E-01	1.61733102832E+00	9.23452744981E-04	1.63822551470E+02
7.53426853707E+10	1.52872740567E-03	1.75767002000E+02	9.98599698967E-01	-3.94388650856E-01	9.98447908998E-01	1.96247594724E+00	3.86761043560E-04	-1.79516547614E+01
7.53486973948E+10	2.35142767480E-03	-5.06975206796E+00	9.99823611154E-01	-2.04199484397E+00	1.00181653280E+00	6.09331860448E-01	1.53276573105E-04	5.71288170138E+00
7.53547094188E+10	1.55313613340E-03	-3.35538352216E+01	1.00617923237E+00	-3.16274841654E+00	1.00109743219E+00	1.19102785281E+00	6.67873643430E-04	-2.85878310811E+01
7.53607214429E+10	1.89168279694E-03	-1.65569320375E+02	1.00061296214E+00	-1.25861183977E+00	9.96931171151E-01	1.68612554429E+00	1.73503737894E-03	-2.46547691160E+01
7.53667334669E+10	1.86793541922E-03	1.47721461524E+02	9.98294167934E-01	-4.89357772677E-01	9.95674780148E-01	3.06101549281E+00	1.51593491609E-03	-3.29197231978E+01
7.53727454910E+10	9.51460558764E-04	9.14680274532E+01	9.94375117260E-01	2.36963221251E-01	9.99725292029E-01	1.28317682487E+00	2.42442191990E-04	-1.38880586884E+02
7.53787575150E+10	9.92635678930E-04	4.33907226898E+01	9.95815876454E-01	-4.12764047496E-01	1.00061384043E+00	1.43130488665E+00	3.77703992036E-04	-2.69463902179E+01
7.53847695391E+10	1.25119996143E-03	-7.25376884573E+01	1.00179132868E+00	-1.89598962968E+00	1.00273988149E+00	9.61883370037E-02	2.96697589925E-04	3.56828276847E+01
7.53907815631E+10	9.75782551009E-04	-1.05371360779E+02	1.00520459010E+00	-2.70670940337E+00	9.98261120208E-01	1.45938145303E+00	6.64270332354E-04	1.30049640032E+02
7.53967935872E+10	1.60571949064E-03	-3.40816809591E+01	1.00051703762E+00	-1.77046685325E+00	1.00147030827E+00	4.35343030823E-01	1.20203950345E-03	-9.89051482485E+00
7.54028056112E+10	1.89602479900E-03	1.04615060402E+02	9.97942170300E-01	-3.09357345922E-01	9.94826137908E-01	3.25767381224E+00	2.16376248206E-03	-3.94783509303E+01
7.54088176353E+10	1.34178145418E-03	1.24853811145E+02	9.99555938805E-01	-1.20153267696E+00	9.96562102546E-01	3.10751932740E+00	6.27313345296E-04	-9.54995007141E+01
7.54148296593E+10	3.82904257472E-04	1.72546938948E+02	1.00262261482E+00	-2.38575274843E+00	9.96450631709E-01	2.67347085818E+00	1.57629359712E-04	-8.98489331082E+01
7.54208416834E+10	2.40743059677E-03	-8.27962647602E+01	1.00527337660E+00	-2.86920416482E+00	1.00572827531E+00	-5.70940685393E-01	1.28519961123E-03	1.10086039238E+02
7.54268537074E+10	3.78393320432E-04	-5.33365054487E+01	9.97403954943E-01	-4.68817699835E-01	1.00325456604E+00	3.20715103570E-01	4.53389031842E-04	-2.30544031242E+01
7.54328657315E+10	1.14929353737E-03	-9.26467281952E+01	1.00330611392E+00	-2.98510876353E+00	1.00003729938E+00	1.37605643758E+00	6.10382676842E-04	8.92309871325E+01
7.54388777555E+10	1.04412550545E-03	9.68423550791E+01	9.98384573373E-01	-8.06532716493E-01	9.98727556917E-01	2.34371996971E+00	5.92571799134E-04	-9.82911666580E+01
7.54448897796E+10	1.79252486754E-03	-8.90470766256E+01	1.00278999283E+00	-2.09311470954E+00	1.00539092039E+00	-5.52580797744E-01	1.55347938234E-03	1.16034003069E+02
7.54509018036E+10	8.25071736478E-04	8.71756159331E+01	9.97030790254E-01	2.06977495374E-01	1.00191456325E+00	1.25014718322E+00	5.99375667607E-04	-1.40855559002E+02
7.54569138277E+10	1.98326473942E-04	1.32966041102E+02	9.98851006943E-01	-7.22767961151E-01	9.97806294467E-01	1.08636806045E+00	9.23444341953E-04	-3.29715933188E+01
7.54629258517E+10	8.90115634182E-04	-8.50922732009E+01	1.00227409870E+00	-2.29358730203E+00	1.00041955787E+00	1.03659270103E+00	5.50309538051E-04	5.94713219463E+01
7.54689378758E+10	6.10077606067E-04	-8.62072531572E+01	1.00176251106E+00	-1.85174170457E+00	1.00071691215E+00	9.23888859195E-01	4.94528815666E-04	1.02169105776E+02
7.54749498998E+10	2.76695609084E-04	1.78214449344E+02	1.00100479972E+00	-1.64801932659E+00	9.98260353728E-01	1.90893851009E+00	1.39435466811E-04	-1.33227810967E+02
7.54809619238E+10	2.06548217371E-04	1.33227691040E+02	1.00009104544E+00	-1.12555140470E+00	9.98322389282E-01	1.50538619033E+00	4.10047507411E-04	-4.91618514691E+01
7.54869739479E+10	8.59894850567E-04	9.50884754050E+01	9.93890067452E-01	1.63293421759E-01	9.99526053707E-01	1.26594521617E+00	5.99124293196E-04	-9.32544620362E+01
7.54929859719E+10	7.07993428449E-04	6.05659756264E+01	1.00033819746E+00	-1.82651535960E+00	9.96398601000E-01	3.03208146620E+00	5.30988310778E-04	-1.07339310632E+02
7.54989979960E+10	7.13230264233E-04	-1.32529032294E+02	1.00296263788E+00	-2.51826476155E+00	9.97194357425E-01	1.77349015471E+00	2.93985595862E-04	4.85241899726E+01
7.55050100200E+10	2.34539242415E-04	1.16251605832E+02	9.94660294220E-01	4.07979226010E-01	1.00363528453E+00	1.09878812896E-01	1.80417977296E-04	-1.20607414298E+02
7.55110220441E+10	1.57938566089E-03	-1.14775006363E+02	1.00451510130E+00	-2.28045198291E+00	1.00319969442E+00	8.32459949598E-02	9.56129462813E-04	5.43442072413E+01
7.55170340681E+10	1.88129399713E-03	9.11702756809E+01	9.95677282280E-01	-1.87379117852E-01	9.96757299498E-01	3.73612146767E+00	1.45004588901E-03	-1.27830909780E+02
7.55230460922E+10	4.39773310729E-04	5.37990606561E+01	1.00164092417E+00	-1.63576615486E+00	9.96495746030E-01	2.41335721868E+00	2.99454639105E-04	-1.14425102327E+02
7.55290581162E+10	1.10911803839E-03	-4.13618997452E+01	1.00312262899E+00	-2.12565259081E+00	9.99959670812E-01	1.25740615321E+00	4.17876906079E-04	3.38198012924E+01
7.55350701403E+10	9.19926269918E-04	-7.96759273318E+01	1.00020615396E+00	-8.95331200539E-01	1.00505250141E+00	-6.78441778442E-01	6.37379665805E-04	4.85838375418E+01
7.55410821643E+10	6.36112768628E-04	-1.79987560215E+02	9.96958652414E-01	-3.57451769553E-01	1.00205549460E+00	4.03097295396E-02	3.03341789801E-04	1.19646013443E+02
7.55470941884E+10	6.87137399270E-04	1.10356350501E+02	9.97614816738E-01	-2.93995782503E-01	9.98150001544E-01	1.67681791303E+00	7.87550250893E-04	-1.70230306216E+02
7.55531062124E+10	1.15363858910E-03	4.70048751032E+01	9.98819652951E-01	-7.37899501479E-01	9.96855022267E-01	2.92199281693E+00	8.61034202007E-04	-1.39541198316E+02
7.55591182365E+10	6.46990429091E-04	-2.25104442479E+01	1.00263295160E+00	-1.99101066082E+00	9.99288809083E-01	2.02440123685E+00	6.88458432522E-04	-3.79966381108E+01
7.55651302605E+10	1.29962756161E-03	-1.20170484850E+01	1.00000984388E+00	-1.16871888960E+00	1.00493168709E+00	1.50507404713E+00	3.59417259733E-04	-5.26970849420E+01
7.55711422846E+10	1.17721268116E-03	1.60924952992E+02	9.96685581367E-01	-2.76340293166E-01	1.00232073715E+00	8.06184779957E-01	3.25253809888E-04	1.66662918091E+02
7.55771543086E+10	1.06709465057E-03	6.59252045898E+01	9.93736861408E-01	4.79581781605E-01	9.98039587177E-01	2.00770786597E+00	1.40187712977E-03	1.76904517693E+02
7.55831663327E+10	1.30007553319E-03	4.70770041354E+01	9.95505726322E-01	-1.36198285474E-01	9.97193618375E-01	3.25520669098E+00	1.48413363880E-03	1.79326649630E+02
7.55891783567E+10	3.23680495776E-03	9.78201731832E+00	9.96148135635E-01	-3.04813807081E-01	9.94447782707E-01	3.67317031030E+00	1.37219980981E-03	-1.69381233336E+02
7.55951903808E+10	5.57199322461E-04	-1.78984385245E+02	1.00002600451E+00	-1.31451189035E+00	1.00189155932E+00	7.50422962831E-01	2.24028750284E-04	7.17765457221E+01
7.56012024048E+10	9.81050049652E-04	1.46918770699E+02	1.00077909009E+00	-1.37264915441E+00	9.96561845980E-01	2.28948090975E+00	3.43819152557E-04	-8.44889690110E+01
7.56072144289E+10	9.26639451241E-04	6.59155166891E+01	9.98357235675E-01	-4.39633228513E-01	9.95457800313E-01	3.59278698984E+00	1.06882814285E-03	-1.66346957047E+02
7.56132264529E+10	1.06036865071E-04	-1.34821367455E+02	9.95283835786E-01	-8.96991089030E-01	1.00080409996E+00	1.10988743101E+00	1.02585047283E-03	1.42200076533E+02
7.56192384770E+10	1.14335362864E-03	-1.50348149312E+02	9.99519085970E-01	-1.61236134703E+00	1.00691208610E+00	-8.55508589671E-01	1.06702925868E-03	-1.12701064234E+01
7.56252505010E+10	2.77984733197E-03	1.69462620556E-01	9.97598714453E-01	-8.82912732167E-01	9.95992891679E-01	3.31667150642E+00	9.86830309236E-04	-7.99314835612E+01
7.56312625251E+10	2.24730118981E-04	7.88587740451E+01	1.00396000326E+00	-2.48483636668E+00	9.92527500830E-01	3.34272162962E+00	6.41650690965E-04	-5.36535591089E+01
7.56372745491E+10	2.86770824246E-03	1.77493096222E+02	1.00474220069E+00	-2.65851007615E+00	1.00228977887E+00	4.90999594100E-01	7.39856048147E-04	-1.49286695471E+01
7.56432865731E+10	8.10075360999E-05	-1.19864125442E+02	9.97138247801E-01	-2.49443117498E-01	1.00266606965E+00	6.05179033753E-01	1.62942721219E-03	1.35111514956E+02
7.56492985972E+10	1.57771875540E-03	-3.15184090347E+00	9.97291562385E-01	-9.46490538482E-01	9.98116936184E-01	1.96610930593E+00	9.56885369997E-04	1.49796445638E+02
7.56553106212E+10	1.46449496744E-03	-1.10143312024E+01	9.95719099177E-01	-5.03828998535E-01	1.00166400626E+00	7.36145698071E-01	4.67725529038E-05	-1.53679005069E+02
7.56613226453E+10	1.53683939114E-03	-1.60362353606E+01	9.97991492266E-01	-6.66899008283E-01	1.00157204071E+00	1.37927793264E+00	2.94623098992E-04	1.51708838081E+02
7.56673346693E+10	1.14648724056E-04	-2.27554826357E+01	1.00144392322E+00	-1.79399654149E+00	9.98512675170E-01	1.67268188954E+00	4.35004808288E-04	1.24368059989E+02
7.56733466934E+10	1.67860029955E-03	1.78086405691E+02	1.00511687911E+00	-2.72103979803E+00	1.00034987560E+00	1.50728583808E+00	1.40472924263E-03	-4.16664216303E+01
7.56793587174E+10	1.74153291837E-03	1.70518606391E+02	1.00402194386E+00	-2.65180499359E+00	9.99017572377E-01	1.60577517160E+00	2.25562330303E-03	-4.84811708373E+01
7.56853707415E+10	2.89810466228E-04	-1.39474614729E+02	1.00070885153E+00	-1.92446202958E+00	1.00380245520E+00	-1.85451386968E-01	2.26905013964E-03	-4.78145924997E+01
7.56913827655E+10	3.03483665668E-03	-7.61791021997E+00	9.97104327670E-01	-6.65291557843E-01	9.94782715054E-01	3.63307911594E+00	2.85219730540E-03	1.37213288829E+02
7.56973947896E+10	2.05171477263E-03	1.72009633816E+02	9.98478940756E-01	-5.20441187067E-01	1.00527944897E+00	-6.20904236606E-01	1.20403595082E-03	-4.59910578692E+01
7.57034068136E+10	1.70717108836E-04	-2.66450522284E+01	1.00001706378E+00	-1.36903722529E+00	1.00006995029E+00	5.59876700877E-01	2.09495409556E-04	-1.05174422107E+02
7.57094188377E+10	5.49927127510E-04	-2.05071302225E+01	1.00330099669E+00	-2.88981782391E+00	9.95902768534E-01	2.70309831758E+00	1.31669033421E-04	-1.06304682329E+02
7.57154308617E+10	7.80139747675E-04	1.70325454189E+02	1.00093946412E+00	-1.89213313534E+00	1.00083167371E+00	1.37148434615E+00	1.22461159000E-03	-5.38745376308E+01
7.57214428858E+10	8.17138660774E-04	1.71222031308E+02	9.98236009386E-01	-6.71550730746E-01	9.97652800563E-01	2.45023780375E+00	2.96644742385E-03	1.29289544212E+02
7.57274549098E+10	5.20014824281E-04	-2.08005180065E+01	1.00020153774E+00	-1.62121416110E+00	9.95153483960E-01	2.82466410682E+00	1.05386321807E-03	1.18513286939E+02
7.57334669339E+10	1.18408837153E-03	1.70253954624E+02	1.00113361817E+00	-1.37272354162E+00	9.97219982007E-01	2.56755876511E+00	9.53462131075E-04	-4.51543773164E+01
7.57394789579E+10	9.12843890143E-04	1.74640683014E+02	1.00229163650E+00	-1.81297647268E+00	1.00280288316E+00	1.32133300995E+00	6.95696259161E-04	-5.28074506632E+01
7.57454909820E+10	8.85557279759E-04	-1.05182056971E+01	1.00283087010E+00	-1.98258663664E+00	1.00476647047E+00	-5.34555532549E-01	1.05532699995E-03	-7.14590684135E+01
7.57515030060E+10	1.32042759512E-03	-1.91581508640E+01	9.99327391548E-01	-1.00613357035E+00	9.93806771018E-01	3.73009694524E+00	1.85155447021E-03	1.13353806132E+02
7.57575150301E+10	6.77934980905E-04	1.73259517021E+02	1.00051152819E+00	-1.42600176929E+00	1.00398703367E+00	1.10978587777E+00	1.53108686839E-04	-6.28231573198E+01
7.57635270541E+10	6.13204099148E-04	1.54227879272E+02	1.00339813256E+00	-2.20982427263E+00	1.00518890867E+00	-5.49872067583E-01	3.90677668708E-03	-6.47630460219E+01
7.57695390782E+10	1.81117300000E-03	1.60210852154E+02	1.00641087317E+00	-2.67680117665E+00	1.00447401124E+00	1.12766498330E-01	1.40902322228E-03	1.44002333580E+02
7.57755511022E+10	2.28166278534E-04	1.01401824081E+02	1.00539916989E+00	-3.06014011325E+00	1.00096614347E+00	8.77821326295E-01	6.22750601070E-04	-1.09971490213E+02
7.57815631263E+10	1.13881315386E-03	-1.85259956742E+01	9.94945655856E-01	-1.45912240781E-02	9.98262816108E-01	2.06678375106E+00	9.56432587349E-04	1.04775550426E+02
7.57875751503E+10	3.11004909517E-04	-2.34376966098E+01	9.95073686065E-01	1.18345183899E-01	1.00345573120E+00	1.09978002855E-01	2.69981460787E-04	-3.99789607966E+01
7.57935871743E+10	5.00623560732E-04	-1.70514387028E+02	1.00325375846E+00	-2.45184188258E+00	9.96045833750E-01	2.77875768970E+00	1.60291436318E-04	-2.37121641692E+01
7.57995991984E+10	4.34633310625E-04	-2.36302800348E+01	9.98623863168E-01	-1.29860712441E+00	9.99033218876E-01	1.93618811937E+00	2.98009982496E-04	-3.30716457360E+01
7.58056112224E+10	4.43910888542E-04	3.88644765309E+01	1.00827554885E+00	-3.69499451133E+00	1.00226102213E+00	1.28538256222E+00	1.55651124330E-03	-8.72703072519E+01
7.58116232465E+10	2.34773427145E-04	2.95538367854E+00	9.98727271274E-01	-1.11413132963E+00	1.00345277177E+00	8.32129545226E-01	1.77435839961E-03	-6.19813720084E+01
7.58176352705E+10	4.26178416636E-04	-1.38930999646E+02	9.96478993426E-01	1.70151532679E-01	9.99687580289E-01	1.59327049096E+00	9.46132991479E-04	7.64833599551E+01
7.58236472946E+10	6.12534616047E-04	-1.62877829373E+02	9.99474439811E-01	-1.09524087094E+00	9.97522477492E-01	2.22732860921E+00	2.12837634959E-03	1.12829174294E+02
7.58296593186E+10	1.12773760679E-03	1.53084374654E+02	1.00542459177E+00	-2.57746003994E+00	1.00536710007E+00	-5.78462955404E-01	1.32117211571E-03	-1.25436837635E+02
7.58356713427E+10	2.66438188112E-04	9.26093664876E+00	1.00299680378E+00	-1.98653452415E+00	1.00058030916E+00	1.61872340748E+00	1.23725014256E-03	1.30049531501E+02
7.58416833667E+10	7.04597487697E-04	-5.58127487074E+00	9.96524601534E-01	-7.27343900446E-01	1.00026335857E+00	1.49890481553E+00	1.23139461110E-03	-4.04939994720E+01
7.58476953908E+10	8.73756304249E-05	9.05119527516E+00	9.95111835634E-01	-1.77398892914E-01	1.00536042752E+00	-4.94388750672E-01	3.29782433152E-04	-1.05204837927E+02
7.58537074148E+10	1.59214054343E-03	-1.57484750500E+02	1.00107639760E+00	-5.54527477683E-01	9.99656109713E-01	1.15874623269E+00	1.09734968151E-03	1.13909485859E+02
7.58597194389E+10	4.89496504739E-04	-1.76661427418E+02	1.00364473398E+00	-2.60069076154E+00	9.99007985453E-01	1.70916490338E+00	4.55594920782E-04	-1.42734258774E+02
7.58657314629E+10	4.74562563456E-04	-1.74340527750E+02	1.00281810907E+00	-2.04344108267E+00	1.00058278115E+00	1.18510085354E+00	6.30732864455E-04	-9.45076395858E+01
7.58717434870E+10	4.99366303683E-04	-1.34780948862E+02	9.96986876165E-01	-4.35330709533E-01	1.00322112187E+00	8.45691124602E-01	1.42585403262E-03	-5.00048288993E+01
7.58777555110E+10	3.66838841958E-04	-1.48283619431E+01	9.97717730343E-01	-5.94055276012E-01	9.95137359941E-01	3.45496395014E+00	1.72596553004E-03	-6.21764400654E+00
7.58837675351E+10	5.72934328217E-04	3.61221896153E+01	1.00445661424E+00	-2.80282328547E+00	9.97735875177E-01	2.15165078193E+00	4.43440295500E-04	1.68526886660E+02
7.58897795591E+10	4.27302219438E-04	-1.24585087232E+02	1.00250775324E+00	-2.08140629906E+00	9.97853752981E-01	2.20159316841E+00	6.02752931857E-05	-6.41736004768E+01
7.58957915832E+10	7.62370145517E-04	-1.27618306988E+02	1.00259442373E+00	-1.69245818585E+00	9.98265944313E-01	1.94796325049E+00	6.42728983036E-04	-3.45029018097E+01
7.59018036072E+10	4.62334051850E-04	-1.26850357246E+02	1.00168787836E+00	-1.60717222242E+00	1.00426723713E+00	-1.63334229669E-01	6.75802948170E-04	-1.48316156828E+02
7.59078156313E+10	1.84697534523E-04	-1.35457480346E+02	9.98902114926E-01	-9.95508431451E-01	1.00480773619E+00	-3.87505580843E-01	6.64553921795E-04	-1.61320001373E+02
7.59138276553E+10	7.04431272775E-04	-1.17400765224E+02	1.00104226844E+00	-1.58008500754E+00	9.95794534771E-01	2.80820032333E+00	3.77995261161E-04	4.77560173499E+01
7.59198396794E+10	7.74094361146E-04	5.50719617734E+01	1.00595077891E+00	-3.78305459874E+00	9.99308813238E-01	1.74487650908E+00	6.28283605562E-04	-1.42124209493E+02
7.59258517034E+10	6.48198775946E-05	-3.91684581905E+01	1.00258029795E+00	-2.06235282136E+00	9.97671926869E-01	1.58123813041E+00	7.29921501224E-05	1.68034177093E+02
7.59318637275E+10	5.91904486724E-05	1.62101083427E+02	1.00097497309E+00	-1.72590863709E+00	9.97417772690E-01	2.88861517572E+00	9.91531872014E-04	-1.78218761965E+01
7.59378757515E+10	1.02158626911E-05	-1.02105004871E+02	9.99270593598E-01	-1.11214257521E+00	1.00067511421E+00	1.23275738909E+00	5.49532778551E-04	-2.50089400852E+01
7.59438877756E+10	3.86071455003E-04	6.26651320871E+01	9.96554616815E-01	-8.75370702877E-01	9.98486679219E-01	1.81487082113E+00	4.87932395064E-04	2.62451793111E+00
7.59498997996E+10	2.13695183929E-04	-4.33883293736E+01	1.00560411693E+00	-2.87633088985E+00	1.00705027814E+00	-9.08792879029E-01	1.55311116561E-03	1.70112649903E+02
7.59559118236E+10	6.78185328578E-04	6.84166552316E+01	9.99674281561E-01	-1.47097283636E+00	1.00258041838E+00	1.20906255739E-01	2.62676447832E-04	1.69202766438E+02
7.59619238477E+10	1.25883920233E-03	8.50754277023E+01	9.96081509373E-01	-3.51760132153E-01	9.95737334335E-01	2.70028424965E+00	9.05225586469E-04	-9.66553623954E+00
7.59679358717E+10	7.12298104416E-04	-9.33264527376E+01	1.00490109558E+00	-2.89839069023E+00	1.00485746418E+00	-1.47507305655E-01	8.55057684686E-04	1.57887729473E+02
7.59739478958E+10	5.25239131457E-05	-1.60313442542E+02	9.99540040479E-01	-1.12678005170E+00	1.00369137470E+00	6.09550500249E-01	1.91511150734E-04	1.66063375105E+02
7.59799599198E+10	4.51912325200E-04	8.13401704828E+01	9.94666693152E-01	4.13153906799E-02	9.98802999663E-01	1.23413422453E+00	3.56358201156E-04	-1.24260566396E+02
7.59859719439E+10	4.63430848055E-04	7.40503621379E+01	9.98184938672E-01	-1.11582719224E+00	1.00148306884E+00	1.52358797642E+00	3.33465028151E-04	-1.45094008409E+02
7.59919839679E+10	7.78862271252E-05	-7.30823513765E+01	9.99669296458E-01	-1.17826598367E+00	1.00049958699E+00	1.52019741845E+00	1.29406583573E-04	-8.66776820835E+01
7.59979959920E+10	7.58726593031E-04	7.24922120648E+01	9.99170837582E-01	-1.48700483151E+00	1.00077647788E+00	1.16508890804E+00	5.61019567076E-04	-1.61227293317E+02
7.60040080160E+10	5.04073027405E-04	9.13274096995E+01	9.97407467590E-01	-8.45251820937E-01	9.99964133818E-01	1.05386776192E+00	1.10379652192E-04	1.89691512273E+01
7.60100200401E+10	8.18256897873E-04	-9.68329572346E+01	1.00402099386E+00	-2.39077188530E+00	9.99260687733E-01	1.17961862324E+00	3.57718614756E-04	8.32682715417E+01
7.60160320641E+10	8.68676552106E-04	-9.22570371873E+01	1.00255643770E+00	-1.90324486200E+00	9.95481989815E-01	3.33977403849E+00	3.96031176856E-04	-6.92642544991E+01
7.60220440882E+10	1.80668349550E-03	-1.09108785763E+02	1.00456757524E+00	-2.65598106371E+00	1.00270252669E+00	1.10291959252E+00	1.05598106151E-03	-1.63976094018E+02
7.60280561122E+10	1.45601921980E-03	-1.07345852283E+02	9.99917235704E-01	-1.25690416487E+00	1.00320863596E+00	7.70904785807E-01	9.27317871508E-04	-1.51794682115E+02
7.60340681363E+10	1.79761553348E-04	9.18014606431E+01	9.97752177256E-01	-8.40890719081E-01	1.00270947582E+00	5.87522211001E-01	5.63217533315E-04	-1.42918076580E+02
7.60400801603E+10	1.31527395622E-03	7.19337912324E+01	9.99634478560E-01	-1.07249882082E+00	9.97662074494E-01	1.78001703659E+00	9.79185885074E-04	2.37014678339E+01
7.60460921844E+10	3.78518329874E-04	4.77637865638E+01	9.95552639735E-01	-3.79641936059E-01	1.00047112707E+00	1.31488321832E+00	3.06213513260E-04	-1.14484541605E+02
7.60521042084E+10	3.81763828619E-04	7.43795821083E+01	9.99677227389E-01	-1.39466120104E+00	1.00158623922E+00	1.55034050162E+00	8.24238453806E-04	-1.43999815070E+02
7.60581162325E+10	5.10634719212E-04	1.02673458040E+02	1.00411087252E+00	-2.80013173485E+00	9.98143206065E-01	1.78318810968E+00	6.32505305228E-04	4.22852825048E+01
7.60641282565E+10	4.91324416195E-04	-3.48617092237E+00	9.94738705467E-01	4.40608756856E-01	9.99157105050E-01	1.68560312158E+00	8.59236662585E-04	-1.28838056014E+02
7.60701402806E+10	8.24885253518E-04	5.96359437400E+01	9.96299025223E-01	-2.09703161378E-01	9.99308288990E-01	1.28016990792E+00	2.73628364831E-04	-1.49508307819E+02
7.60761523046E+10	1.15411037542E-03	6.79039502595E+01	1.00392744809E+00	-2.47166089092E+00	9.96728793834E-01	2.42531267021E+00	9.21151202023E-04	2.96419547047E+01
7.60821643287E+10	7.07640455561E-04	-1.70140611916E+02	1.00368597957E+00	-2.33545291728E+00	1.00674359189E+00	-4.56176795944E-01	2.35091686510E-04	6.89986982644E+01
7.60881763527E+10	8.13806406049E-04	1.62368270752E+02	1.00954780605E+00	-4.19500240072E+00	1.00264898571E+00	7.83630056330E-01	6.65186526732E-04	2.64863721932E+01
7.60941883768E+10	1.53497192992E-03	4.20848219310E+01	9.95110164937E-01	-5.27457606027E-01	9.93996205343E-01	3.33011227783E+00	1.45697034822E-04	2.90401311701E+01
7.61002004008E+10	4.29860254251E-04	-9.76892534577E+01	1.00062893888E+00	-1.49419811349E+00	1.00105146811E+00	1.54706035689E+00	3.18881609251E-04	-1.22689334848E+02
7.61062124248E+10	1.14829520199E-03	-1.71099933981E+02	1.00298888749E+00	-2.15452208208E+00	1.00767869600E+00	-8.52973010361E-01	5.67910193748E-04	6.12696719659E+00
7.61122244489E+10	9.24249244795E-04	1.65424281678E+02	1.00820125999E+00	-3.64745864338E+00	1.00230565684E+00	1.15215274898E+00	5.24351690862E-04	-1.35293109987E+02
7.61182364729E+10	1.16222558520E-03	2.58324004793E+01	9.98899635735E-01	-1.46997766053E+00	9.93328397522E-01	3.37867692025E+00	2.01137526829E-04	7.33271067478E+01
7.61242484970E+10	8.28507687818E-04	1.44008062816E+01	9.98922445397E-01	-1.16161030210E+00	9.98413322436E-01	2.50299937628E+00	2.10108072531E-04	1.62690699779E+02
7.61302605210E+10	6.77209498142E-04	-1.49102871524E+02	1.00155646706E+00	-1.53457053002E+00	1.00290094446E+00	5.69229316599E-01	3.51669316251E-04	-4.12929526169E+00
7.61362725451E+10	1.16171334965E-03	-1.64280947046E+02	1.00146093379E+00	-1.66993343311E+00	1.00667629445E+00	-5.74954194417E-01	7.60514393052E-04	-2.17970872800E+01
7.61422845691E+10	1.03651551172E-03	-1.16229673481E+01	1.00006139002E+00	-9.70915044196E-01	9.95387513732E-01	3.12569077631E+00	1.10652363447E-03	-1.79433909614E+02
7.61482965932E+10	1.46953131262E-03	-8.97614336881E+01	1.00217675611E+00	-1.90159332013E+00	9.95416579713E-01	3.62307303858E+00	8.64586777961E-04	1.72430477595E+02
7.61543086172E+10	1.29293507338E-03	1.22250591467E+02	1.00019600968E+00	-1.60028233771E+00	1.00416100024E+00	-7.69845506305E-01	1.01695422475E-03	-2.38729351596E+01
7.61603206413E+10	3.48128321717E-04	4.40670351489E+01	9.97627811165E-01	-7.05488857372E-01	1.00194959636E+00	8.54842287815E-01	5.17739259313E-05	-7.00464954425E+01
7.61663326653E+10	5.90845859401E-04	1.49735734687E+02	9.98760852858E-01	-9.30395929841E-01	1.00472846603E+00	-3.46969762707E-01	4.72141743822E-04	-5.49345532353E+01
7.61723446894E+10	1.00834310165E-03	6.64196260568E+01	9.99143377763E-01	-1.73899897598E+00	9.99347026102E-01	1.54908348264E+00	1.29741541997E-04	-9.31412919128E+01
7.61783567134E+10	8.36725335754E-04	1.53101274744E+02	1.00293098826E+00	-1.87725461755E+00	1.00359625082E+00	1.12636511365E-01	9.81286121290E-04	-3.11639000818E+01
7.61843687375E+10	1.16984033072E-03	-1.32745756381E+02	9.99227687447E-01	-8.07000154869E-01	1.00273904676E+00	5.18432031136E-01	2.38586188586E-04	-1.40114123011E+02
7.61903807615E+10	4.77803643675E-04	-1.27641822542E+02	1.00605411372E+00	-2.50580988217E+00	9.96193444916E-01	2.43039683501E+00	3.96673076686E-04	-1.48894472910E+02
7.61963927856E+10	4.02560072624E-04	1.35441596300E+02	1.00371309249E+00	-1.88516822371E+00	1.00223575938E+00	1.17118384812E+00	3.14599194861E-04	-8.79597153453E+01
7.62024048096E+10	9.60378046943E-04	-3.68162171900E+01	9.93374351563E-01	4.16613588630E-01	9.99848160092E-01	1.48928292820E+00	7.28535601779E-04	9.86760612783E+01
7.62084168337E+10	4.72142394109E-04	1.14646583161E+02	1.00476831747E+00	-2.40867726918E+00	1.00061705174E+00	1.59787996898E+00	6.96280729756E-04	-4.50878783084E+01
7.62144288577E+10	1.06900350414E-03	1.62752110644E+02	1.00290294713E+00	-1.33666462224E+00	1.00432684767E+00	-4.86606590765E-01	1.19169345486E-03	-6.72524805736E+01
7.62204408818E+10	1.41914691068E-03	-3.32726553484E+01	9.93788927709E-01	3.58397574950E-03	9.97404034116E-01	2.57760199490E+00	1.23693285699E-03	1.05794111720E+02
7.62264529058E+10	1.32349518335E-03	-3.53536070547E+01	9.95342181884E-01	-4.43563970841E-01	9.94494887732E-01	2.72331759037E+00	1.23127393127E-03	1.02116024354E+02
7.62324649299E+10	7.45379526974E-04	-7.07103188849E+01	1.00286833031E+00	-2.13575001090E+00	9.94700353753E-01	3.28042820703E+00	6.51528480911E-04	9.30283240009E+01
7.62384769539E+10	4.61965734108E-04	-1.81945574984E+01	1.00141296127E+00	-1.72539230502E+00	9.98815625198E-01	2.28709785300E+00	1.48750500002E-04	6.57087773623E+01
7.62444889780E+10	4.32479347546E-04	1.53909270675E+02	9.99389123517E-01	-1.16161651643E+00	1.00209920293E+00	3.71021900878E-01	6.32020627469E-04	-1.05210970194E+02
7.62505010020E+10	9.03774298800E-04	1.32044201039E+02	9.99963253092E-01	-1.51448948713E+00	1.00396145161E+00	-1.50836622967E-01	1.07933085603E-03	-1.02643745423E+02
7.62565130261E+10	3.83810050042E-04	1.47213705887E+02	9.99814331688E-01	-1.26642230801E+00	1.00216087690E+00	6.57872790348E-01	6.39176627186E-04	-1.09459028491E+02
7.62625250501E+10	7.21106910785E-04	-5.35974193129E+01	1.00646275132E+00	-2.91882521449E+00	9.91984565687E-01	4.08077836555E+00	7.26224262869E-04	6.73164064095E+01
7.62685370741E+10	6.37018635422E-04	-4.12324437916E+01	1.00115834959E+00	-1.18920652605E+00	9.95224777962E-01	2.20056536918E+00	7.95026704746E-04	6.11780996288E+01
7.62745490982E+10	1.61399091447E-04	-5.22004030734E+01	9.96011060640E-01	-8.37265850445E-01	1.00340640295E+00	9.11383615121E-01	6.53095544838E-04	3.17363706871E+01
7.62805611222E+10	8.10782642559E-04	1.31094932081E+02	1.00096978368E+00	-1.19902221030E+00	1.00576731593E+00	-2.65072515631E-01	1.34035823152E-03	-1.18480697255E+02
7.62865731463E+10	4.06396371578E-04	1.29992013694E+02	1.00423156974E+00	-2.36217558751E+00	1.00125334162E+00	1.73851154508E+00	9.53300065071E-04	-1.30944130700E+02
7.62925851703E+10	8.12355670769E-04	1.50602727597E+02	1.00506960860E+00	-2.18086127704E+00	1.00175180174E+00	6.91358963356E-01	8.39972374484E-04	-6.33945226209E+01
7.62985971944E+10	1.59330802734E-03	-7.62261098319E+01	9.99200476117E-01	-9.73494583423E-01	9.94610465501E-01	3.55898698656E+00	1.81206394627E-03	5.13279725669E+01
7.63046092184E+10	1.73030911846E-03	-7.81647948855E+01	9.97432720459E-01	-4.86696697724E-01	9.94977856084E-01	3.43534753837E+00	1.46500627481E-03	7.15106852624E+01
7.63106212425E+10	1.08831027795E-03	1.06783427644E+02	1.00176357503E+00	-1.80787963918E+00	1.00595331875E+00	-1.48640305458E-01	1.28389054977E-03	-1.16404592285E+02
7.63166332665E+10	8.93538981427E-04	8.80758587605E+01	1.00603641395E+00	-2.98516879603E+00	9.99076518628E-01	1.58642935397E+00	1.75296569553E-03	-1.51483452992E+02
7.63226452906E+10	5.12020182529E-04	1.39048903353E+02	1.00267587254E+00	-2.28259184381E+00	1.00007684117E+00	1.22307770719E+00	1.06804378139E-03	-1.53725424635E+02
7.63286573146E+10	5.52193687486E-04	3.06912481141E+01	9.99497383727E-01	-1.79312807444E+00	9.98776869810E-01	1.89304999905E+00	1.30667324378E-04	1.94528458703E+01
7.63346693387E+10	1.16158959729E-03	9.57030994949E+01	1.00926718637E+00	-4.09771449737E+00	9.95735311183E-01	1.94100489715E+00	1.04216832665E-03	-1.24277865918E+02
7.63406813627E+10	1.04525368723E-03	1.52904247350E+02	1.00682923030E+00	-3.57911083588E+00	1.00159557889E+00	1.46724216489E+00	2.15236182895E-03	-1.56256295316E+02
7.63466933868E+10	1.33693834759E-03	-1.28582620126E+02	1.00018768757E+00	-1.34233498133E+00	9.97990123758E-01	2.08077702748E+00	1.11948466265E-03	9.86963723201E+00
7.63527054108E+10	9.25931047292E-04	8.36357421526E+01	1.00059722250E+00	-1.59792273602E+00	1.00415104706E+00	-5.98217291125E-02	1.08601218072E-03	-3.91077792669E+01
7.63587174349E+10	3.75198991101E-04	-4.18585695355E+01	9.96237436910E-01	-4.45052015106E-01	1.00169360123E+00	1.34316981365E+00	6.65809579254E-04	1.64998606564E+02
7.63647294589E+10	4.16830685278E-04	-3.50869149707E+01	1.00096030163E+00	-1.82116589051E+00	9.96374454430E-01	2.56027382160E+00	1.39980937586E-03	1.86834747694E+00
7.63707414830E+10	1.18443338995E-03	8.63875864331E+01	1.00485842767E+00	-2.60751627068E+00	1.00459392817E+00	3.10029194031E-02	3.14890631572E-03	-1.74416037041E+02
7.63767535070E+10	1.49838683264E-03	3.49533681334E+01	9.97133582405E-01	-6.71712261005E-01	1.00441347803E+00	2.97223601451E-01	6.00725834869E-04	-1.69571084953E+02
7.63827655311E+10	1.13112455897E-03	2.59280890455E+00	9.96420526906E-01	-6.39065198566E-01	9.95642973047E-01	1.30417532810E+00	2.50519564311E-03	-4.15013820716E+00
7.63887775551E+10	6.21062632786E-04	-3.09252101236E+01	9.95231668204E-01	-6.54616524935E-02	1.00176880707E+00	1.23181768323E+00	2.39503008303E-04	4.34340737822E+01
7.63947895792E+10	2.94112894098E-03	-1.46606544247E+02	1.00108153157E+00	-1.52295066223E+00	9.96853526506E-01	2.32167158114E+00	3.87639094365E-04	1.29196331713E+02
7.64008016032E+10	1.01595415559E-03	3.25435064950E+01	1.00219667542E+00	-2.07207963042E+00	1.00222596413E+00	1.66129615706E+00	4.85415304041E-04	-1.19243046973E+02
7.64068136273E+10	1.37325816885E-03	-1.40448605538E+02	9.99011590287E-01	-9.19495459588E-01	9.96259828336E-01	1.96141426890E+00	1.67922964570E-03	-8.67449110426E+00
7.64128256513E+10	1.82501937286E-03	-1.17413540958E+02	9.93589753056E-01	3.99000911674E-01	9.93533035601E-01	3.85076241687E+00	3.75389206360E-03	-1.01991274888E+01
7.64188376754E+10	1.65391114367E-03	4.20333004849E+01	1.00717343478E+00	-3.02375391184E+00	1.00476014124E+00	2.87057818610E-01	3.29050086432E-03	1.67153176697E+02
7.64248496994E+10	2.35802056577E-03	3.07948694774E+01	1.00376933178E+00	-2.52054426105E+00	1.00230530277E+00	8.59241512084E-01	1.85846810912E-03	1.61619049554E+02
7.64308617234E+10	1.50863671914E-03	2.75770883794E+01	9.99752761256E-01	-1.30044850554E+00	1.00451016972E+00	-1.49586139896E-01	1.19741926262E-03	1.65296386061E+02
7.64368737475E+10	1.43242243108E-04	1.72826027904E+02	9.98180744939E-01	-4.46797656568E-01	1.00573344242E+00	-4.23315188447E-01	5.90285224700E-04	1.52660796406E+02
7.64428857715E+10	5.15897650308E-04	-6.79091108064E+01	9.96020836119E-01	7.41355120014E-03	9.96931658715E-01	2.71150227856E+00	2.49914624228E-03	-2.92104340258E+01
7.64488977956E+10	1.49947514639E-04	-1.48694185888E+02	1.00655260721E+00	-3.00577881524E+00	9.95038090828E-01	3.13010627599E+00	1.39597073051E-04	1.70677231624E+02
7.64549098196E+10	4.92032055769E-04	4.96690084568E+01	1.00563840144E+00	-2.47127710350E+00	9.99247465983E-01	1.80610350658E+00	4.24509276636E-04	1.65499687108E+02
7.64609218437E+10	1.20932945689E-03	2.94524853792E+00	9.92803277379E-01	5.47192276964E-02	1.00323302802E+00	-2.74715544183E-01	2.53772158080E-04	5.12269332841E+01
7.64669338677E+10	7.81711829007E-04	-1.49799713764E+02	1.00326476599E+00	-2.01598723011E+00	9.95540822031E-01	2.77196430304E+00	1.41232573948E-03	-3.71775002079E+01
7.64729458918E+10	2.53747781029E-03	-1.61416697366E+02	9.96142265675E-01	3.58103925882E-02	9.95275867769E-01	2.97230442491E+00	3.06114814955E-03	-4.22641619900E+01
7.64789579158E+10	3.99935417180E-04	1.30264360040E+01	9.97302300276E-01	-1.03332077764E+00	1.00132294959E+00	2.37361479497E+00	1.01822064765E-03	1.59123850825E+02
7.64849699399E+10	2.86543857251E-04	2.35317309351E+01	1.00656458198E+00	-2.83951847142E+00	1.00218923961E+00	2.49770118880E+00	7.33667814936E-04	-7.01009481473E+01
7.64909819639E+10	8.67237075252E-04	-1.71084862851E+02	1.00470006593E+00	-2.09286768671E+00	9.96162793826E-01	2.73760215396E+00	1.28298544232E-03	-5.45897318344E+01
7.64969939880E+10	1.10403828160E-03	-1.71662413613E+02	1.00222329180E+00	-1.48806129825E+00	1.00234105495E+00	7.39941550578E-01	2.86987963670E-04	-3.61591036884E+01
7.65030060120E+10	1.54457249830E-03	-2.06877484318E+00	9.97853621138E-01	-1.06714024478E+00	1.00527476758E+00	-3.79767437419E-01	5.13742032683E-04	5.26936125278E+01
7.65090180361E+10	1.37591319158E-03	-1.76595374446E+02	9.98969918384E-01	-9.94160863300E-01	9.97938096619E-01	2.72661430154E+00	7.45166386585E-04	-1.69100784187E+02
7.65150300601E+10	4.27599490653E-04	1.76132054659E+02	1.00033548580E+00	-1.34853442130E+00	9.99750097610E-01	1.62527130855E+00	1.06428816435E-03	-4.90723859170E+01
7.65210420842E+10	1.59029884823E-03	-1.75876729192E+02	9.99461188330E-01	-9.61475759474E-01	1.00446175809E+00	-2.05449918879E-02	3.73221344939E-04	7.97727343136E+01
7.65270541082E+10	1.33738680681E-03	-3.57864276563E-01	9.99223518060E-01	-1.38501312111E+00	9.96799257074E-01	1.86033724898E+00	8.62839281639E-04	-5.57189537814E+01
7.65330661323E+10	1.40955055503E-03	2.02409674584E+00	1.00019037820E+00	-1.54122000857E+00	1.00060226988E+00	1.94478101701E+00	1.19698750530E-03	1.45639555339E+02
7.65390781563E+10	3.39459818874E-04	1.70434545463E+02	1.00063815324E+00	-1.30598684608E+00	9.98040089607E-01	2.29787395612E+00	6.31204923825E-04	-9.95402028592E+01
7.65450901804E+10	6.45804055990E-04	1.63951193505E+02	9.98435900690E-01	-1.21943521430E+00	9.96891254569E-01	2.53521987376E+00	1.78725857295E-03	-6.67679863124E+01
7.65511022044E+10	2.37096600252E-03	-1.92595491273E+01	1.00461208374E+00	-2.23510041014E+00	1.00448125148E+00	-2.76332379185E-01	2.19147418766E-03	9.21601972430E+01
7.65571142285E+10	5.94733652289E-04	-9.18538036016E+00	1.00420900682E+00	-2.38696969988E+00	9.99720809781E-01	2.03658131309E+00	1.22909242887E-03	1.20759049059E+02
7.65631262525E+10	1.65865359362E-03	1.56366489654E+02	9.97773561355E-01	-6.17907839329E-01	9.94468453214E-01	2.97735506762E+00	1.56170369207E-03	-9.78788500997E+01
7.65691382766E+10	2.36913294797E-04	-1.55597691369E+02	9.97158248844E-01	-1.14387845838E+00	9.98210263147E-01	1.51550427436E+00	2.33669940064E-04	-7.48290741401E+01
7.65751503006E+10	1.95082675792E-03	1.57557619206E+02	1.00020810258E+00	-1.18227325184E+00	9.98829827544E-01	2.52406137853E+00	1.65120655524E-03	-8.63967946657E+01
7.65811623246E+10	1.17162933060E-03	-4.49194644222E+01	1.00332248511E+00	-2.04329017711E+00	1.00618407761E+00	1.74134912026E-01	1.51153749581E-03	7.86333281328E+01
7.65871743487E+10	1.25191897914E-03	-5.39243778284E+01	1.00842771334E+00	-2.96441750230E+00	1.00296328559E+00	4.94369341158E-01	2.77337752226E-03	7.97499459089E+01
7.65931863727E+10	9.39451355313E-04	-4.54085632819E+01	9.97808876291E-01	-7.24803023471E-01	1.00685879952E+00	-7.15083145121E-01	1.51679992843E-03	7.55662585259E+01
7.65991983968E+10	9.60719995582E-04	1.23998810541E+02	9.99359975964E-01	-1.41540428922E+00	9.94271861446E-01	3.45216403614E+00	1.44964108950E-03	-1.24429315130E+02
7.66052104208E+10	1.41630070610E-03	1.35630754818E+02	1.00192559050E+00	-1.66353625168E+00	9.92215695760E-01	3.50019699122E+00	1.41184451204E-03	-1.17000356494E+02
7.66112224449E+10	1.52326869421E-03	-6.04436815606E+01	1.00139936146E+00	-1.92019159858E+00	1.00518749276E+00	1.37610899150E-02	1.25661280145E-03	4.57899372947E+01
7.66172344689E+10	1.39425007917E-03	1.06766152826E+02	9.96958056655E-01	-6.41045162971E-01	9.93469473075E-01	3.75892721151E+00	2.54432099516E-03	-1.24348544899E+02
7.66232464930E+10	1.89087378223E-04	-1.54649145920E+02	1.00578443250E+00	-2.80262554365E+00	9.96225574735E-01	2.41825661305E+00	4.73388639952E-04	5.53760194309E+01
7.66292585170E+10	1.23653746833E-03	-7.92403463860E+01	1.00365602944E+00	-2.19199428710E+00	1.00665162300E+00	-2.60494471744E-01	2.17579135657E-03	5.04662357519E+01
7.66352705411E+10	1.90220573118E-04	9.06186702083E+01	9.98339340404E-01	-1.43149879618E+00	9.96488871924E-01	2.39434716951E+00	5.44305491837E-04	-1.37338204730E+02
7.66412825651E+10	5.60529470371E-04	-6.40509454816E+01	9.99648792815E-01	-1.38074297623E+00	1.00070367874E+00	1.08531950627E+00	3.03150638414E-04	2.56336685273E+01
7.66472945892E+10	2.42137978079E-04	-8.78216699849E+01	9.97457976381E-01	-7.09074203634E-01	1.00308532429E+00	5.38197712819E-01	3.20082581520E-04	4.42319471406E+01
7.66533066132E+10	6.21510332902E-04	8.96444118637E+01	9.98963952441E-01	-1.06614317328E+00	9.97407514478E-01	1.88066188336E+00	3.51854747139E-04	-1.42678252111E+02
7.66593186373E+10	1.06237165055E-03	7.57584040041E+01	1.00062741587E+00	-1.11961619777E+00	9.93652930742E-01	3.62650732407E+00	2.00553684672E-03	-1.54455080140E+02
7.66653306613E+10	5.62605745653E-04	-9.42098843708E+01	9.94518675002E-01	-2.04336220757E-01	1.00828515953E+00	-1.00703834503E+00	1.15849103886E-03	1.82118399754E+01
7.66713426854E+10	2.23835368864E-04	-8.61677735703E+01	1.00129027026E+00	-1.68646173132E+00	1.00157283375E+00	1.08939115769E+00	3.97340563556E-04	4.95355798958E+00
7.66773547094E+10	9.53227211466E-04	-1.06265183597E+02	1.00037174903E+00	-1.37979847852E+00	1.00714240531E+00	-4.66465553403E-01	1.42711150619E-03	1.48521975291E+01
7.66833667335E+10	5.43642135211E-04	5.76182433634E+01	9.99197170344E-01	-1.10520761055E+00	9.97901162992E-01	2.13128423321E+00	1.41914153047E-03	-1.78355546275E+02
7.66893787575E+10	3.76738798590E-04	6.32470294725E+01	1.00316135089E+00	-2.02963462366E+00	9.93631278991E-01	3.31067653372E+00	6.04763185743E-04	-1.62252045278E+02
7.66953907816E+10	3.16964914437E-04	7.24666149555E+01	9.97386272043E-01	-4.55315665227E-01	1.00008052812E+00	1.56362062015E+00	7.45999772742E-04	1.77891608830E+02
7.67014028056E+10	1.55594498374E-04	2.46531475789E+01	9.96927050649E-01	-7.01164883557E-01	1.00260685244E+00	9.66092462764E-01	2.55757820126E-04	-1.77617520083E+02
7.67074148297E+10	1.30046761246E-03	-1.14535400133E+02	1.00493517028E+00	-2.21017700746E+00	1.00328127709E+00	-2.62841670065E-01	1.99910306069E-03	-1.03819598059E+01
7.67134268537E+10	6.23579072849E-04	3.69471987973E+01	1.00020780834E+00	-1.47146263639E+00	9.95530048793E-01	2.08617131862E+00	3.33532400214E-04	-9.93879377477E+01
7.67194388778E+10	1.34113551766E-03	4.98352396487E+01	9.97325772377E-01	-6.74784559978E-01	9.93832602472E-01	3.06749424189E+00	1.30318100641E-03	-1.76412366876E+02
7.67254509018E+10	1.17325267976E-03	5.10603434346E+01	9.98254084713E-01	-9.27890823354E-01	9.93397159356E-01	3.24786768783E+00	2.10619474420E-03	1.54101898419E+02
7.67314629259E+10	7.52132402373E-04	1.27004144677E+02	9.92635829296E-01	1.30834134064E+00	1.00213062888E+00	7.06274240805E-01	1.48282554773E-03	1.61319960679E+02
7.67374749499E+10	6.72759816109E-04	-7.27905577015E+01	9.99382019322E-01	-2.00827560221E+00	1.00198373746E+00	4.34783878490E-01	1.78170852266E-03	-4.56971933836E+01
7.67434869739E+10	4.79031445652E-04	1.39036794064E-01	1.00010018509E+00	-1.58059662423E+00	9.98515266626E-01	2.16683193028E+00	5.88180058845E-04	-7.42696353250E+01
7.67494989980E+10	3.17916879531E-04	-1.41992523672E+02	9.99138400008E-01	-1.19116570262E+00	1.00323204050E+00	6.51933233101E-01	8.20330021881E-04	-5.14103757361E+01
7.67555110220E+10	3.99302417135E-04	-1.69706753317E+02	9.99978954409E-01	-1.69930042629E+00	9.99729548641E-01	1.26985741416E+00	2.01777681644E-04	-4.10614138554E+01
7.67615230461E+10	6.57959023243E-04	-5.22032218142E+01	1.00033330256E+00	-1.45487150898E+00	1.00114811929E+00	8.16222458157E-01	6.00695518464E-04	9.44426886743E+01
7.67675350701E+10	9.52710144035E-04	-1.20681411584E+02	1.00152935992E+00	-2.07220510732E+00	1.00513247215E+00	-1.49177031790E-01	2.68092346113E-03	-5.92428854066E+01
7.67735470942E+10	1.13789086679E-03	-1.41872675894E+02	1.00396375062E+00	-2.56633032793E+00	1.00522612294E+00	2.76161824843E-01	1.71678622180E-03	-5.49281365764E+01
7.67795591182E+10	2.33838424778E-04	-2.89812986401E+01	1.00245581629E+00	-1.89629515172E+00	9.97024483890E-01	1.95179468643E+00	1.88630183989E-03	1.09369264158E+02
7.67855711423E+10	1.76972900093E-03	9.17957432541E+00	9.93278092560E-01	2.14977226798E-01	9.95870789625E-01	2.76256176015E+00	2.47590247123E-03	1.18733909357E+02
7.67915831663E+10	1.76889096803E-03	1.71881080146E+00	9.95711175790E-01	-3.68027439264E-01	9.94648990265E-01	3.23514384595E+00	1.03900476850E-03	1.38418541801E+02
7.67975951904E+10	1.03024670572E-03	-1.64645961153E+02	9.97380452178E-01	-1.22612750351E+00	1.00837621927E+00	-1.03603662862E+00	3.46491233883E-03	-7.98516497108E+01
7.68036072144E+10	1.17703415655E-03	-1.73100704974E+02	1.00658708998E+00	-3.06394224591E+00	1.00196244479E+00	6.36490671652E-01	2.28713245315E-04	5.91244055462E+00
7.68096192385E+10	6.74058026769E-04	8.13944214423E+00	1.00141083297E+00	-1.80582217444E+00	9.92699107129E-01	3.66902367615E+00	5.65234031015E-04	1.25106524875E+02
7.68156312625E+10	2.27112425377E-03	-1.08510411611E+01	9.96639820671E-01	-9.53683519038E-01	9.90951140758E-01	3.93898502731E+00	1.74320049593E-03	1.02427890939E+02
7.68216432866E+10	1.08212282743E-03	1.60534018075E+02	1.00584046205E+00	-2.56453606209E+00	9.97973773076E-01	1.53652303567E+00	4.41730184985E-04	-9.28610379836E+01
7.68276553106E+10	1.76857406826E-03	1.47475211703E+02	9.95063987793E-01	-7.17513634066E-02	1.00682454765E+00	-4.63181181489E-01	9.75071475474E-04	-9.36140945995E+01
7.68336673347E+10	7.20118374836E-04	-8.72396397893E+01	1.00017341123E+00	-1.69177945601E+00	1.00524975257E+00	-9.53588749376E-02	1.13997091793E-03	-9.57231319865E+01
7.68396793587E+10	7.91225732552E-04	-5.09553589762E+01	1.00146660088E+00	-2.00700469582E+00	9.98752653010E-01	1.97129643679E+00	1.26051954299E-03	8.43946900677E+01
7.68456913828E+10	6.04761626300E-04	1.53119556247E+02	1.00396390895E+00	-2.06869242837E+00	9.97164429232E-01	1.89932635458E+00	1.08194890905E-04	1.02035129689E+02
7.68517034068E+10	3.11551444702E-04	-3.80521947777E+01	9.99379416435E-01	-1.20786852655E+00	9.98771906473E-01	1.90318221941E+00	6.13162685601E-04	-9.65117054231E+01
7.68577154309E+10	9.06804262031E-04	1.59891789843E+02	9.98293454942E-01	-1.10489058943E+00	1.00604694075E+00	-4.92932764908E-01	2.02805850471E-03	-1.10057236474E+02
7.68637274549E+10	1.76757765954E-03	-3.06333351051E+01	1.00103891715E+00	-1.64434512681E+00	9.91981890452E-01	3.93093222383E+00	2.93528016844E-03	7.26907832825E+01
7.68697394790E+10	2.15704863755E-03	-4.79852526982E+01	1.00124450521E+00	-1.70423001035E+00	1.00095493011E+00	2.41265069503E+00	1.18282230071E-03	5.20192107823E+01
7.68757515030E+10	1.84521111480E-03	1.38493458550E+02	1.00034973375E+00	-1.42836395247E+00	1.00464867488E+00	2.20243374531E-01	1.19822346638E-03	-1.24726893613E+02
7.68817635271E+10	1.80995444743E-03	1.41103088658E+02	1.00080238855E+00	-1.49967903580E+00	1.00688899615E+00	-2.52443410591E-01	3.06717886202E-03	-1.19060623245E+02
7.68877755511E+10	1.99764165365E-03	-3.62462518614E+01	9.94823626480E-01	-4.54347130360E-02	9.93631453853E-01	2.87024150697E+00	3.82889213939E-03	5.80445635403E+01
7.68937875752E+10	2.94582786951E-04	-6.34809443252E+01	1.00417780489E+00	-2.31830788163E+00	9.98715214323E-01	2.67797835594E+00	1.24020672828E-03	-1.08333905981E+02
7.68997995992E+10	1.73583782444E-03	1.35828236468E+02	9.99977145767E-01	-1.58625302393E+00	1.00435734689E+00	5.22115009474E-01	1.00524100182E-03	-1.44455107694E+02
7.69058116232E+10	3.39693687982E-05	-3.96601760986E+01	9.94422043950E-01	1.32222865285E-01	1.00742051055E+00	-1.43647161102E-01	2.78538382801E-04	4.96677327069E+01
7.69118236473E+10	7.94973808212E-04	-2.73965938508E+01	9.93640170389E-01	7.49404775910E-01	9.92628922446E-01	3.71866954154E+00	4.26927645801E-03	3.70689471973E+01
7.69178356713E+10	5.13826463717E-04	1.36039166972E+02	1.00357681127E+00	-2.29015249702E+00	1.00366341477E+00	1.39316127246E-01	2.33539359473E-03	-1.45108589015E+02
7.69238476954E+10	1.51520723166E-03	1.32493118758E+02	1.00013245005E+00	-3.59559845749E-01	1.00064638058E+00	1.35114401027E+00	4.68572570391E-04	-2.58635220180E+01
7.69298597194E+10	1.56761544378E-03	-4.77101677764E+01	9.96565740351E-01	-8.58759428608E-01	9.93910734070E-01	3.46757628791E+00	1.25742337702E-03	-4.70765216348E+00
7.69358717435E+10	7.90805958592E-04	1.29763115544E+02	1.00049478991E+00	-1.52351206416E+00	1.00010130334E+00	1.81084922889E+00	2.67827266295E-04	-9.29864574867E+01
7.69418837675E+10	2.13957602956E-04	-9.07192375603E+01	1.00169389243E+00	-2.28339354712E+00	1.00283235515E+00	1.41982803285E+00	1.30066582114E-03	-1.51251864425E+02
7.69478957916E+10	3.38021166515E-04	1.34869871426E+02	1.00075347570E+00	-1.72131973422E+00	9.96675887718E-01	2.12471340081E+00	1.07878636584E-03	3.49478920764E+01
7.69539078156E+10	5.43929148606E-04	1.34580739600E+02	1.00094207772E+00	-2.03647989203E+00	1.00147127375E+00	1.16210084666E+00	4.63337587090E-04	1.50905350204E+02
7.69599198397E+10	1.21164237010E-04	8.93847566512E+01	9.99029636996E-01	-1.28053696039E+00	9.99049421077E-01	1.53514690399E+00	1.09084487297E-04	-2.20422137765E+00
7.69659318637E+10	7.48410243019E-04	-6.09157991169E+01	1.00237074134E+00	-2.28169633974E+00	9.93017440718E-01	3.82453324308E+00	8.18604213185E-04	-5.86436530938E+01
7.69719438878E+10	2.07204309691E-04	-7.73452801003E+01	9.98758499309E-01	-1.42855290838E+00	1.00058327533E+00	1.87290398489E+00	3.81031362358E-04	-8.20922771342E+01
7.69779559118E+10	1.06274419426E-03	1.41844129341E+02	9.99729327279E-01	-1.12866697333E+00	9.97867874886E-01	2.00657915996E+00	6.85199501477E-04	-6.01558986459E+00
7.69839679359E+10	1.28444541165E-04	1.64927542520E+02	1.00195823369E+00	-1.70465063992E+00	1.00027140087E+00	7.21633393328E-01	8.11105164207E-04	1.74950439163E+02
7.69899799599E+10	7.08490251332E-05	-2.31647294321E+01	9.94433452109E-01	-5.16853762676E-01	1.00114060025E+00	1.36556444744E+00	5.28968949669E-04	-2.58371779346E+01
7.69959919840E+10	8.54213155912E-04	1.46600309120E+02	1.00415967190E+00	-2.13221805875E+00	1.00019207198E+00	1.43895586196E+00	3.38709242632E-04	9.84447231322E+01
7.70020040080E+10	3.48239874259E-04	1.41574078294E+02	1.00462896314E+00	-2.46461205446E+00	9.95696943606E-01	2.07116641707E+00	4.17114960565E-04	1.70160058960E+02
7.70080160321E+10	2.81287415042E-04	1.48557266630E+02	9.98066218596E-01	-6.48453871015E-01	1.00063457281E+00	1.37017687536E+00	5.11748572059E-04	-5.75198772418E+01
7.70140280561E+10	1.95926247133E-04	-6.34953209795E+01	1.00099707960E+00	-1.82290599002E+00	9.98953120290E-01	2.23173256735E+00	2.31697256408E-04	-7.47390687519E+01
7.70200400802E+10	5.02028750307E-04	-4.10963625897E+01	9.98123271558E-01	-9.84183243057E-01	1.00689871237E+00	-3.42124460879E-01	8.15873738441E-04	1.39741480412E+02
7.70260521042E+10	4.16474623093E-04	1.68229667953E+02	1.00190217797E+00	-2.20376947092E+00	1.00399317969E+00	1.76477732704E-01	1.41065761129E-03	1.31763822048E+02
7.70320641283E+10	8.32806575347E-04	-3.29459490243E+01	1.00234442183E+00	-2.12994658581E+00	1.00275680329E+00	1.23171038827E+00	5.82524334796E-04	1.41099275685E+02
7.70380761523E+10	1.06276128329E-03	1.71849408140E+02	1.00954370086E+00	-3.54575932700E+00	1.00057916511E+00	1.39579309628E+00	1.31458424946E-03	1.27045367141E+02
7.70440881764E+10	1.48487958422E-04	1.77431238608E+02	9.95387612090E-01	-2.87595756920E-01	1.00328504563E+00	3.71848382059E-01	2.15197936312E-04	5.60638827807E+00
7.70501002004E+10	3.73096130525E-04	-1.73013951052E+02	9.97748893070E-01	-7.25596482540E-01	9.97117883206E-01	1.94656876592E+00	7.75565879851E-04	-4.58822647729E+01
7.70561122244E+10	4.45315117243E-04	-7.19809586740E+00	9.98865672073E-01	-1.06632895422E+00	9.95760732255E-01	3.01650989108E+00	1.20274924455E-03	-6.92829564398E+01
7.70621242485E+10	3.33413657564E-04	-1.60956012044E+02	1.00377006281E+00	-2.20362831128E+00	9.99527564386E-01	1.36824775311E+00	5.13464979914E-04	1.15672181734E+02
7.70681362725E+10	4.65848259224E-04	-1.69536235459E+02	9.98740913968E-01	-1.03576316890E+00	1.00660535969E+00	-3.98591122629E-01	8.84257879670E-04	1.47514266725E+02
7.70741482966E+10	4.72983325165E-04	-6.61732646146E+00	9.92486932134E-01	6.78217534246E-02	1.00313261702E+00	5.48570549825E-01	4.92952391909E-04	-8.20484102892E+01
7.70801603206E+10	6.55193741664E-04	-1.59005963137E+02	1.00721400784E+00	-3.13003582602E+00	1.00386185185E+00	5.48421247955E-01	1.77455794910E-03	8.09905131648E+01
7.70861723447E+10	1.19573412888E-04	-1.72175516085E+02	1.00548999701E+00	-2.64592604054E+00	9.94560842400E-01	3.26470017268E+00	5.81673999604E-04	-1.21301392334E+02
7.70921843687E+10	1.17799980623E-03	7.34953988222E+00	9.95113625928E-01	-7.29408285400E-02	9.95010363108E-01	2.70228116083E+00	1.47478732134E-03	-7.90908251292E+01
7.70981963928E+10	4.70018183776E-04	-1.58252575446E+02	9.99538607972E-01	-1.29861081007E+00	1.00353819063E+00	5.80114714534E-01	3.60219786734E-04	1.10883623781E+02
7.71042084168E+10	1.13756345245E-03	-1.64533198944E+02	1.00863790303E+00	-3.54187693688E+00	1.00134616307E+00	1.08386036371E+00	1.42143445095E-03	1.29480682694E+02
7.71102204409E+10	1.34412047770E-04	1.61252233469E+02	9.96499816984E-01	-6.13258028175E-01	1.00046958357E+00	9.21913769926E-01	6.01514426407E-04	-5.56535615250E+00
7.71162324649E+10	3.77345655924E-04	4.04993406834E+00	9.98977923440E-01	-7.92184762972E-01	9.98882705435E-01	1.59095557445E+00	3.50215713239E-04	-9.24696230498E+01
7.71222444890E+10	9.40334371078E-04	9.00714024549E+00	1.00380609297E+00	-3.64756152252E+00	1.00124851485E+00	7.33150050805E-01	2.47082111794E-03	3.56078577298E+01
7.71282565130E+10	9.09781416032E-05	-1.39252047432E+02	9.97590924810E-01	-1.23996083644E+00	1.00160743108E+00	8.38488584563E-01	1.52021186667E-03	1.14778092295E+01
7.71342685371E+10	9.88359432493E-04	-1.67751260210E+02	9.99631896533E-01	-1.14791925902E+00	1.00021471650E+00	1.14027434012E+00	6.18486578864E-04	-9.21560936493E+00
7.71402805611E+10	1.55910001100E-03	-1.68790497672E+02	1.00344522400E+00	-1.86703903091E+00	1.00551289002E+00	3.75924735590E-01	9.51599811493E-04	5.48226515472E+01
7.71462925852E+10	1.12605185938E-03	1.43841288272E+01	1.00116921180E+00	-2.27459401522E+00	9.98412680630E-01	1.89974937246E+00	3.81796482047E-04	2.19731943544E+00
7.71523046092E+10	1.61306371245E-04	-1.78296478462E+02	1.00302600780E+00	-2.13870687318E+00	1.00030346662E+00	1.26176823333E+00	3.79961732909E-04	6.40489258430E+01
7.71583166333E+10	3.77883353105E-04	-4.90506017884E+01	9.92892238792E-01	3.98182066202E-01	9.94220021937E-01	2.98602232793E+00	2.27527806840E-03	-1.53549802375E+02
7.71643286573E+10	9.04130885106E-04	-1.57198135669E+02	1.00034510009E+00	-1.24286045901E+00	9.98814760484E-01	2.54895036315E+00	2.70343511395E-03	1.79271535464E+02
7.71703406814E+10	9.16548793070E-04	1.75867078616E+02	1.00807715803E+00	-3.19799882287E+00	1.00387178473E+00	4.79254851772E-01	1.62399176379E-03	1.33672028780E+01
7.71763527054E+10	1.33156134669E-03	7.64176911665E+00	9.98164315241E-01	-1.00683864730E+00	9.96122193187E-01	2.64261906628E+00	6.84480092353E-04	-6.14269945457E+01
7.71823647295E+10	5.52350055972E-04	1.88734547770E+01	9.98340998385E-01	-9.66998476828E-01	1.00505371690E+00	-1.81912287392E-02	3.94880633694E-04	1.23532222362E+02
7.71883767535E+10	1.65547715320E-04	-5.44932289129E+01	1.00173943258E+00	-1.41092159690E+00	9.96938626605E-01	2.53651671971E+00	2.15281634089E-03	1.71097453573E+02
7.71943887776E+10	6.55523305140E-04	-1.48125470992E+02	9.95378835600E-01	7.33026425342E-02	1.00070649472E+00	1.11183171650E+00	3.84548041516E-04	-4.92324181641E+01
7.72004008016E+10	7.86930457805E-04	-1.59774356328E+02	1.00268893556E+00	-1.62019820164E+00	9.99359376073E-01	1.59178274379E+00	1.58342457036E-03	-2.18280312383E+01
7.72064128257E+10	1.33403087783E-04	9.67048183281E+00	1.00404342489E+00	-2.44002152173E+00	9.96544379098E-01	2.36664897939E+00	9.28211479632E-04	-2.27789412041E+01
7.72124248497E+10	8.39440168521E-04	-1.65402878475E+02	1.00100702487E+00	-1.48923384882E+00	9.97595313904E-01	1.74968564470E+00	2.57715305467E-04	-9.41197720221E+01
7.72184368737E+10	1.52742085609E-03	1.65550949391E+02	1.00639731383E+00	-3.05768521591E+00	1.00723314632E+00	-8.68963544355E-01	1.27405125766E-03	-2.71877720604E+01
7.72244488978E+10	4.60152485841E-04	1.66502806058E+01	9.96275005172E-01	-7.45694236409E-01	1.00255308498E+00	8.52620734090E-01	3.80628140031E-04	-4.43065071714E+01
7.72304609218E+10	8.97580638642E-04	-8.46243948055E+00	9.99608292944E-01	-1.44539901627E+00	9.94792534393E-01	3.06175061592E+00	1.47236799372E-03	1.51449517730E+02
7.72364729459E+10	9.57694223244E-04	-6.50420680022E+00	1.00049490642E+00	-1.50692491374E+00	9.95655177168E-01	3.23486870469E+00	3.71613474816E-03	1.47651518134E+02
7.72424849699E+10	2.59566498164E-04	1.15190611798E+01	9.97455654872E-01	-5.68981532135E-01	1.00110689201E+00	1.06716948482E+00	4.69665967434E-04	-2.53873448346E+01
7.72484969940E+10	1.01557845455E-03	-1.15895851388E+02	9.88610941813E-01	2.33218599742E+00	1.00027702656E+00	1.06323347255E+00	4.77094669255E-04	9.39900928986E+01
7.72545090180E+10	3.37715118666E-04	-1.35086613256E+02	1.00431585044E+00	-2.07219368954E+00	9.96480376674E-01	2.57572982021E+00	7.12642478432E-04	-3.30455604864E+01
7.72605210421E+10	5.44362959226E-04	-1.77475979834E+02	1.00492531140E+00	-2.51383989398E+00	9.99454048488E-01	1.85894368430E+00	1.39396991781E-03	1.41528791259E+02
7.72665330661E+10	4.76691305424E-04	1.63539167726E+02	1.00122137872E+00	-1.97262905048E+00	1.00037656092E+00	9.05934495096E-01	4.33080751566E-04	1.62371009384E+02
7.72725450902E+10	4.16814223514E-04	-1.18743244348E+02	9.98304554887E-01	-5.31592608957E-01	9.99452714772E-01	1.59492919870E+00	6.37248864940E-04	1.11757556576E+02
7.72785571142E+10	4.45074197686E-04	-1.49864923357E+02	1.00389099544E+00	-2.36441197744E+00	9.96080455423E-01	2.52447369344E+00	1.83789915101E-03	-4.55023675816E+01
7.72845691383E+10	4.90768808942E-04	-1.23961483392E+02	1.00156740950E+00	-1.43702923872E+00	9.97723397729E-01	2.37664703011E+00	8.41119577518E-04	9.38466664497E+01
7.72905811623E+10	3.72793157789E-04	3.43121943477E+00	9.97619172857E-01	-1.20357846481E+00	1.00302595185E+00	1.67480165785E+00	1.87109866389E-03	1.24824397832E+02
7.72965931864E+10	1.19975790149E-04	-6.19479813329E+01	9.97783570076E-01	-8.14224869635E-01	9.99663767742E-01	1.29102998058E+00	8.13614858748E-04	1.11041995104E+02
7.73026052104E+10	6.58753915174E-04	1.55122005249E+02	1.00224716331E+00	-1.97771124260E+00	1.00116827417E+00	4.64945044859E-01	3.33254327324E-03	-6.77471471176E+01
7.73086172345E+10	1.09277285439E-03	-1.47393539790E+02	1.00450796019E+00	-2.18645043275E+00	9.97083526645E-01	2.64196798566E+00	8.81262530547E-04	1.16026426620E+02
7.73146292585E+10	7.29684436837E-04	-1.58740583654E+02	9.94015949271E-01	3.29369561320E-01	1.00516818942E+00	6.63146841112E-02	7.98373995319E-04	1.15595040477E+02
7.73206412826E+10	6.12699177878E-04	1.63984661806E+02	1.00497555456E+00	-2.56372759993E+00	1.00021061646E+00	1.45751572969E+00	4.78276607221E-04	-1.66269531809E+02
7.73266533066E+10	4.09322737633E-04	9.79474581541E+00	9.98911649164E-01	-1.55803058463E+00	1.00144740856E+00	1.58493751357E+00	1.38549578637E-03	1.13778302817E+02
7.73326653307E+10	1.57740908484E-03	-1.67510440886E+01	9.92600707680E-01	1.49664813183E-01	9.95880554026E-01	2.59331090948E+00	1.64464321224E-03	6.55541925444E+01
7.73386773547E+10	1.13440963698E-04	-6.52071160655E+01	1.00274208054E+00	-2.02245003385E+00	9.96339392015E-01	2.19255322013E+00	3.56247102942E-04	-7.21215966490E+01
7.73446893788E+10	9.80653559409E-04	-7.54292286285E+01	9.96722902300E-01	-6.64046823614E-01	9.94997300906E-01	3.20397208846E+00	2.53570849295E-03	7.51186068095E+01
7.73507014028E+10	1.12078761697E-04	3.06864224150E+01	1.00749044945E+00	-3.67681823929E+00	9.94694086490E-01	3.33394174535E+00	4.18856900953E-04	1.27683029920E+02
7.73567134269E+10	7.08446584991E-04	-5.09969023683E+01	1.00028932677E+00	-1.24347168424E+00	9.96567540169E-01	2.91275669908E+00	9.50313382331E-04	2.19089693288E+01
7.73627254509E+10	3.68366590882E-04	8.14791065451E-01	9.91860617280E-01	4.71670082014E-01	1.00280685425E+00	-1.09101467026E-01	5.49047673703E-04	1.01924269543E+02
7.73687374749E+10	8.26250823097E-04	-9.40678155288E+00	1.00196745649E+00	-1.94211398005E+00	9.94563240697E-01	2.99438102124E+00	1.12215900831E-03	6.99816272446E+01
7.73747494990E+10	1.87029263848E-04	7.64236590752E+01	1.00368925870E+00	-2.29549829079E+00	1.00058887778E+00	1.75749767262E+00	9.36875860856E-04	1.14823775689E+02
7.73807615230E+10	6.35746085469E-04	1.78352252046E+02	1.00187785181E+00	-1.78847481801E+00	1.00398572499E+00	1.30515600786E+00	1.15122633925E-03	-1.01890696384E+02
7.73867735471E+10	1.04208211147E-03	-1.54191967733E+01	9.91334844769E-01	4.67242284398E-01	1.00310864116E+00	6.23750995675E-01	6.04385971519E-04	-1.43946283501E+01
7.73927855711E+10	4.30244190236E-04	-4.04460277117E+00	9.98389059842E-01	-9.75980063570E-01	1.00049638507E+00	1.27578273266E+00	2.97596831009E-04	-7.19782113462E+01
7.73987975952E+10	5.00054510100E-04	-1.22469768010E+02	9.98972546592E-01	-1.28166791886E+00	9.98685399232E-01	2.00274636735E+00	8.46103201135E-04	6.12421994071E+01
7.74048096192E+10	4.84948046889E-04	-1.04944349648E+02	1.00088654617E+00	-1.43609481321E+00	9.97913332442E-01	2.31859804310E+00	6.92672007495E-04	3.68412174574E+01
7.74108216433E+10	3.27372628349E-04	1.60578385119E+02	1.00074075486E+00	-1.39430498888E+00	1.00094343039E+00	1.03226046939E+00	5.92051713914E-04	-1.28690191518E+02
7.74168336673E+10	1.27736512199E-03	1.24158835222E+02	1.00100812803E+00	-1.58696717493E+00	1.00851826876E+00	-8.59937807684E-01	1.68019253553E-03	-1.70928040074E+02
7.74228456914E+10	2.73610742368E-04	1.29123180033E+02	9.98591236618E-01	-9.14463271593E-01	1.00420945797E+00	2.47744982095E-01	4.14397511059E-04	1.42462602853E+02
7.74288577154E+10	2.47010609704E-04	-1.41086381337E+02	1.00146750912E+00	-1.61088363787E+00	9.98122630882E-01	1.85421826874E+00	1.04001646529E-04	-4.13099033937E+00
7.74348697395E+10	1.62409717097E-03	-6.38755786192E+01	9.95286582918E-01	-3.78325364917E-01	9.92972942371E-01	3.33503886031E+00	1.72296718154E-03	-8.04531648441E+00
7.74408817635E+10	5.48835456899E-04	-6.12850703259E+01	1.00023059199E+00	-1.23586595552E+00	9.97346806103E-01	1.95534377574E+00	4.12823696557E-04	-1.99046966494E+01
7.74468937876E+10	3.37802117617E-04	1.38645293560E+02	1.00297816749E+00	-2.21938235108E+00	9.99564629762E-01	1.87496568416E+00	1.01271111384E-04	1.66565344264E+02
7.74529058116E+10	6.99540171321E-04	1.10260443573E+02	1.00709596405E+00	-2.92725073563E+00	9.98668499277E-01	1.55030851985E+00	7.77117981848E-04	1.78122940032E+02
7.74589178357E+10	2.69603478805E-04	1.25209259127E+02	1.00508150031E+00	-2.62530398791E+00	9.96522047930E-01	2.39282010895E+00	2.31735927098E-04	-1.78311580346E+02
7.74649298597E+10	7.04609016415E-05	-1.74970556896E+02	9.95207431108E-01	-3.47381274266E-01	1.00500615785E+00	1.89639862936E-01	2.37272039861E-04	1.22436517599E+02
7.74709418838E+10	1.01998547907E-03	-8.53421624896E+01	9.97421183447E-01	-4.76302229163E-01	9.98098867270E-01	2.14986598346E+00	8.08365534883E-04	-2.44261726875E+01
7.74769539078E+10	1.36190835679E-03	1.00784690170E+02	1.00558133702E+00	-2.52966290775E+00	1.00340486389E+00	1.38273540145E-01	1.31109469206E-03	1.53308615536E+02
7.74829659319E+10	4.16392201181E-04	-9.50800758852E+01	1.00191571537E+00	-2.01086245899E+00	9.97271053296E-01	2.90887758580E+00	5.04086226921E-04	-5.64782945904E+01
7.74889779559E+10	9.00829020611E-04	9.78641839570E+01	1.00631250422E+00	-3.01322163116E+00	9.98480712025E-01	1.38108427142E+00	8.54610494300E-04	1.47087782487E+02
7.74949899800E+10	4.39364725791E-04	-1.04903119902E+02	1.00343834425E+00	-2.24503838526E+00	9.94717247237E-01	3.00879188036E+00	3.46533420673E-04	-3.64153736229E+01
7.75010020040E+10	3.84060017789E-04	-4.94799093931E+01	9.97199109062E-01	-6.92506384150E-01	1.00070226342E+00	1.41346050477E+00	2.82298317505E-04	-3.64414418094E+01
7.75070140281E+10	1.26723905180E-03	9.25245935850E+01	1.00411789819E+00	-2.37712765479E+00	1.00602704153E+00	8.47504050030E-02	1.13745209756E-03	1.68248964635E+02
7.75130260521E+10	5.31543595577E-05	1.19696883441E+02	9.95202278275E-01	-3.20762538601E-01	1.00488742966E+00	1.96800620052E-01	2.68700074686E-04	7.61089459703E+01
7.75190380762E+10	3.42057944981E-04	4.47357113385E+01	9.94991089778E-01	-4.29826686542E-01	1.00355176359E+00	-2.79942926480E-03	4.93402498376E-04	9.25174064143E+01
7.75250501002E+10	1.27020856507E-03	-1.10734306470E+02	1.00100492844E+00	-1.59560505817E+00	9.92493735322E-01	3.45035184560E+00	7.94156047640E-04	-4.65702204812E+01
7.75310621242E+10	1.81103845980E-03	9.51362022574E+01	1.00877443562E+00	-3.29436633867E+00	1.00501352953E+00	-4.20800343072E-01	1.45659455929E-03	1.35220611276E+02
7.75370741483E+10	1.90708810648E-03	-1.31178216626E+02	9.96775757379E-01	-3.98319111609E-01	9.97281282845E-01	2.70951225776E+00	1.07992184435E-03	-7.07990746189E+01
7.75430861723E+10	1.35935613987E-03	-1.23823039860E+02	1.00064737981E+00	-1.69472967097E+00	9.93421127568E-01	3.71574015324E+00	6.85608489232E-04	-4.01458436996E+01
7.75490981964E+10	1.04558254791E-03	4.09174830961E+01	1.00126032133E+00	-1.59555578168E+00	1.00257366870E+00	6.66740842196E-01	3.40061601569E-04	1.72132194208E+02
7.75551102204E+10	1.52985644345E-03	4.45104849600E+01	1.00175763397E+00	-1.90465025755E+00	1.00581122963E+00	-1.47439715086E-02	6.10954890037E-04	1.53493354385E+02
7.75611222445E+10	9.14947373364E-04	6.61589372428E+01	1.00120037040E+00	-1.61267682144E+00	1.00571920194E+00	-3.04886453186E-01	7.63495455605E-04	1.01510489710E+02
7.75671342685E+10	2.01062622569E-03	1.56074704951E+02	1.00370934439E+00	-2.92291042017E+00	1.00371967251E+00	5.92526838742E-01	1.01118080148E-03	9.13346536790E+01
7.75731462926E+10	7.31752295251E-04	-1.25891753075E+02	9.98936538735E-01	-1.44763465621E+00	9.95359385940E-01	2.73832252431E+00	3.89669411828E-04	-4.22336607704E+01
7.75791583166E+10	9.79925089570E-04	-3.02596889396E+01	1.00187356550E+00	-2.00742473613E+00	9.94049490897E-01	3.45824308679E+00	9.18390852404E-04	-9.18835455883E+01
7.75851703407E+10	1.93179648183E-03	1.69943187015E+01	1.00483311542E+00	-2.95047488626E+00	1.00128095463E+00	1.39912606116E+00	3.63810922755E-04	1.61251420175E+02
7.75911823647E+10	4.43844893578E-04	9.56037299386E+01	9.98288848213E-01	-5.62444657552E-01	1.00651499724E+00	-5.31195194541E-01	3.50235110285E-04	8.62949507519E+01
7.75971943888E+10	3.96756321328E-04	1.62041484222E+02	1.00122043169E+00	-1.88273729585E+00	9.99662319755E-01	1.45922952226E+00	7.49169140142E-04	6.84774281304E+01
7.76032064128E+10	1.89895704188E-03	-1.58256102314E+02	1.00068751511E+00	-1.46345098820E+00	9.92947880289E-01	3.92020901736E+00	8.49470190856E-04	-8.69206063918E+01
7.76092184369E+10	1.56282659458E-03	1.19217267922E+01	1.00064710692E+00	-2.02215893041E+00	1.00220636243E+00	5.35379611782E-02	7.28330756048E-04	8.59055998580E+01
7.76152304609E+10	1.64680218605E-03	-1.70657139970E+02	1.00187754672E+00	-1.57101009321E+00	9.94716391923E-01	2.44271389260E+00	3.71815446218E-04	-8.32130486105E+01
7.76212424850E+10	4.12460979892E-04	7.77164528234E+00	9.97675466914E-01	-9.63025479401E-01	1.00358315938E+00	6.84686345322E-01	1.20368354800E-04	9.84836273182E+01
7.76272545090E+10	3.68541044770E-04	-8.79636617465E+01	9.99757746457E-01	-1.48450792416E+00	9.96029736815E-01	2.83107130228E+00	4.53451047879E-04	3.46242241165E+01
7.76332665331E+10	4.75906148311E-04	1.69253298599E+02	1.00147035534E+00	-1.60248649235E+00	9.98598924330E-01	1.50277891466E+00	2.73734292430E-04	8.03448695457E+01
7.76392785571E+10	8.22021139430E-04	-1.78877474065E+02	1.00400123292E+00	-1.82336650716E+00	9.94537772413E-01	3.03866692641E+00	2.09282760311E-04	-7.27646763187E+01
7.76452905812E+10	6.95517181841E-04	-8.83204605859E+00	1.00476567087E+00	-2.68079636375E+00	9.97180223138E-01	2.47610650692E+00	4.56801927385E-04	-9.72147609272E+01
7.76513026052E+10	1.00496162514E-04	-1.35847567300E+02	9.95658216862E-01	-5.86814671675E-01	1.00328096754E+00	6.63471961597E-01	1.65456838236E-04	7.70925575248E+01
7.76573146293E+10	1.02786944232E-03	-1.75850795518E+02	9.94487997032E-01	-4.52860276911E-01	9.97994274253E-01	2.65340591372E+00	5.33457695408E-04	-6.55541656087E+01
7.76633266533E+10	2.08342868198E-04	1.25908453646E+01	1.00336081692E+00	-2.26269175033E+00	9.99765195012E-01	2.13183433873E+00	6.56478777211E-04	8.50545462647E+01
7.76693386774E+10	1.02932806188E-04	6.07461247186E+01	1.00805363463E+00	-2.82241832413E+00	9.99548782584E-01	1.66896912586E+00	5.79742921126E-04	1.04564530504E+02
7.76753507014E+10	1.09745382283E-03	-2.27682880158E+01	1.00159265840E+00	-1.56060379504E+00	1.00235377531E+00	5.27368781323E-01	4.35763454489E-04	9.77278914801E+01
7.76813627255E+10	3.11769580270E-04	-3.18459078805E+01	9.95976673448E-01	-4.50447993600E-01	1.00478542544E+00	-5.52042306215E-01	3.81251754947E-04	-1.17984077256E+02
7.76873747495E+10	3.17983561226E-04	-4.76312414955E+01	9.99711798380E-01	-1.05151667267E+00	1.00022966630E+00	1.39524333929E+00	8.61970999281E-04	-9.41271441424E+01
7.76933867735E+10	1.33031892452E-03	1.54065865801E+02	1.00581055734E+00	-2.14291322149E+00	9.98913359915E-01	1.76282309970E+00	7.09786481809E-04	1.01144542941E+02
7.76993987976E+10	7.34133850015E-04	1.51615288314E+02	1.00010346542E+00	-1.33502738754E+00	1.00036830823E+00	1.45472807028E+00	2.21629588637E-04	9.05571387732E+01
7.77054108216E+10	3.05578175563E-04	1.67797528121E+02	9.92707601778E-01	1.19228525556E-01	1.00318790541E+00	8.78975494097E-01	1.83453104934E-04	4.34226482218E+01
7.77114228457E+10	2.44331573397E-04	1.48468771185E+02	9.92921552229E-01	-1.56446313657E-01	9.97992727085E-01	2.04013094840E+00	7.77736092141E-04	-5.81355106875E+01
7.77174348697E+10	1.65173949767E-03	-3.97542780468E+01	1.00541617304E+00	-2.64917592424E+00	1.00297970544E+00	9.96441448775E-01	7.83958182750E-04	1.21066864594E+02
7.77234468938E+10	1.16569094583E-03	1.58927985498E+02	1.00569681342E+00	-2.68954771617E+00	9.97385265689E-01	2.02834553041E+00	2.67217979882E-04	1.29230541597E+02
7.77294589178E+10	1.49521391250E-03	1.42791670513E+02	9.98889608425E-01	-8.47276224430E-01	9.99568685418E-01	1.43743813163E+00	3.11543975378E-04	8.82748300577E+01
7.77354709419E+10	6.57391584967E-04	1.66270658177E+02	1.00056032845E+00	-1.44821193010E+00	1.00045943609E+00	1.12386673006E+00	5.49554279156E-04	1.07559576657E+02
7.77414829659E+10	7.49179723029E-04	1.46771154219E+02	9.99527296472E-01	-1.70387133420E+00	9.98106665887E-01	2.37324606280E+00	1.67824231624E-04	7.63416163383E+01
7.77474949900E+10	2.61359513784E-03	-4.73666238125E+01	1.00684028391E+00	-3.04477503448E+00	9.98343026760E-01	1.28662138826E+00	4.79570632911E-04	-1.08246377381E+02
7.77535070140E+10	1.61134974877E-03	-4.13441558263E+01	9.94330986703E-01	-5.71877377536E-01	9.96540932310E-01	1.69729541779E+00	2.31322910742E-04	-4.05277226435E+01
7.77595190381E+10	2.44351961177E-04	2.20319403434E+01	9.96884814463E-01	-3.47628201956E-01	9.98864799015E-01	1.76872814654E+00	1.74375630709E-04	-3.58316079632E+01
7.77655310621E+10	1.12995446483E-03	1.37894794541E+02	9.97621489633E-01	-7.86919178893E-01	9.99818480259E-01	1.47730440576E+00	9.36608712350E-05	8.39770815317E+01
7.77715430862E+10	5.83327217045E-04	-5.70503235938E+01	1.00281074565E+00	-1.71607990942E+00	1.00090318515E+00	1.22226156641E+00	8.78989152831E-05	1.55256135265E+02
7.77775551102E+10	1.42709475173E-03	-4.46426801449E+01	9.96902865580E-01	-9.93303660764E-01	1.00495125826E+00	9.61933426766E-01	9.28333410834E-05	1.68891101132E+01
7.77835671343E+10	1.49119448465E-03	1.53974320939E+02	1.00397064151E+00	-2.89321935383E+00	1.00298968957E+00	1.26161923150E+00	6.41732204353E-04	1.13195682008E+02
7.77895791583E+10	7.22576738486E-04	8.38495365561E+01	1.00030128631E+00	-1.61571910630E+00	9.91152117907E-01	4.02189575575E+00	1.44284078787E-03	-6.99253080262E+01
7.77955911824E+10	4.23152259028E-04	-1.34641537019E+02	1.00445818396E+00	-2.38587565173E+00	9.99341409791E-01	1.40067649707E+00	5.18404686762E-04	-8.24749538787E+01
7.78016032064E+10	8.48079990229E-04	-7.53079838587E+01	1.00511675300E+00	-2.45360427587E+00	1.00312378092E+00	1.14641605705E+00	4.17977831188E-04	-7.67347090287E+01
7.78076152305E+10	6.51475562882E-04	-1.58863805084E+02	1.00930195991E+00	-3.71798742752E+00	9.95993141009E-01	2.00594184308E+00	1.35325050800E-03	1.10427292927E+02
7.78136272545E+10	8.75408925289E-04	1.18866030460E+02	9.96843772476E-01	-7.25395130802E-01	1.00004333510E+00	2.00006054940E+00	6.72964262038E-04	-7.16435667633E+01
7.78196392786E+10	1.14383821843E-03	-1.58736112532E+02	1.00765559249E+00	-3.36392163434E+00	1.00587045897E+00	3.71323473916E-01	1.66461612631E-04	-3.91075572702E+01
7.78256513026E+10	3.88397666624E-04	-2.59314613858E+01	1.00136417405E+00	-1.81785597295E+00	9.95190494198E-01	2.18578574621E+00	5.20466376944E-04	1.05728994453E+02
7.78316633267E+10	4.03275609734E-04	1.36220664816E+00	9.99880524326E-01	-1.27777270698E+00	1.00053012433E+00	2.36358330533E+00	1.70392242937E-04	-1.51237232685E+02
7.78376753507E+10	4.04150673279E-04	-9.32429184924E+01	1.00655814034E+00	-2.66439310812E+00	1.00110939332E+00	1.73329880084E+00	3.18645574011E-04	1.01331895166E+02
7.78436873747E+10	9.25533139213E-04	-1.65477814137E+02	1.00741611482E+00	-2.72286580461E+00	1.00204762468E+00	1.05081538122E+00	6.39363712001E-04	1.06852645674E+02
7.78496993988E+10	3.15709846107E-04	-1.79127785279E+02	9.97326047151E-01	-1.31275266978E+00	1.00386144751E+00	6.46752531800E-01	5.57426310890E-04	9.60280851683E+01
7.78557114228E+10	8.39178655318E-04	1.91337804113E+01	9.94508562356E-01	-2.07856715909E-01	9.94116778601E-01	2.69532322955E+00	1.32715893367E-03	-7.99731242236E+01
7.78617234469E+10	5.33733369745E-04	3.43972132767E+00	1.00206031741E+00	-2.08209631390E+00	9.93847254323E-01	3.33006785613E+00	3.79947990297E-04	-8.48352498967E+01
7.78677354709E+10	1.38766548208E-04	-1.57889765822E+01	1.00564269086E+00	-2.62219085240E+00	9.95548229418E-01	2.69659551262E+00	1.06641367843E-04	1.21668303668E+02
7.78737474950E+10	3.59304073514E-04	-1.58168657337E+02	9.99262166768E-01	-1.33382149296E+00	1.00325775488E+00	1.24487969868E+00	2.20692520457E-04	-9.97137964520E+01
7.78797595190E+10	4.41111737341E-04	-1.69036713829E+02	9.98119020403E-01	-1.09303661446E+00	1.00573633641E+00	-1.63414527247E-01	2.89492495242E-04	7.40178040272E+01
7.78857715431E+10	3.87094849313E-04	-1.59077698654E+02	1.00147288158E+00	-1.76846962482E+00	1.00514999024E+00	3.41824805398E-01	1.36411501919E-03	1.01096626132E+02
7.78917835671E+10	8.66035079460E-05	-1.12158413167E+02	1.00322113998E+00	-2.14869017591E+00	1.00027593401E+00	1.15327740794E+00	3.12656790497E-04	-5.35915927477E+01
7.78977955912E+10	5.61895863959E-04	-1.16121551921E+00	9.91504232573E-01	4.33402215454E-01	9.95937314815E-01	2.80877798408E+00	9.20185814688E-04	-1.07285032154E+02
7.79038076152E+10	3.93042345902E-04	9.98779582660E+00	9.95661717589E-01	-3.82239655727E-01	9.97636432909E-01	1.40331508180E+00	1.02170709400E-03	-7.86425773020E+01
7.79098196393E+10	5.06325282452E-04	1.41216962801E-01	1.00153796979E+00	-1.65209721286E+00	9.89722416072E-01	4.03038468336E+00	1.46806576348E-03	-8.34697233629E+01
7.79158316633E+10	5.17765254307E-04	4.99824405950E+01	1.00406178455E+00	-2.24939046478E+00	1.00281498601E+00	7.94969474662E-01	7.99155294410E-04	9.68527204757E+01
7.79218436874E+10	4.25840415687E-04	-1.51907132183E+02	9.98042921093E-01	-1.08148507524E+00	1.00916277727E+00	-6.38425021335E-01	5.12808537059E-04	7.63437060026E+01
7.79278557114E+10	8.19620715817E-04	-1.41244049532E+02	9.98773632997E-01	-1.20084268553E+00	1.00069903637E+00	7.86857755081E-01	1.17266519199E-04	2.50326288312E+01
7.79338677355E+10	8.46763254258E-04	-1.44974161191E+02	1.00062279456E+00	-1.38988291062E+00	1.00737877895E+00	-1.11589924945E-01	5.81569089585E-04	9.18481214770E+01
7.79398797595E+10	3.19198842422E-04	-9.80781906621E+01	9.91063899109E-01	3.53218798779E-01	9.93485615935E-01	3.02848103261E+00	1.11414868820E-03	-9.95033280950E+01
7.79458917836E+10	1.17523172989E-04	-1.33531339101E+02	1.00322799198E+00	-2.22095958457E+00	9.94864864176E-01	2.82122883738E+00	1.01967496208E-03	-6.23722301725E+01
7.79519038076E+10	8.71584164824E-05	-1.09492236476E+02	9.96390302692E-01	-5.98599135470E-01	9.98366888387E-01	2.04511259548E+00	4.44467854241E-04	1.67950071030E+02
7.79579158317E+10	2.71511559202E-05	1.00230609086E+02	1.00244435931E+00	-1.74171936743E+00	1.00595943296E+00	3.17331898356E-01	2.98685062004E-04	3.19687341820E+01
7.79639278557E+10	1.66805423758E-04	-1.41667013237E+02	1.00100929604E+00	-1.64044032624E+00	1.00762644912E+00	-3.69100716043E-01	4.65614662772E-04	4.80988284275E+01
7.79699398798E+10	5.46114451325E-05	-6.11551653455E+01	9.96746392856E-01	-5.24268240491E-01	1.00452667730E+00	6.60411814193E-02	1.08881009605E-03	1.15808902063E+02
7.79759519038E+10	4.63262592748E-04	-1.30475552759E+02	1.00362297208E+00	-2.24350257022E+00	1.00335375440E+00	5.51709817479E-01	5.48487454479E-04	7.43247451923E+01
7.79819639279E+10	4.41130274904E-04	-1.25411221548E+02	1.00720360286E+00	-2.96665383562E+00	9.93436107781E-01	3.17901177245E+00	6.09145194486E-04	1.29961814002E+02
7.79879759519E+10	1.93332056475E-04	6.43894244101E+01	9.95802272808E-01	-5.12917913581E-01	9.98160407004E-01	2.03217150359E+00	4.65402240851E-04	-1.17875659133E+02
7.79939879760E+10	2.58270702107E-04	-1.36468281734E+02	9.99912124868E-01	-1.32945149464E+00	9.98916749309E-01	1.43399035708E+00	3.92749906673E-04	-6.33425838001E+01
7.80000000000E+10	7.78718863148E-05	-2.51120347346E+01	1.00126198840E+00	-1.42787940623E+00	1.00337513925E+00	4.53890494578E-01	2.82906069924E-04	5.41309262376E+01
