# Hz S RI R 50
! CMT, C4420, 21421029, 25.1.2/3
! Date: 8/5/2025 3:57:54 PM
! Data: Format (Calibration Info)
! Freq	S33:Re/Im(F2)	S43:Re/Im(F2)	S34:Re/Im(F2)	S44:Re/Im(F2)
7.50000000000E+10	1.63868631739E-01	2.07807882317E-01	2.34111053586E-05	6.59035052233E-05	5.10709664295E-05	-1.25508820595E-05	1.88787081241E-01	-9.87787740848E-02
7.50060120240E+10	1.66978451611E-01	2.05836973639E-01	8.34275613895E-06	2.00838213260E-05	4.96131942561E-05	-2.72370504802E-05	1.87726751025E-01	-1.00418114226E-01
7.50120240481E+10	1.75302173614E-01	2.03021195369E-01	-5.04350574938E-05	7.29384939549E-06	6.13093799815E-06	-3.77897522654E-05	1.86876882172E-01	-1.06140426501E-01
7.50180360721E+10	1.81189948334E-01	1.93393577500E-01	-3.61701643878E-05	-1.99622606334E-05	-2.24190140221E-05	-4.84581652727E-05	1.86769997137E-01	-9.70302573772E-02
7.50240480962E+10	1.89461828109E-01	1.85444884406E-01	-1.88121192052E-05	5.38115708605E-06	-2.31648888690E-05	-8.24875786894E-05	1.84832251294E-01	-1.04012207423E-01
7.50300601202E+10	1.82479455655E-01	1.90781280716E-01	-2.08912736226E-05	3.82582092985E-05	-3.70503752872E-05	-4.96679151807E-06	1.84914568660E-01	-1.02725728457E-01
7.50360721443E+10	1.92924394670E-01	1.83729866653E-01	-1.57079841620E-05	3.11850119597E-05	-1.10948891037E-05	6.31174195730E-05	1.84874046352E-01	-9.74743493580E-02
7.50420841683E+10	1.95787946312E-01	1.79986557314E-01	-2.28243215422E-06	1.88673682839E-05	-2.80706283891E-05	-2.42319430596E-06	1.83842249947E-01	-9.96125200798E-02
7.50480961924E+10	1.99349768981E-01	1.69123860996E-01	3.70545534787E-05	2.56940076976E-05	4.18423493748E-05	7.53695219003E-06	1.79891129605E-01	-1.03795418754E-01
7.50541082164E+10	1.97582211872E-01	1.67963020983E-01	2.99411761117E-05	4.52974741712E-05	3.41147259439E-07	3.08811412131E-05	1.80883369167E-01	-1.09017940109E-01
7.50601202405E+10	2.01347940913E-01	1.71056877328E-01	-1.31150219556E-05	4.56820255118E-05	1.70755085927E-05	-9.97694727523E-06	1.81978291646E-01	-1.09320449626E-01
7.50661322645E+10	2.13314863627E-01	1.61177579308E-01	4.31755757865E-05	2.61973454441E-05	6.33209468188E-05	5.46608809367E-05	1.79163500287E-01	-1.11472265677E-01
7.50721442886E+10	2.12712647187E-01	1.54903315328E-01	3.56894469292E-05	-3.00392903943E-05	1.61090043168E-05	6.75610843745E-05	1.79413930660E-01	-1.04192782627E-01
7.50781563126E+10	2.20265796238E-01	1.44725348521E-01	4.09033797871E-05	-8.18928976659E-06	8.77111349387E-05	-2.63790923895E-06	1.79039558341E-01	-1.03903300175E-01
7.50841683367E+10	2.17796170144E-01	1.42702788431E-01	8.05415874030E-05	-1.69520603883E-06	5.28427821498E-05	6.98094808879E-06	1.79765584559E-01	-1.07843447928E-01
7.50901803607E+10	2.22704778712E-01	1.40761656133E-01	3.51289761244E-05	-2.11831413529E-05	7.96923968156E-05	-4.12331424940E-05	1.79860730767E-01	-1.12195335953E-01
7.50961923848E+10	2.26521527269E-01	1.38764448523E-01	5.77780198915E-05	-1.57780782458E-05	4.24392597280E-05	-3.26565336428E-05	1.75471859781E-01	-1.14769118238E-01
7.51022044088E+10	2.21675746233E-01	1.38030741084E-01	7.47558432186E-05	-5.17596381525E-05	2.29721430516E-05	-4.10512124748E-05	1.76850910464E-01	-1.10645456079E-01
7.51082164329E+10	2.25654445376E-01	1.27911808872E-01	2.57831365562E-06	-9.26701861301E-05	3.73160085321E-05	-1.30178349130E-04	1.76153046286E-01	-1.11288313634E-01
7.51142284569E+10	2.24406841149E-01	1.27986750086E-01	-1.07959778883E-05	-3.01564218033E-05	-2.74517017468E-05	-5.70063651386E-05	1.75250530503E-01	-1.08253437932E-01
7.51202404810E+10	2.37386482910E-01	1.12800300363E-01	2.99799594409E-05	-3.61492100877E-05	-3.24523903074E-05	-4.13360924448E-05	1.75137559829E-01	-1.12061324654E-01
7.51262525050E+10	2.38577121873E-01	1.05027036571E-01	3.52445796023E-06	-7.15640638199E-05	-4.28865136902E-05	-9.99138149381E-05	1.72198365417E-01	-1.14688953576E-01
7.51322645291E+10	2.40566387697E-01	1.02759921813E-01	-9.67206210930E-05	-5.55824951921E-06	-1.06389922878E-04	-6.45050443839E-05	1.75113190367E-01	-1.07325632320E-01
7.51382765531E+10	2.34687869299E-01	1.09140299898E-01	-7.64937316862E-05	-1.37405144155E-05	3.31322903104E-06	-1.50989118505E-05	1.71830439005E-01	-1.12860722589E-01
7.51442885772E+10	2.37079550059E-01	1.03374740807E-01	-2.10767844295E-05	-1.65907283303E-05	-2.08810915572E-05	4.36414627982E-06	1.73454128672E-01	-1.16107637145E-01
7.51503006012E+10	2.39854339945E-01	9.54439242986E-02	-2.33284362596E-05	2.72474827074E-05	-4.49000345873E-05	7.14548145226E-05	1.70008674557E-01	-1.16285498591E-01
7.51563126253E+10	2.41745887972E-01	8.55011000850E-02	-4.16228119038E-05	1.04751485920E-06	1.26400325857E-05	7.51104673473E-06	1.71285959874E-01	-1.09979441755E-01
7.51623246493E+10	2.51451907166E-01	7.71264802047E-02	-6.94737327494E-05	-1.85005669475E-05	6.63283068146E-05	-2.65900426519E-05	1.70977693860E-01	-1.12439544112E-01
7.51683366733E+10	2.47262260214E-01	7.49179615464E-02	-3.13919337064E-06	-6.91773761203E-06	4.15770467889E-05	7.11966500835E-05	1.71700584128E-01	-1.16481979742E-01
7.51743486974E+10	2.57717389209E-01	6.50041961923E-02	-4.70295016647E-05	-5.10875650964E-05	-3.51353854872E-05	2.02308111590E-05	1.69869841040E-01	-1.15648174981E-01
7.51803607214E+10	2.54737259679E-01	6.41230671396E-02	-3.73816827150E-05	1.84915013842E-05	-1.54503084293E-05	6.30270265779E-05	1.67756718073E-01	-1.13900977761E-01
7.51863727455E+10	2.59337405461E-01	5.60777380189E-02	-2.12027480556E-06	-4.02288976056E-05	-4.31600141306E-05	-8.89990270170E-06	1.68547445545E-01	-1.14190409430E-01
7.51923847695E+10	2.53214109337E-01	5.35416600767E-02	-4.82446907558E-05	3.14082614503E-05	4.39628594267E-05	3.05040022478E-06	1.68958800749E-01	-1.20175769191E-01
7.51983967936E+10	2.53628820205E-01	5.68374290830E-02	1.91086610941E-05	-2.11042532179E-06	1.85041614641E-05	1.88834217061E-05	1.68706755611E-01	-1.18889718421E-01
7.52044088176E+10	2.64498539196E-01	3.93454328326E-02	9.11080673674E-06	-2.23330971708E-05	3.83395194426E-05	-2.94118965414E-05	1.66854908806E-01	-1.18966925876E-01
7.52104208417E+10	2.61017691633E-01	3.41257567899E-02	-3.18999717418E-05	1.44321464452E-05	4.43817207749E-05	3.73161647151E-06	1.65573266438E-01	-1.16698237093E-01
7.52164328657E+10	2.64180915831E-01	2.86262290836E-02	-1.01036831877E-05	2.57332865935E-05	3.42631826382E-05	-1.85171793463E-05	1.65125355397E-01	-1.21457517683E-01
7.52224448898E+10	2.60090187621E-01	3.01944013600E-02	-1.27690108724E-05	2.79128760216E-05	2.23958831897E-05	-1.38294172310E-05	1.64414821682E-01	-1.20510313318E-01
7.52284569138E+10	2.69305650411E-01	1.78193179572E-02	-2.98066614424E-05	8.16751984775E-06	-4.23761358219E-06	5.01994299396E-05	1.62473669067E-01	-1.21426134538E-01
7.52344689379E+10	2.65145973981E-01	8.22587536151E-03	1.43667359689E-05	3.94690515444E-05	-1.68745209976E-05	5.14729954353E-05	1.61515226732E-01	-1.24841767323E-01
7.52404809619E+10	2.67440631762E-01	1.30446210137E-02	-4.25843314260E-05	1.26569489837E-06	-4.31698916119E-06	9.56220070864E-06	1.63165196260E-01	-1.19768129264E-01
7.52464929860E+10	2.68578186329E-01	-5.68571727040E-04	4.91879711679E-05	4.67017192847E-05	1.01578071118E-04	4.74303659165E-05	1.62472390827E-01	-1.19468174833E-01
7.52525050100E+10	2.61302657297E-01	3.10782259021E-03	4.14448691868E-05	3.42150055872E-05	7.65787019756E-05	1.16581694186E-05	1.59367486251E-01	-1.25182188784E-01
7.52585170341E+10	2.64016570429E-01	-5.13351224099E-03	6.64836748526E-05	-7.95474429310E-06	1.10568396930E-04	-3.15234190117E-05	1.60111205573E-01	-1.27697695064E-01
7.52645290581E+10	2.69022488767E-01	-1.44292302411E-02	6.52737123661E-05	1.34408312475E-05	5.77187289247E-06	-4.13269933318E-05	1.60348323840E-01	-1.27207821259E-01
7.52705410822E+10	2.66193687546E-01	-1.85023762212E-02	7.96203056683E-06	2.21899336718E-05	1.51429287948E-05	1.37367556468E-05	1.59234470579E-01	-1.19286578309E-01
7.52765531062E+10	2.65417472925E-01	-2.62598171352E-02	7.49240598230E-05	-1.88765457282E-05	7.71998765689E-05	-2.21791527496E-05	1.56749089709E-01	-1.25653529948E-01
7.52825651303E+10	2.62529711002E-01	-3.32933732971E-02	4.90110044897E-05	-6.00541809470E-05	3.06222013750E-05	-1.05380590323E-04	1.57036911430E-01	-1.25333612686E-01
7.52885771543E+10	2.64888445031E-01	-3.27394174497E-02	1.85116999489E-06	-5.51539868239E-05	-3.81068124474E-05	-6.51981283139E-05	1.57596977094E-01	-1.24838560849E-01
7.52945891784E+10	2.69008182192E-01	-4.55453348343E-02	2.54788316170E-05	-9.74830848347E-05	-3.85508815987E-05	-1.02586404675E-04	1.57519326359E-01	-1.25802314496E-01
7.53006012024E+10	2.67603654954E-01	-5.55383904062E-02	-4.16446723371E-05	-3.91963935419E-05	-8.58913889879E-05	-3.71016131667E-05	1.55687635869E-01	-1.28364163003E-01
7.53066132265E+10	2.61128014878E-01	-5.03699084906E-02	-3.81068817459E-05	-8.89010201749E-06	-1.05079931256E-04	-4.02204486984E-05	1.54289372989E-01	-1.29436222084E-01
7.53126252505E+10	2.60372019705E-01	-5.97317226641E-02	-4.71960362154E-06	-4.76906807112E-06	-9.20904727379E-05	-3.90338140146E-05	1.52071301939E-01	-1.25834477465E-01
7.53186372745E+10	2.64407393126E-01	-7.68600493517E-02	-7.16766349911E-05	-4.07184121563E-05	-4.03928488530E-05	1.28296423862E-05	1.52207136368E-01	-1.28880849283E-01
7.53246492986E+10	2.63946500223E-01	-7.88361303647E-02	-5.56854923572E-05	-2.58474910157E-05	1.98768077066E-05	3.18219752984E-05	1.53734692996E-01	-1.29342091310E-01
7.53306613226E+10	2.60833630117E-01	-7.52193429594E-02	-4.52242282225E-05	-3.50316338457E-05	-3.80982919404E-05	-3.65544044086E-05	1.53982910792E-01	-1.28164517309E-01
7.53366733467E+10	2.56457985735E-01	-9.32803332202E-02	-5.91986784734E-05	2.81404530844E-06	-9.55688085448E-05	-4.55894240140E-06	1.49090142553E-01	-1.30208615367E-01
7.53426853707E+10	2.56620856580E-01	-9.73191431070E-02	2.41691719096E-05	1.53235436844E-06	-9.41735749012E-06	6.78166752522E-06	1.50493043538E-01	-1.30215951261E-01
7.53486973948E+10	2.60098031502E-01	-1.13778786123E-01	4.31896617209E-05	-1.11106793132E-05	2.24407419104E-05	-1.09455107301E-05	1.49857972665E-01	-1.31826140400E-01
7.53547094188E+10	2.54269513601E-01	-1.03812205106E-01	4.94311612191E-05	3.29373083509E-05	-2.04599816873E-05	3.01598007005E-05	1.49986465889E-01	-1.29576360250E-01
7.53607214429E+10	2.52318441313E-01	-1.10282476254E-01	2.03485483196E-05	-1.86420508305E-05	5.80156574366E-05	-2.34462320441E-05	1.47947051380E-01	-1.33710679576E-01
7.53667334669E+10	2.49712585529E-01	-1.08042271857E-01	8.80404513066E-07	-6.43283781062E-05	1.01822021336E-05	-4.24916272937E-05	1.46952094289E-01	-1.31426272472E-01
7.53727454910E+10	2.48926701161E-01	-1.33230994792E-01	-5.59687006841E-05	-8.08547664106E-05	2.82023889054E-05	-8.66597576330E-05	1.47322885906E-01	-1.31367314085E-01
7.53787575150E+10	2.42399133204E-01	-1.44742268753E-01	-2.52632681928E-05	-2.58418414370E-05	-3.35277501332E-05	-4.81250747991E-05	1.47155680512E-01	-1.28767974080E-01
7.53847695391E+10	2.41993446177E-01	-1.45733484763E-01	-1.75248391419E-05	2.96403115560E-05	-7.37886750902E-05	5.34918980798E-05	1.45941658017E-01	-1.32362543519E-01
7.53907815631E+10	2.39228404453E-01	-1.46616868487E-01	-8.33550995728E-05	-2.76279726447E-05	1.77618236584E-05	2.48615743290E-05	1.43896877093E-01	-1.34004169402E-01
7.53967935872E+10	2.37085730895E-01	-1.53575601281E-01	1.12817011537E-06	-2.66868944298E-05	-1.56345155853E-05	1.14130522799E-05	1.46677431346E-01	-1.31411794515E-01
7.54028056112E+10	2.32047290190E-01	-1.64703095076E-01	-1.92158158380E-05	9.40068400330E-05	5.05738562221E-05	1.96760593696E-06	1.45714633562E-01	-1.31910126051E-01
7.54088176353E+10	2.28294666454E-01	-1.59165447580E-01	-7.74850179109E-05	1.70840690210E-05	-7.16615200206E-05	3.82179800540E-05	1.43399631988E-01	-1.33069256640E-01
7.54148296593E+10	2.24951763137E-01	-1.78329239456E-01	-2.91159193466E-05	4.40609879315E-05	-1.24938077279E-05	1.60589134201E-05	1.39201751625E-01	-1.35924613921E-01
7.54208416834E+10	2.23156787313E-01	-1.92468087072E-01	-8.13601365061E-06	1.02003285163E-04	-2.49683364309E-05	1.14150500403E-04	1.41962067338E-01	-1.36625514669E-01
7.54268537074E+10	2.18090316211E-01	-1.93027394541E-01	-1.19298840172E-06	1.07687884861E-04	6.19222670691E-05	3.06939475977E-05	1.40910450636E-01	-1.38817605951E-01
7.54328657315E+10	2.11228608989E-01	-1.95115121025E-01	2.18169358708E-05	4.24568118357E-05	8.24909320757E-05	-8.39810424284E-06	1.41808957819E-01	-1.33367896479E-01
7.54388777555E+10	2.07114113908E-01	-1.98004718430E-01	7.75643470498E-05	9.17038655385E-05	1.14844667126E-04	2.22054342909E-06	1.39601085914E-01	-1.32941532074E-01
7.54448897796E+10	2.02514796574E-01	-1.99589398765E-01	4.07348994598E-05	6.86426757941E-06	9.21746952211E-05	1.14217967999E-05	1.37533942600E-01	-1.39409001859E-01
7.54509018036E+10	1.97552696757E-01	-2.23795289549E-01	1.33092576053E-04	4.80511983852E-05	7.36821312207E-05	-4.78391337226E-05	1.38373754750E-01	-1.36069576670E-01
7.54569138277E+10	1.92974354119E-01	-2.22629278291E-01	4.14919175164E-06	-7.28740956141E-05	5.43907067074E-05	-1.80044557902E-05	1.36291868267E-01	-1.38527956311E-01
7.54629258517E+10	1.86571802251E-01	-2.35372942279E-01	-6.76890555815E-06	2.54999210702E-06	7.58728844488E-06	-3.36450909327E-05	1.36861648679E-01	-1.39399373789E-01
7.54689378758E+10	1.75321145540E-01	-2.43835537853E-01	2.58970792423E-05	-2.85519296958E-06	-1.65277362651E-05	-1.26794731362E-04	1.36372459871E-01	-1.39944464015E-01
7.54749498998E+10	1.74465961872E-01	-2.44768151966E-01	-3.99713975811E-05	-3.35272522092E-05	-3.09584015293E-05	1.65428958930E-05	1.35711874453E-01	-1.39799906810E-01
7.54809619238E+10	1.69499101401E-01	-2.47730689552E-01	4.67158527217E-06	3.27990704792E-05	-1.27501596798E-05	-9.75459407037E-06	1.36358109196E-01	-1.36281800949E-01
7.54869739479E+10	1.64920045631E-01	-2.52952737824E-01	-4.05936776053E-05	-2.92745175880E-05	-2.22901526281E-05	-1.01668414567E-06	1.31009053197E-01	-1.43569123718E-01
7.54929859719E+10	1.58911325264E-01	-2.52213434761E-01	1.41799196339E-05	-3.71947633780E-05	-8.23706800956E-05	-1.52493499032E-06	1.31524446524E-01	-1.45517384966E-01
7.54989979960E+10	1.50225498207E-01	-2.56033072792E-01	2.22427754858E-05	-3.99715750692E-05	-6.76009940505E-05	-3.93058766607E-06	1.33825647669E-01	-1.39411936482E-01
7.55050100200E+10	1.38682179583E-01	-2.72781464371E-01	-8.69472705335E-06	2.01890586159E-05	-5.00222746863E-05	1.03221124910E-04	1.33227335100E-01	-1.41364076760E-01
7.55110220441E+10	1.38787228696E-01	-2.70207299492E-01	1.10599175940E-05	1.86271106930E-05	-3.31497106766E-05	8.36708108817E-05	1.29283571129E-01	-1.44860654980E-01
7.55170340681E+10	1.32127748147E-01	-2.68963776931E-01	4.68820615626E-05	6.52155794945E-05	1.51222973946E-05	8.89353813264E-05	1.28721077624E-01	-1.46432250978E-01
7.55230460922E+10	1.13434963688E-01	-2.87733694031E-01	1.20187082928E-04	-1.01978980920E-05	3.29514025704E-05	2.97001550844E-05	1.29518363889E-01	-1.43811940454E-01
7.55290581162E+10	1.02100098693E-01	-2.94756987400E-01	1.39923110504E-04	-3.14152835017E-05	9.82038896283E-05	3.98969922209E-05	1.30625209420E-01	-1.40693987282E-01
7.55350701403E+10	9.19326728870E-02	-3.04193074611E-01	3.26262296889E-06	-8.29490251336E-05	2.06183086136E-05	-1.71639085520E-05	1.28114493885E-01	-1.40164110279E-01
7.55410821643E+10	8.39448074541E-02	-3.05962438291E-01	-3.82863904398E-05	-8.49539523174E-05	3.92953403786E-05	-4.10705092357E-05	1.26639575129E-01	-1.45835909445E-01
7.55470941884E+10	7.61917355647E-02	-3.08967320885E-01	4.67341368294E-07	-1.34766712723E-04	9.65443423066E-06	-3.02328359200E-05	1.27323961727E-01	-1.43076834459E-01
7.55531062124E+10	6.95061070812E-02	-3.09804178064E-01	-6.70098105759E-05	-1.19660655975E-04	-9.84213435925E-05	-4.27673284126E-05	1.25348474550E-01	-1.46882134844E-01
7.55591182365E+10	5.92885507987E-02	-3.09020523465E-01	-1.11333015844E-04	-5.08471101317E-05	-1.29617988588E-04	2.86623460668E-05	1.24595064112E-01	-1.43291607414E-01
7.55651302605E+10	5.60605357563E-02	-3.07605668246E-01	-5.26515700505E-05	-5.54188961097E-05	-4.41321747813E-06	2.97166783127E-05	1.24684785381E-01	-1.44062330856E-01
7.55711422846E+10	3.90966089756E-02	-3.19126060562E-01	-3.96655728881E-05	-2.71384510486E-06	-5.29965855008E-05	-4.09935291500E-05	1.22991900894E-01	-1.49190394281E-01
7.55771543086E+10	3.29855788082E-02	-3.15743833382E-01	-3.41685678619E-05	7.63958360450E-05	-8.38555569478E-05	5.50276146790E-05	1.23401605273E-01	-1.46151611232E-01
7.55831663327E+10	1.42073030457E-02	-3.18050102751E-01	-6.04657887752E-05	6.63240615082E-05	-4.08050778703E-05	3.80770233799E-05	1.21823427563E-01	-1.44989524659E-01
7.55891783567E+10	4.35451336958E-04	-3.24183609055E-01	1.45321612915E-05	4.15374555221E-05	-1.97675384403E-05	5.66909121103E-05	1.18781059796E-01	-1.49726812941E-01
7.55951903808E+10	-1.77313910892E-02	-3.27210582694E-01	2.10642266819E-05	9.11944692370E-05	2.64074119172E-05	5.76599550913E-05	1.17737734036E-01	-1.53088059654E-01
7.56012024048E+10	-2.50636222613E-02	-3.29866951226E-01	-2.15206702397E-07	-1.64620710626E-06	7.58445031206E-05	5.08511878608E-05	1.22138534276E-01	-1.45340763495E-01
7.56072144289E+10	-2.68147144755E-02	-3.23738424917E-01	-5.40773893034E-05	3.41360275255E-05	1.15428738797E-04	4.25807767602E-05	1.15635669061E-01	-1.49611124705E-01
7.56132264529E+10	-2.97540977735E-02	-3.20345690196E-01	2.66164289879E-05	4.19650777355E-06	6.50301268550E-05	-4.56285447896E-05	1.14456961225E-01	-1.53519533805E-01
7.56192384770E+10	-5.07305729528E-02	-3.20249331041E-01	1.21397692996E-04	3.46749956217E-05	7.78053698508E-05	-8.40589289810E-05	1.16477360421E-01	-1.50242866023E-01
7.56252505010E+10	-6.11563475084E-02	-3.20005973342E-01	1.85091030959E-05	-8.15317195422E-05	8.09777805585E-05	-5.70834900383E-05	1.15267151098E-01	-1.52399265079E-01
7.56312625251E+10	-7.97639440339E-02	-3.21284916763E-01	-6.09263758937E-07	-9.50975817113E-05	3.16357380308E-05	2.37781119840E-05	1.14997530327E-01	-1.49592994460E-01
7.56372745491E+10	-7.92456275916E-02	-3.15558393255E-01	-2.18214793621E-05	-1.14193118063E-04	-2.65863676285E-06	-1.17288861903E-04	1.16751525588E-01	-1.47593076832E-01
7.56432865731E+10	-9.55425471207E-02	-3.10457829950E-01	-8.46863856075E-05	-9.16071775162E-05	-1.06429179872E-04	-6.05739158358E-05	1.14217930141E-01	-1.52408505143E-01
7.56492985972E+10	-1.17953582364E-01	-3.08174766790E-01	-4.74775663359E-05	-4.40479244686E-05	-8.61875979917E-05	-1.96740761947E-05	1.10038642374E-01	-1.54123858603E-01
7.56553106212E+10	-1.27201290520E-01	-3.05128658763E-01	-5.76389656488E-05	4.72388652737E-05	-7.66573610783E-05	3.37709878525E-06	1.08590369560E-01	-1.54536815386E-01
7.56613226453E+10	-1.27939631669E-01	-3.02273084578E-01	-1.27710555138E-04	2.31226353646E-05	-1.09084181763E-04	6.62328136753E-06	1.08059274608E-01	-1.54376469455E-01
7.56673346693E+10	-1.48057218184E-01	-2.94288155253E-01	-9.22801490214E-05	1.26096266813E-04	-4.47751258578E-05	6.13023449878E-05	1.09194969812E-01	-1.54136850909E-01
7.56733466934E+10	-1.61704923033E-01	-2.85916215225E-01	-1.11022413540E-05	1.79243639625E-04	1.06684982585E-06	7.94316277145E-05	1.09907030642E-01	-1.51511883045E-01
7.56793587174E+10	-1.69434128930E-01	-2.79855876735E-01	3.81649765763E-05	1.47266310310E-04	3.49765293447E-05	7.09099903213E-05	1.07330220765E-01	-1.51267692004E-01
7.56853707415E+10	-1.71657841328E-01	-2.74928369881E-01	1.37656206584E-04	1.23219731448E-04	7.64696174428E-05	6.62500163042E-05	1.05605135164E-01	-1.57106122789E-01
7.56913827655E+10	-2.03326857767E-01	-2.61690821060E-01	1.64454619477E-04	-1.56229267833E-05	4.26289165432E-05	1.95714279467E-05	1.06086543207E-01	-1.53676771289E-01
7.56973947896E+10	-1.93391881600E-01	-2.60854114132E-01	1.51409517099E-04	-2.47060393437E-05	6.21957618556E-05	4.96619018917E-06	1.03744155929E-01	-1.54120001194E-01
7.57034068136E+10	-2.12032603449E-01	-2.50067822831E-01	7.62676185033E-05	-1.05535394559E-04	8.69966620895E-05	-5.33130585250E-05	1.05489157476E-01	-1.51081865568E-01
7.57094188377E+10	-2.11310860277E-01	-2.43389550321E-01	5.49210361112E-05	-9.71044491471E-05	1.47353373380E-05	-2.41149257600E-05	1.04324075632E-01	-1.52990966608E-01
7.57154308617E+10	-2.29320034493E-01	-2.30215701460E-01	-3.64820318781E-05	-1.31539627625E-04	-1.39368495320E-06	-1.03393358209E-04	1.04142112725E-01	-1.54144804819E-01
7.57214428858E+10	-2.34140794176E-01	-2.22651362710E-01	-2.36496872517E-05	-9.06892467049E-05	-6.84573442848E-05	-7.68768400884E-05	1.03124071483E-01	-1.56650608001E-01
7.57274549098E+10	-2.38032735103E-01	-2.17818187962E-01	-9.47513477591E-05	-7.67717169716E-06	-1.00102917725E-04	-8.33333539945E-05	9.90961051524E-02	-1.56450365087E-01
7.57334669339E+10	-2.52969512142E-01	-1.96727981591E-01	-1.31296459987E-04	7.28635992687E-06	-9.73685315858E-05	-3.05630460245E-05	9.55544431377E-02	-1.61224108434E-01
7.57394789579E+10	-2.59193558923E-01	-1.84404577679E-01	-1.29751698796E-04	1.32657027506E-05	-8.77824352368E-05	-2.15155390294E-05	1.01088692799E-01	-1.54565125497E-01
7.57454909820E+10	-2.59392485840E-01	-1.81352341197E-01	-8.73836823294E-05	1.38104356568E-04	-1.43629028997E-04	5.60243662959E-05	1.00877769441E-01	-1.52183101752E-01
7.57515030060E+10	-2.66301766702E-01	-1.71686541046E-01	-7.61627890094E-05	9.65545408157E-05	-5.77738375365E-05	1.40436887951E-04	9.82809492313E-02	-1.58685938311E-01
7.57575150301E+10	-2.69209976507E-01	-1.61033503138E-01	-4.24705308863E-05	1.33162658571E-04	1.59930117542E-05	1.43472919054E-04	9.56454623187E-02	-1.57449071300E-01
7.57635270541E+10	-2.72761166177E-01	-1.47416908622E-01	-1.54029128178E-05	6.71723202624E-05	4.62278037495E-05	5.01751359876E-05	9.27572809854E-02	-1.56732738890E-01
7.57695390782E+10	-2.80858633419E-01	-1.30715681043E-01	9.63173558418E-05	1.62205368395E-04	4.77834094572E-05	3.28491799301E-05	9.27433403147E-02	-1.62318831111E-01
7.57755511022E+10	-2.84739383431E-01	-1.20010343606E-01	1.44733679041E-04	5.31402781658E-05	1.37420615783E-04	5.47439535514E-05	9.42244839900E-02	-1.59008828425E-01
7.57815631263E+10	-2.83343325103E-01	-1.14199480281E-01	1.60616220387E-04	1.12704387153E-05	6.49777508122E-05	-3.32468440327E-05	9.46547992821E-02	-1.56193400928E-01
7.57875751503E+10	-2.84887793767E-01	-1.02432780787E-01	1.35695906407E-04	-5.13683321136E-05	1.13701324520E-04	-1.02087379727E-05	8.97995125386E-02	-1.58023511317E-01
7.57935871743E+10	-2.91974349609E-01	-8.92745424987E-02	-1.67088488147E-05	-9.04649516971E-05	8.20284677838E-05	-7.17978294258E-05	9.25713285661E-02	-1.57392582087E-01
7.57995991984E+10	-2.89623487176E-01	-7.42849329480E-02	2.85726580833E-05	-7.73645800379E-05	2.44519324284E-05	-5.18377850778E-05	8.80592320816E-02	-1.60418018230E-01
7.58056112224E+10	-2.91159963457E-01	-7.35217795659E-02	-4.36958487802E-05	-5.85631439276E-05	-7.40986742680E-06	-8.55343330109E-05	9.08569740425E-02	-1.57158871887E-01
7.58116232465E+10	-2.94071320244E-01	-5.20817977452E-02	-2.74349179797E-05	-5.04987477257E-05	-5.24549153004E-05	-5.89357400092E-05	8.49561367747E-02	-1.59803899193E-01
7.58176352705E+10	-2.91273311517E-01	-4.29858984512E-02	-4.68295227913E-05	-2.85994804231E-05	-8.57857437904E-05	-3.93441110668E-05	8.47515495066E-02	-1.59066563185E-01
7.58236472946E+10	-2.92902783487E-01	-2.32171721998E-02	-3.63586722522E-05	3.71814477491E-05	-3.71771700634E-05	-3.39410462492E-06	8.78301104613E-02	-1.57808496049E-01
7.58296593186E+10	-2.90751013770E-01	-8.92884345317E-03	-1.06307294909E-04	4.61966115034E-05	-2.20548391457E-06	1.93277384334E-05	8.54709529223E-02	-1.60313853052E-01
7.58356713427E+10	-2.89361510201E-01	-3.91487874763E-03	3.10824700621E-05	-3.10734180144E-05	-1.32298356380E-05	2.55094584709E-05	8.66906111013E-02	-1.56905376964E-01
7.58416833667E+10	-2.85829288897E-01	-1.10281448534E-02	-2.40695158753E-05	8.25512395379E-05	1.95599171867E-06	3.45210160198E-05	8.32207707198E-02	-1.57781880069E-01
7.58476953908E+10	-2.82226260256E-01	2.35407480262E-02	-3.80198546531E-06	5.98594011128E-05	-1.76426218077E-05	1.26322858361E-04	7.89170451431E-02	-1.59444503243E-01
7.58537074148E+10	-2.81974017969E-01	1.89658987737E-02	1.30091427068E-04	-4.16584161973E-05	6.45287086605E-05	5.99188757914E-05	7.97579886890E-02	-1.62391605455E-01
7.58597194389E+10	-2.78790244258E-01	2.72955940585E-02	1.56829820844E-04	-9.19942341817E-06	5.46925965826E-05	4.73971785643E-05	7.70373422870E-02	-1.61299625550E-01
7.58657314629E+10	-2.74336322953E-01	3.81725741136E-02	-8.13554243055E-06	-3.49186748447E-05	5.03699185214E-05	1.51404712550E-05	8.33282230879E-02	-1.58143316168E-01
7.58717434870E+10	-2.67038528341E-01	5.59127332419E-02	4.30505639300E-05	-6.52805143162E-05	5.09865439336E-05	-7.39836070317E-06	7.82627424233E-02	-1.61169541742E-01
7.58777555110E+10	-2.65580820421E-01	5.81010466648E-02	-2.97853062561E-05	-1.26870746843E-04	-1.89269609467E-05	-1.40728711850E-04	7.46674440226E-02	-1.64399663591E-01
7.58837675351E+10	-2.55299768722E-01	7.87050587443E-02	-4.32875849051E-05	-1.01515059613E-04	-1.14136092984E-04	-1.03904917846E-04	7.67321587190E-02	-1.59744821337E-01
7.58897795591E+10	-2.54376734608E-01	8.14396273982E-02	-1.38763011621E-04	-4.85108993469E-05	-2.34750026045E-05	-4.82411279926E-05	7.68185976779E-02	-1.58423896568E-01
7.58957915832E+10	-2.50165985746E-01	8.62805659356E-02	-8.52391142890E-05	-3.65908163501E-05	-5.47419446731E-05	-2.44292894942E-05	7.44796630032E-02	-1.57972632340E-01
7.59018036072E+10	-2.42168441488E-01	1.01362579650E-01	-6.55995295484E-05	9.45607965608E-05	-4.77996859630E-05	4.75405422879E-05	7.00312072242E-02	-1.62169145521E-01
7.59078156313E+10	-2.38032220438E-01	1.04030015740E-01	-6.55541040730E-05	1.21698193936E-05	-6.56207555160E-05	7.74891960084E-05	6.94699281757E-02	-1.63172149925E-01
7.59138276553E+10	-2.30265701305E-01	1.13439040367E-01	-6.85133055936E-05	1.19983798183E-04	-6.88689495534E-05	5.66222708635E-05	6.66264512762E-02	-1.63655996202E-01
7.59198396794E+10	-2.32261968469E-01	1.10774262216E-01	-4.15434683030E-05	1.70387090545E-04	-9.96663067652E-05	9.76319222922E-05	7.06469486951E-02	-1.60580049040E-01
7.59258517034E+10	-2.20559893303E-01	1.25803130580E-01	8.94890942017E-05	4.69423705298E-05	6.87337223266E-06	1.25068031742E-04	7.27074490326E-02	-1.59539305078E-01
7.59318637275E+10	-2.11909132835E-01	1.33937351391E-01	7.88405542568E-05	1.09244629046E-04	2.73747100559E-05	1.20460402312E-04	6.89165892959E-02	-1.62519664280E-01
7.59378757515E+10	-2.01425395501E-01	1.41299054926E-01	9.98359262398E-05	9.11921685981E-06	2.05317841969E-05	4.38334838228E-05	6.56039718599E-02	-1.62306843267E-01
7.59438877756E+10	-2.01353691851E-01	1.42458663508E-01	1.03192931989E-04	2.86322735701E-05	6.10177115929E-05	4.58509072986E-05	6.74589324202E-02	-1.61970434209E-01
7.59498997996E+10	-1.96302508970E-01	1.46110020052E-01	6.69943146351E-05	-4.78865176323E-05	6.91798645454E-05	7.86832748052E-05	6.63861119234E-02	-1.60532586783E-01
7.59559118236E+10	-1.93872192418E-01	1.44238227276E-01	1.21844108709E-04	-3.41854658490E-06	1.03760599941E-04	-9.33221995345E-05	6.33458175696E-02	-1.62079652022E-01
7.59619238477E+10	-1.80809001909E-01	1.53761242427E-01	2.25519412170E-05	-8.74955463469E-05	5.57587952224E-05	-2.30576377094E-05	6.13528231315E-02	-1.61494371504E-01
7.59679358717E+10	-1.77268918451E-01	1.55980299840E-01	4.56667592005E-06	-8.78176428606E-05	6.46694760017E-05	-1.09118732805E-04	6.25357919910E-02	-1.59328325109E-01
7.59739478958E+10	-1.74296118533E-01	1.59661750161E-01	-6.48265946541E-05	4.36913255925E-05	-2.93371866880E-05	-8.58380183817E-05	6.28004644218E-02	-1.59850496130E-01
7.59799599198E+10	-1.59484251583E-01	1.71210454361E-01	-6.64083331770E-05	-1.89766223612E-05	-6.85904922155E-05	-8.99026462975E-05	6.33288448570E-02	-1.60410500939E-01
7.59859719439E+10	-1.48882023210E-01	1.73191382343E-01	-6.85615539624E-05	-1.54137122257E-05	-1.08095105038E-04	-2.43895987071E-05	6.08091080682E-02	-1.59501310867E-01
7.59919839679E+10	-1.42065276586E-01	1.80530063369E-01	6.62684378736E-05	-6.07421550043E-06	-2.89023721287E-05	2.37745521111E-05	5.64594620445E-02	-1.63088335819E-01
7.59979959920E+10	-1.39545489117E-01	1.80659677078E-01	-8.98052986051E-06	7.85641803488E-06	-1.34346911476E-05	4.34627014612E-05	5.58598155594E-02	-1.60698318987E-01
7.60040080160E+10	-1.35531597102E-01	1.78315193202E-01	8.84683461409E-05	1.72552907599E-05	-2.33160665029E-05	1.27002144318E-05	5.63806450529E-02	-1.62522906732E-01
7.60100200401E+10	-1.25769419081E-01	1.84041328387E-01	-7.28660884044E-06	-1.12692684388E-05	2.15044869396E-05	-1.29396009721E-06	5.70183077278E-02	-1.58938972375E-01
7.60160320641E+10	-1.23341884423E-01	1.82668595628E-01	7.11924837447E-05	6.74721093534E-05	-3.11347544304E-06	7.69194139846E-05	5.67313545660E-02	-1.61352521759E-01
7.60220440882E+10	-1.16935100721E-01	1.85561994134E-01	1.07891267868E-04	-2.54287900879E-05	-2.45884041584E-05	1.09643320507E-05	5.86115915752E-02	-1.58841839299E-01
7.60280561122E+10	-1.03207534673E-01	1.92295690148E-01	3.26092954334E-05	-1.65167192176E-05	-9.40523230770E-06	-4.17341784056E-05	5.44728806446E-02	-1.58532649294E-01
7.60340681363E+10	-1.06123137049E-01	1.90796522789E-01	7.69098875766E-05	-3.07691307016E-05	3.73061082812E-05	-2.23810754712E-05	5.58361784012E-02	-1.56387036871E-01
7.60400801603E+10	-1.00001541280E-01	1.90537401001E-01	-3.21703223016E-05	1.47277780372E-05	-1.98679973205E-05	-1.95562350663E-05	5.00286160458E-02	-1.61257557093E-01
7.60460921844E+10	-9.96159212305E-02	1.88426721242E-01	4.64016914678E-05	-1.36107919617E-04	2.75712933752E-05	-5.92919210939E-05	4.96583999790E-02	-1.61279716559E-01
7.60521042084E+10	-8.58701472151E-02	1.92356936776E-01	7.10035022455E-05	-4.14221074923E-05	1.93655034089E-06	-6.30354161867E-05	4.99035741822E-02	-1.59901069523E-01
7.60581162325E+10	-7.41922442824E-02	1.96458961030E-01	-8.10481030608E-05	-7.52394545244E-05	-8.62360595573E-05	-7.93038873680E-05	5.25060540581E-02	-1.58503523451E-01
7.60641282565E+10	-6.80371396158E-02	2.01040769163E-01	-7.18797090023E-05	-4.02776703271E-05	-8.35353118011E-05	-4.53386777269E-05	4.78092583307E-02	-1.59317053753E-01
7.60701402806E+10	-7.52840310572E-02	1.93737723119E-01	-7.62339665820E-05	4.91629463337E-05	-9.18256785294E-05	-3.53883264638E-05	4.90207789867E-02	-1.58338825765E-01
7.60761523046E+10	-5.35038706418E-02	1.99377974002E-01	-1.51313362813E-05	1.67089435079E-05	2.52858984839E-05	9.50016297261E-05	4.80173235236E-02	-1.58622575382E-01
7.60821643287E+10	-5.51288367271E-02	2.00144222567E-01	4.26890785991E-05	3.85670241544E-05	-7.45159719598E-05	6.88969426707E-05	4.92632517480E-02	-1.57010615601E-01
7.60881763527E+10	-5.35788757983E-02	1.97965976785E-01	1.07785392872E-04	6.35804174352E-05	1.20390109952E-05	7.73080107085E-05	4.46236484019E-02	-1.59685669647E-01
7.60941883768E+10	-4.17465187137E-02	1.96661616931E-01	8.50951842442E-05	9.72163675810E-05	1.69682620747E-05	-2.33111039781E-07	4.64330081261E-02	-1.57276989543E-01
7.61002004008E+10	-3.45103716151E-02	2.00914874408E-01	3.38378880041E-05	1.23414880328E-05	2.94504337131E-05	3.09308929434E-05	4.40726743025E-02	-1.58356160075E-01
7.61062124248E+10	-2.76091851426E-02	2.02695136556E-01	7.38244653781E-05	-7.17426359219E-05	7.17289043273E-05	1.25433800842E-05	4.77764275010E-02	-1.54763252242E-01
7.61122244489E+10	-1.87635187362E-02	1.96875841564E-01	9.17993986192E-05	-6.87408632225E-05	6.71112920828E-05	4.84349963905E-05	4.29221663275E-02	-1.56650645178E-01
7.61182364729E+10	-1.44805691818E-02	1.99597134129E-01	1.93127519862E-05	-5.33380641056E-05	7.14358064165E-05	-1.63553114769E-05	3.97696283641E-02	-1.58711032143E-01
7.61242484970E+10	-2.00651722766E-02	1.96201907850E-01	8.15373343428E-05	1.17708713790E-05	6.25083065137E-05	4.83046523663E-06	3.88358844609E-02	-1.59163971945E-01
7.61302605210E+10	-7.29928806157E-03	1.97461932053E-01	3.06958521732E-05	-1.97925893550E-07	-4.82579655262E-05	-6.54628919416E-05	4.21816734513E-02	-1.55452853039E-01
7.61362725451E+10	3.47485935141E-03	1.95091761925E-01	1.76604633370E-06	-4.11785375385E-05	4.11415559684E-05	-8.97970018045E-05	3.99661556785E-02	-1.55528909997E-01
7.61422845691E+10	1.11015515593E-02	1.95627520383E-01	2.72149592856E-05	-4.02580463049E-05	-3.26331175004E-05	-6.03856478460E-05	4.04091481307E-02	-1.54321949854E-01
7.61482965932E+10	8.29902058867E-03	1.92357091766E-01	-3.58045956364E-05	-2.26953136689E-05	-5.50184697693E-05	-1.20825688825E-05	3.60353329192E-02	-1.58440338156E-01
7.61543086172E+10	1.21528238504E-02	1.94983316822E-01	-8.33170452716E-05	1.31049700893E-05	-7.85727604326E-05	1.26890243402E-05	4.01671348969E-02	-1.55049342544E-01
7.61603206413E+10	1.52084324723E-02	1.91870996234E-01	1.05743343375E-05	9.95493783730E-06	1.64809690646E-05	5.38103922735E-06	3.61063733307E-02	-1.57616304795E-01
7.61663326653E+10	2.18358031690E-02	1.89882829009E-01	1.04130382804E-06	9.77628695091E-06	-4.30797257125E-05	5.75415715439E-05	3.43284802417E-02	-1.57386330184E-01
7.61723446894E+10	3.19711135850E-02	1.88169819909E-01	-5.27727193598E-05	-2.33961234905E-05	-3.03471709897E-06	1.08259646612E-04	3.44607563218E-02	-1.56664171472E-01
7.61783567134E+10	3.15642094677E-02	1.86581233411E-01	2.47588393320E-05	1.64352409413E-05	1.31485386636E-05	6.98745044790E-05	3.32142928499E-02	-1.57076748109E-01
7.61843687375E+10	4.30660147813E-02	1.84693261459E-01	8.26709370064E-06	4.46747523240E-05	4.10462920642E-05	-2.92058370651E-05	3.22787427681E-02	-1.56139594684E-01
7.61903807615E+10	4.90359378721E-02	1.80582463169E-01	-6.50410421613E-05	-2.03226576996E-05	2.16916956621E-05	5.94094987854E-05	3.22843742978E-02	-1.55336141897E-01
7.61963927856E+10	4.28803398352E-02	1.81599524609E-01	3.29136867044E-06	-3.23179449663E-05	2.62736397295E-05	1.00676666891E-04	3.24727385488E-02	-1.55078943652E-01
7.62024048096E+10	5.73275987588E-02	1.74463594299E-01	1.96109212975E-05	-1.27125791101E-05	1.14486167248E-04	-2.87701568195E-05	2.93390239137E-02	-1.57167029755E-01
7.62084168337E+10	5.95555333366E-02	1.74674107336E-01	1.40064913403E-05	-3.07355324933E-05	7.94834982293E-05	-7.13483609695E-06	2.80309450560E-02	-1.56219590992E-01
7.62144288577E+10	5.74157678741E-02	1.75185394416E-01	1.05330442795E-05	-9.37581727111E-05	4.08089250201E-05	-1.08293475500E-04	2.58065455546E-02	-1.58313507810E-01
7.62204408818E+10	6.46523678028E-02	1.70956068386E-01	-4.14721092294E-05	3.00560946820E-05	-2.86583961260E-05	-5.19212074060E-05	2.59535858968E-02	-1.56543971104E-01
7.62264529058E+10	7.20310475779E-02	1.69493254902E-01	-4.37806649408E-05	-2.28465229482E-05	-4.29149841616E-05	-4.97344104582E-05	2.92864583456E-02	-1.52821772823E-01
7.62324649299E+10	7.78027733071E-02	1.63734866911E-01	-6.07323268757E-05	8.33138596406E-05	-3.18495847192E-05	2.56597443989E-05	2.83660402084E-02	-1.53443981879E-01
7.62384769539E+10	7.62837900425E-02	1.63359294728E-01	-5.91109139816E-05	1.95349072502E-05	-6.11808003858E-05	-3.69291104024E-05	2.64716696995E-02	-1.53114039613E-01
7.62444889780E+10	7.94753159423E-02	1.63044857761E-01	-4.43424978260E-05	1.66288453169E-05	-8.35549233954E-05	-1.20461351435E-06	2.54251475743E-02	-1.53605211712E-01
7.62505010020E+10	8.53674796645E-02	1.59787724518E-01	-4.94157997990E-05	-1.72286189919E-05	-1.04116239930E-04	7.02100961610E-05	2.35527982021E-02	-1.54868294129E-01
7.62565130261E+10	8.09834474547E-02	1.60734361657E-01	2.98818672529E-05	6.15518192425E-05	-8.42811949261E-05	4.60355275426E-05	2.16911172334E-02	-1.55117340175E-01
7.62625250501E+10	9.77133099930E-02	1.50266805981E-01	7.46422507293E-06	3.92668092742E-05	-2.04653384128E-05	3.99796962134E-05	2.03376425743E-02	-1.57456600873E-01
7.62685370741E+10	9.73585036721E-02	1.49054843829E-01	1.13362685484E-05	-2.08642254189E-05	-2.53178949062E-05	6.62622188898E-05	2.36433252610E-02	-1.52287396562E-01
7.62745490982E+10	9.92121237022E-02	1.47149319956E-01	-2.75326321142E-05	6.19257503648E-05	-5.11571655144E-06	2.12527405426E-05	2.06587633776E-02	-1.54839171196E-01
7.62805611222E+10	1.06410856793E-01	1.44517032911E-01	4.51806044133E-05	8.03631714425E-05	-3.71885810810E-05	1.49275627172E-05	1.87321444133E-02	-1.53629002043E-01
7.62865731463E+10	1.03540680338E-01	1.43056729509E-01	7.32349243695E-05	5.61114094642E-05	-3.38123619550E-06	1.21441872968E-04	1.75707848014E-02	-1.53827381970E-01
7.62925851703E+10	1.09003551667E-01	1.37654439004E-01	6.13670206637E-05	5.73984894711E-06	4.64310274465E-05	6.23416010916E-05	1.79622080163E-02	-1.52980055976E-01
7.62985971944E+10	1.15610177614E-01	1.32127474386E-01	5.91816566945E-05	1.11315019438E-05	5.07196582494E-05	4.30005165746E-05	1.89293278208E-02	-1.51620336505E-01
7.63046092184E+10	1.19915626174E-01	1.24642880355E-01	7.18227682629E-05	-2.31943865848E-05	2.71903678236E-05	2.43657178202E-05	1.86080625031E-02	-1.51362352656E-01
7.63106212425E+10	1.19000005028E-01	1.27315178053E-01	4.19693875773E-05	-1.28864868553E-05	3.40901597284E-05	-4.41632551307E-05	1.50502521065E-02	-1.52828578283E-01
7.63166332665E+10	1.18823248849E-01	1.24523405710E-01	-6.95862743464E-06	-1.00128510795E-04	5.97483662520E-06	-2.38295802363E-05	1.46131873103E-02	-1.51808712847E-01
7.63226452906E+10	1.27663139071E-01	1.21721513827E-01	-2.52191134041E-05	-1.24697011099E-05	1.19479780932E-05	6.26974029451E-05	1.35952699755E-02	-1.51603455667E-01
7.63286573146E+10	1.27596635124E-01	1.16667734062E-01	1.91149949447E-05	2.17707688686E-05	4.36380847188E-05	1.57150562263E-05	1.29768697924E-02	-1.51570102232E-01
7.63346693387E+10	1.30948874082E-01	1.10823137441E-01	-3.44314040209E-05	4.11709954632E-06	-3.59599945952E-05	-1.24773319432E-05	1.23460834425E-02	-1.52382274978E-01
7.63406813627E+10	1.34020538830E-01	1.07923204906E-01	-2.02814176709E-06	2.77340267912E-05	3.53021111771E-05	5.89706260307E-05	8.23094414753E-03	-1.51829736194E-01
7.63466933868E+10	1.35261482379E-01	1.10357713370E-01	2.29902147081E-05	-4.52883034252E-05	8.73713879779E-05	-1.44416546038E-05	8.11475898155E-03	-1.52102727081E-01
7.63527054108E+10	1.36286653201E-01	1.05610134533E-01	-3.69430809948E-05	-3.56611410660E-05	-9.32814370209E-06	-1.85336803086E-05	9.44747508705E-03	-1.50983650927E-01
7.63587174349E+10	1.36693881834E-01	1.03871078412E-01	-1.67385135147E-05	-3.42975865999E-07	4.79425487191E-05	-1.85254808128E-05	6.75561126847E-03	-1.52327595712E-01
7.63647294589E+10	1.41166009120E-01	9.95525272075E-02	-4.95216218688E-05	5.06631415379E-06	3.25134175753E-05	-8.40802755164E-05	7.45632886788E-03	-1.50132394425E-01
7.63707414830E+10	1.44220954268E-01	9.45650282985E-02	-1.79471666774E-05	-7.56742020478E-05	2.29059519105E-05	-3.50037627410E-05	5.87270230275E-03	-1.48702321697E-01
7.63767535070E+10	1.46999408129E-01	8.92486649596E-02	5.42215578717E-05	-4.48844632095E-05	2.59953777469E-05	3.95571994881E-05	4.09661859797E-03	-1.50222147689E-01
7.63827655311E+10	1.49637274067E-01	8.25857354834E-02	-7.10454500676E-05	1.74620493835E-05	1.71045197695E-05	-4.98897499984E-05	1.30898369484E-03	-1.50810830069E-01
7.63887775551E+10	1.50741373189E-01	8.20017169196E-02	-5.05503224376E-05	1.57180978765E-05	1.73786355931E-05	-9.08378780084E-05	4.70546671806E-03	-1.48127310103E-01
7.63947895792E+10	1.49098406134E-01	8.18246286167E-02	3.85953864021E-06	-2.96262285207E-05	-4.23794869700E-05	-8.24901294745E-05	3.68595083366E-03	-1.47773104490E-01
7.64008016032E+10	1.49580815103E-01	7.55788832858E-02	-5.82756791211E-05	-8.76316529535E-06	-1.00476701386E-05	-1.11593483998E-04	1.30515373324E-03	-1.47045627077E-01
7.64068136273E+10	1.56267080051E-01	7.28760486972E-02	-7.81590715014E-05	-2.15395893353E-05	-7.48025996683E-05	-1.09312931660E-04	-2.02788957052E-03	-1.47481230625E-01
7.64128256513E+10	1.59046494876E-01	6.33889338725E-02	-8.17421456457E-05	5.39416016944E-05	-1.08364371983E-04	-4.75200667230E-05	-5.75367742321E-03	-1.48690996711E-01
7.64188376754E+10	1.56114501042E-01	6.65383849903E-02	-4.19192488669E-05	6.13812150152E-07	-9.08372610329E-05	2.17123457678E-05	-2.14759850176E-03	-1.47432107517E-01
7.64248496994E+10	1.57382225224E-01	6.36671962973E-02	-1.37785918562E-04	6.97596476358E-05	-1.07613215032E-04	6.94698029619E-06	-2.39292443929E-03	-1.45236480659E-01
7.64308617234E+10	1.62775950283E-01	5.52684858523E-02	-6.62238999840E-05	5.08525489875E-05	-7.63666203534E-05	-1.34259220497E-05	-4.43917189121E-03	-1.45647630050E-01
7.64368737475E+10	1.63755197987E-01	5.23644923913E-02	2.45168481704E-05	4.23834280222E-05	-5.87591303135E-07	4.25675415295E-05	-8.52251815140E-03	-1.47142776009E-01
7.64428857715E+10	1.65205809877E-01	4.79462176790E-02	3.30528027231E-05	5.05369894543E-05	-3.16641401571E-05	7.58460260628E-05	-8.00775162783E-03	-1.45883108722E-01
7.64488977956E+10	1.65121770704E-01	4.32668987557E-02	5.35394515008E-05	3.93340059298E-05	-6.42942451732E-05	8.70261759149E-05	-7.37362360763E-03	-1.44614802456E-01
7.64549098196E+10	1.64591663537E-01	4.00483467219E-02	7.97910431703E-05	1.05607115568E-04	3.23487541142E-05	3.80991208191E-05	-8.88498614712E-03	-1.44359075243E-01
7.64609218437E+10	1.65895138204E-01	3.50428241879E-02	4.40080372021E-05	4.37871920843E-05	1.10520718486E-05	3.65614720495E-05	-7.71746083480E-03	-1.42288828509E-01
7.64669338677E+10	1.67173687699E-01	3.06828119604E-02	1.15414025163E-04	1.47049419824E-05	-9.27044672933E-06	2.41815526859E-05	-1.50546402543E-02	-1.43713917002E-01
7.64729458918E+10	1.70157307816E-01	2.41955122289E-02	7.40797250111E-05	-3.26267603394E-05	3.93756694143E-05	-4.24508547248E-05	-1.15441469430E-02	-1.42219376900E-01
7.64789579158E+10	1.70816007912E-01	2.17337264241E-02	1.07635957000E-05	1.97198582234E-05	1.97154409331E-05	2.67849974034E-05	-1.09535615699E-02	-1.41048108978E-01
7.64849699399E+10	1.71274314052E-01	1.89399723051E-02	4.40035697274E-05	-8.76721224147E-05	-3.74559638389E-05	1.04578446744E-05	-1.34122002088E-02	-1.41414469972E-01
7.64909819639E+10	1.69146067715E-01	1.91010357710E-02	-1.08497240774E-05	-1.92236346132E-05	3.92762622219E-05	5.15396987698E-05	-1.80265509635E-02	-1.41218849259E-01
7.64969939880E+10	1.70280228487E-01	8.00731311088E-03	-9.97600738990E-06	1.20200005070E-05	-3.53429448587E-05	5.93200566688E-05	-1.87416856180E-02	-1.39786658651E-01
7.65030060120E+10	1.69895088410E-01	1.31663288145E-03	1.15101958024E-04	1.81483585649E-05	5.98305100632E-05	1.28491653264E-05	-1.85694589203E-02	-1.38872389217E-01
7.65090180361E+10	1.72037203562E-01	3.57249174024E-03	-2.79956556174E-05	-4.35799016691E-05	8.19183494209E-05	-1.07402298204E-05	-1.87096358696E-02	-1.37846572606E-01
7.65150300601E+10	1.71873767925E-01	-5.10582114533E-03	2.80395768274E-05	-4.73642983721E-05	3.51419940089E-05	-2.65865972473E-05	-1.88918740226E-02	-1.36567975014E-01
7.65210420842E+10	1.70213307911E-01	-1.28516203684E-02	6.41522844304E-05	1.59406986734E-05	7.84822339616E-06	-5.23470840434E-05	-2.03280322202E-02	-1.36386069268E-01
7.65270541082E+10	1.69372058512E-01	-7.75697251394E-03	2.73365477929E-05	-6.02527868238E-05	5.39021886277E-05	-1.13043915707E-05	-2.23522147318E-02	-1.35941127582E-01
7.65330661323E+10	1.71847594546E-01	-1.81054167190E-02	1.38004860035E-05	-5.21152523310E-05	5.58766609538E-05	-2.22723697103E-06	-2.34251197143E-02	-1.34836128894E-01
7.65390781563E+10	1.71304706513E-01	-1.90516101325E-02	-7.54560179854E-06	5.52660563379E-05	4.92892078701E-05	2.90470542421E-05	-2.14997623970E-02	-1.32588349016E-01
7.65450901804E+10	1.72465457712E-01	-2.52991713502E-02	3.47596673919E-05	-9.32592588983E-05	-5.67124150139E-06	-1.96835107602E-05	-2.27625599726E-02	-1.31619424129E-01
7.65511022044E+10	1.69419090502E-01	-3.20565769206E-02	-4.37187581994E-05	-2.26452113775E-05	1.52543537666E-05	-5.56514137295E-05	-2.38827446676E-02	-1.30677840751E-01
7.65571142285E+10	1.67350565761E-01	-3.57711488514E-02	1.19106115124E-05	-4.42165198369E-05	-1.21351321984E-05	-3.36589274207E-05	-2.48472311637E-02	-1.30603473798E-01
7.65631262525E+10	1.66690600038E-01	-4.31387613390E-02	-3.45886672646E-05	1.18484648101E-05	-4.10836844346E-05	-4.68852911200E-05	-2.83002948355E-02	-1.30489451804E-01
7.65691382766E+10	1.65533288720E-01	-4.18612189757E-02	5.10344413411E-05	-7.20688463327E-05	-5.37740111286E-05	3.47304312630E-05	-2.66280434045E-02	-1.28010030778E-01
7.65751503006E+10	1.64294087555E-01	-4.87510807370E-02	-4.47202171560E-05	2.64477718694E-05	-3.77164605876E-05	-4.24909643790E-05	-2.58364532795E-02	-1.27804918941E-01
7.65811623246E+10	1.62636779836E-01	-5.31734137224E-02	-3.61184872883E-05	2.15027121840E-05	-2.03069692884E-05	-7.13711762736E-05	-2.58013206597E-02	-1.26723211908E-01
7.65871743487E+10	1.60344360613E-01	-5.80697195726E-02	-3.90935186508E-05	6.62934290548E-06	-5.47159492741E-05	-6.89745261666E-05	-3.17661625764E-02	-1.26117964952E-01
7.65931863727E+10	1.59141998404E-01	-6.11186930229E-02	-3.83642650584E-05	-2.24181693007E-05	-3.72986996381E-05	-7.02514462479E-05	-3.19459084444E-02	-1.25055545521E-01
7.65991983968E+10	1.57554690695E-01	-6.96960679786E-02	-4.25944768275E-05	2.84217692711E-05	-9.68219908777E-05	-7.20830812942E-06	-2.90135828446E-02	-1.24022910621E-01
7.66052104208E+10	1.57002746214E-01	-6.53914557246E-02	-2.94647022849E-05	6.62805770683E-05	-7.48082668727E-05	-1.11873296617E-05	-2.91129302908E-02	-1.22188171294E-01
7.66112224449E+10	1.51802932404E-01	-7.49847655905E-02	-5.44548765257E-05	3.28820681152E-06	-3.49060755669E-05	3.16908316040E-05	-3.20260395872E-02	-1.21881847955E-01
7.66172344689E+10	1.52113806495E-01	-7.67688913793E-02	-3.54612354179E-05	4.22181277793E-05	-2.69433715056E-05	5.55432308681E-05	-3.39727972232E-02	-1.21110222220E-01
7.66232464930E+10	1.51377392304E-01	-7.99363569290E-02	-3.72039617357E-06	1.58251038729E-05	1.51005850694E-05	9.42629140625E-06	-3.46282892247E-02	-1.20059576187E-01
7.66292585170E+10	1.50423261468E-01	-8.13462758324E-02	-6.18807851521E-05	5.71802403575E-05	-4.96368317623E-05	7.90150165028E-05	-3.52012696468E-02	-1.18545399621E-01
7.66352705411E+10	1.47103163614E-01	-8.64131147198E-02	-1.04032836523E-05	7.30462019532E-05	-2.82886485694E-05	4.75306672189E-05	-3.09958957369E-02	-1.17324273347E-01
7.66412825651E+10	1.43622165553E-01	-9.25654651247E-02	-6.93708352018E-07	-3.87735699868E-06	8.02525476406E-06	3.81484882293E-06	-3.12597781685E-02	-1.16312895528E-01
7.66472945892E+10	1.39271754284E-01	-1.00496763198E-01	-4.16292258068E-05	5.74403721338E-05	-6.64143650901E-05	6.54224790633E-05	-3.45061960196E-02	-1.15812661354E-01
7.66533066132E+10	1.38519382633E-01	-1.00069168711E-01	4.62619023075E-05	7.31755200608E-05	5.62255679770E-05	-2.30993981754E-07	-3.57726679167E-02	-1.15451492673E-01
7.66593186373E+10	1.34836956504E-01	-9.87634476375E-02	2.73152740259E-05	2.96077452645E-05	3.10354357799E-05	1.32072450470E-04	-3.77446735550E-02	-1.13728339791E-01
7.66653306613E+10	1.31745409002E-01	-1.07922676592E-01	4.82985160496E-05	1.46699727218E-05	-9.52638690977E-06	5.42733068398E-05	-3.65599922956E-02	-1.13480909939E-01
7.66713426854E+10	1.29482347915E-01	-1.11414365272E-01	3.55656775136E-05	4.05923222746E-05	9.61792655417E-05	-1.01609213202E-05	-3.48696800119E-02	-1.12042033603E-01
7.66773547094E+10	1.27069478985E-01	-1.14262144559E-01	4.63656662541E-05	2.22436160394E-05	3.45914713162E-05	-2.60541357201E-06	-3.70238467794E-02	-1.10178247145E-01
7.66833667335E+10	1.23820648357E-01	-1.16164617715E-01	-1.92682105785E-05	3.25564227558E-05	6.86081130790E-05	-4.30070897531E-05	-3.84346631626E-02	-1.10914259168E-01
7.66893787575E+10	1.17118783208E-01	-1.23374337710E-01	-1.63274214614E-05	-5.09497991968E-05	1.63216336378E-06	-2.10079065837E-05	-3.90110416208E-02	-1.09446483800E-01
7.66953907816E+10	1.15050862459E-01	-1.26356598137E-01	3.21089527692E-05	-8.74091413300E-06	1.34332508143E-05	1.16619138748E-06	-4.00818975224E-02	-1.08211207020E-01
7.67014028056E+10	1.15703306655E-01	-1.24579658527E-01	1.52041195788E-06	-2.20173214983E-05	-1.81604998626E-05	2.45599391876E-05	-3.91827246088E-02	-1.07216737568E-01
7.67074148297E+10	1.13153222031E-01	-1.24037549021E-01	-3.20832203367E-06	-7.25970164304E-06	4.71466467876E-06	-1.18011319510E-05	-3.88242465611E-02	-1.06346124549E-01
7.67134268537E+10	1.04983935221E-01	-1.32377305665E-01	2.12825071730E-05	-3.02690327707E-05	7.31585051287E-06	1.38284278112E-06	-3.83976561980E-02	-1.04790850418E-01
7.67194388778E+10	1.03582428363E-01	-1.34194685426E-01	2.54908175615E-05	-5.58238620453E-05	6.44005757698E-05	-5.70036525837E-05	-3.87247526475E-02	-1.03942441174E-01
7.67254509018E+10	9.94200213828E-02	-1.38239695772E-01	2.01130689127E-05	1.09799130531E-05	4.52095237718E-05	1.79216128611E-06	-4.06267756366E-02	-1.03262759529E-01
7.67314629259E+10	9.55526019758E-02	-1.38587394857E-01	3.18095612167E-06	-6.60180107116E-05	4.89199025795E-06	-9.05235212632E-06	-4.09593553663E-02	-1.03009318313E-01
7.67374749499E+10	9.20453668846E-02	-1.43722774677E-01	-3.24263126099E-05	-8.71814814305E-05	1.02475274843E-05	-3.61967088861E-05	-4.00624941697E-02	-1.01319988646E-01
7.67434869739E+10	8.76303151745E-02	-1.48247326267E-01	-4.21981961674E-06	7.83819781409E-06	-3.93451082798E-05	-3.14095739669E-05	-3.84032331928E-02	-1.00759182694E-01
7.67494989980E+10	8.72175544169E-02	-1.43137699747E-01	-3.15879188991E-05	-4.05992820867E-06	-7.45719198060E-06	-3.20365024683E-05	-4.12382997228E-02	-9.97158077891E-02
7.67555110220E+10	8.03716982847E-02	-1.43994712357E-01	-4.08024214025E-05	-1.47698966697E-06	6.64262587058E-06	-8.28007245430E-06	-4.31504427172E-02	-9.87958085654E-02
7.67615230461E+10	7.52487246681E-02	-1.49043818874E-01	-3.47106743420E-05	-2.25882945900E-05	1.67817460620E-05	-4.74964184639E-05	-4.35954457059E-02	-9.71931771333E-02
7.67675350701E+10	7.02764687568E-02	-1.52597135694E-01	-2.71897126024E-05	-4.95810506693E-05	5.06324163288E-05	-4.92273809066E-05	-4.09031694068E-02	-9.64143703833E-02
7.67735470942E+10	6.94020740567E-02	-1.52372719958E-01	-6.35363479332E-05	-7.17993547085E-05	-3.90529516597E-05	-3.25092909018E-05	-3.99404886514E-02	-9.60602837031E-02
7.67795591182E+10	6.46444563772E-02	-1.55724932057E-01	-1.54303614587E-05	-1.94124716241E-05	-2.52676948113E-06	-2.54911448040E-05	-4.22152922727E-02	-9.46870796021E-02
7.67855711423E+10	6.15476399063E-02	-1.56693349983E-01	-6.38949540180E-05	-8.34964945914E-07	-1.83784158174E-05	-6.24885461354E-05	-4.31881049377E-02	-9.35906273744E-02
7.67915831663E+10	5.43035866195E-02	-1.56732053235E-01	-2.74392668397E-05	2.49669446634E-05	-2.42845956350E-05	-1.42345847205E-05	-4.52155330395E-02	-9.27253832802E-02
7.67975951904E+10	5.18303413824E-02	-1.59301261404E-01	-3.84407752544E-05	3.38364597840E-05	-6.03332850027E-05	1.45182945711E-05	-4.39264761578E-02	-9.20161030984E-02
7.68036072144E+10	4.51239156867E-02	-1.59248671704E-01	-2.67990511572E-05	2.30246382637E-05	-3.32171261892E-05	2.42044263535E-05	-4.23891720284E-02	-9.16968308574E-02
7.68096192385E+10	3.86933259218E-02	-1.64637991244E-01	4.69598716917E-06	-8.35756385921E-06	1.48281174770E-05	2.12787244144E-05	-4.25476943526E-02	-9.06963454046E-02
7.68156312625E+10	3.76412511529E-02	-1.63053121267E-01	-2.45767966373E-05	-1.41079758425E-05	-9.08984096470E-06	1.09707951930E-05	-4.34774775004E-02	-8.93133432604E-02
7.68216432866E+10	3.73501112723E-02	-1.60161378733E-01	4.56793152199E-05	1.56042925493E-05	2.18205352673E-05	2.74384580768E-05	-4.42752107681E-02	-8.75202953843E-02
7.68276553106E+10	2.68152073350E-02	-1.64113888646E-01	-4.50753423005E-05	3.32609663730E-05	6.22767462984E-08	-3.37283618864E-06	-4.38518166218E-02	-8.76574967851E-02
7.68336673347E+10	2.22614940832E-02	-1.66135508552E-01	-4.76077231546E-06	-7.62617332293E-06	-1.57913958665E-05	5.35745454108E-05	-4.20132987500E-02	-8.83301985430E-02
7.68396793587E+10	1.96466580540E-02	-1.66564520919E-01	-3.48688149810E-05	3.58782487139E-05	-3.24231926267E-05	3.53197854382E-05	-4.40303026908E-02	-8.60173178848E-02
7.68456913828E+10	1.68164284812E-02	-1.65310548020E-01	-8.02999941186E-06	2.57660875739E-05	-6.20958176273E-05	-3.52163351927E-05	-4.66949815425E-02	-8.42511507679E-02
7.68517034068E+10	7.12584445008E-03	-1.67863192991E-01	4.66666734820E-05	-3.13088631136E-05	-3.59574657853E-05	4.98200590434E-05	-4.25363268045E-02	-8.43858061872E-02
7.68577154309E+10	3.38455609568E-04	-1.65124968319E-01	-8.64911682690E-05	1.33964856379E-05	7.93651616897E-06	-8.94150358384E-06	-4.31167533757E-02	-8.38829459310E-02
7.68637274549E+10	6.11586383511E-04	-1.65945581714E-01	1.58169551386E-05	7.10751611539E-05	1.57276669395E-06	3.45705060570E-06	-4.60112588852E-02	-8.22799642292E-02
7.68697394790E+10	-4.87240014282E-03	-1.64935181744E-01	-1.30171919231E-05	2.90580945715E-05	-2.34289116954E-06	1.46346775365E-05	-4.73125017328E-02	-8.11733192546E-02
7.68757515030E+10	-8.93365812103E-03	-1.65143189699E-01	1.10130339673E-05	4.79703343651E-05	1.98272395606E-05	5.45446096741E-05	-4.63051545548E-02	-7.98398096071E-02
7.68817635271E+10	-1.46416618562E-02	-1.65526421908E-01	2.08750264060E-05	-5.12779109961E-06	2.32224342527E-05	7.66172627428E-05	-4.33873106947E-02	-7.92398853093E-02
7.68877755511E+10	-1.51557370353E-02	-1.61811635184E-01	5.56429565497E-05	5.45332244569E-05	-1.04438111137E-06	3.32174538921E-06	-4.40924543638E-02	-7.86706007361E-02
7.68937875752E+10	-2.29044668494E-02	-1.63031059357E-01	3.05647021874E-05	-1.10119871484E-05	2.72963013479E-05	-3.86386046917E-05	-4.44166521590E-02	-7.81098024312E-02
7.68997995992E+10	-2.77274128453E-02	-1.59974488860E-01	1.24210400316E-04	-4.95580143020E-05	6.82593461276E-05	-2.22821216336E-05	-4.69008898492E-02	-7.65086350545E-02
7.69058116232E+10	-3.37416988198E-02	-1.60515282564E-01	1.96583331260E-05	-2.87804792946E-05	8.28058871932E-05	-7.47195279948E-06	-4.74418257039E-02	-7.54338973914E-02
7.69118236473E+10	-3.59803283087E-02	-1.57029584244E-01	4.99993414248E-05	-6.76921511506E-05	1.11969230384E-04	-3.35039382686E-05	-4.56806380951E-02	-7.54494908281E-02
7.69178356713E+10	-4.12079703877E-02	-1.57429771743E-01	1.74162410981E-05	-1.86442982130E-05	3.41435163499E-06	-4.82959591672E-05	-4.40021071876E-02	-7.50701235814E-02
7.69238476954E+10	-4.80958672394E-02	-1.55731899934E-01	-2.93884918186E-05	-4.20823163295E-05	-2.78179274256E-05	-5.92176175750E-05	-4.49790822677E-02	-7.42834897300E-02
7.69298597194E+10	-5.20336081794E-02	-1.55213337647E-01	-1.54622483894E-05	-3.02983134804E-05	1.81491826429E-05	2.59937359598E-06	-4.72296710130E-02	-7.18667305643E-02
7.69358717435E+10	-5.31804979644E-02	-1.50518549997E-01	-1.88740323761E-05	-4.46697108080E-05	4.36883880103E-06	-7.66963860462E-05	-4.79334840682E-02	-7.10091109264E-02
7.69418837675E+10	-5.67817232724E-02	-1.48381808934E-01	-6.23253270820E-05	-6.04094874629E-06	-6.35692020482E-05	-3.96089552613E-05	-4.79390170267E-02	-6.92831638376E-02
7.69478957916E+10	-6.54436622846E-02	-1.48287360011E-01	-6.20808421678E-05	-4.16837489596E-05	-6.92805808634E-05	-2.18230627396E-05	-4.66173663080E-02	-6.86713745102E-02
7.69539078156E+10	-5.50335014511E-02	-1.45870765368E-01	-1.44932209364E-05	2.84346061205E-05	1.18739134460E-06	4.85188091454E-05	-4.57231501180E-02	-6.95734042668E-02
7.69599198397E+10	-6.82027127229E-02	-1.42026745770E-01	-5.38895015650E-05	3.66702419259E-05	-1.08516050330E-05	-8.85292862168E-06	-4.37455328908E-02	-6.96085953013E-02
7.69659318637E+10	-7.68150666302E-02	-1.40357458560E-01	3.59419595798E-05	1.85944397269E-05	1.56775712179E-05	6.55282968199E-05	-4.63147331439E-02	-6.63930297770E-02
7.69719438878E+10	-7.90251845349E-02	-1.36050926711E-01	2.10786491128E-05	8.56424791750E-05	5.40043186873E-05	4.11850836136E-05	-4.62495609266E-02	-6.57212943043E-02
7.69779559118E+10	-7.64418076451E-02	-1.35148513699E-01	6.06555793204E-05	3.19137978903E-06	5.65915894204E-05	3.76413832040E-06	-4.43950598387E-02	-6.54477909470E-02
7.69839679359E+10	-7.85787182859E-02	-1.32597210277E-01	4.28187633560E-05	-1.07032860863E-05	1.92808813941E-05	1.02903937846E-05	-4.41967097058E-02	-6.47029211009E-02
7.69899799599E+10	-8.54754454412E-02	-1.29374605711E-01	1.59705562553E-06	-3.25411485362E-05	5.36250287641E-05	-2.88047697236E-05	-4.52589747664E-02	-6.33682158127E-02
7.69959919840E+10	-8.97359789416E-02	-1.25740806034E-01	5.82814794982E-06	-3.23599810809E-05	-1.85717968351E-05	-6.49598162631E-05	-4.64413623668E-02	-6.21130545959E-02
7.70020040080E+10	-9.13775507820E-02	-1.23576702669E-01	-5.36842827604E-05	-5.17083348207E-05	-6.23925484241E-06	-3.99590203905E-05	-4.79908910826E-02	-6.09328780061E-02
7.70080160321E+10	-9.67236626095E-02	-1.20854422669E-01	2.99595947600E-06	-1.20289150447E-05	-3.31932077225E-05	-2.12468996218E-05	-4.60103670163E-02	-6.07910637700E-02
7.70140280561E+10	-9.87508469266E-02	-1.19508904279E-01	-4.34315174243E-05	1.95542990340E-05	-4.01327172023E-05	-1.03585620727E-05	-4.37874874744E-02	-6.05991484920E-02
7.70200400802E+10	-1.00116297882E-01	-1.16318743737E-01	5.44897078746E-05	-5.21633427368E-05	3.77581908547E-05	-5.81049126553E-05	-4.35632826084E-02	-5.99520456799E-02
7.70260521042E+10	-1.06720613098E-01	-1.09463037715E-01	8.14729531802E-05	3.08881072393E-05	-8.24540655300E-06	-2.00795023252E-05	-4.44039168968E-02	-5.79595533091E-02
7.70320641283E+10	-1.08552765033E-01	-1.07056025392E-01	-1.24959732763E-05	-2.03038083769E-06	6.50440481540E-06	6.75577504290E-05	-4.62237439998E-02	-5.58220432515E-02
7.70380761523E+10	-1.11305079549E-01	-1.05225915904E-01	2.03197795439E-06	3.07567741671E-05	-5.39121277567E-05	4.72516575104E-05	-4.71734298005E-02	-5.55314104001E-02
7.70440881764E+10	-1.09955015615E-01	-1.02031823712E-01	5.70884137610E-05	4.79253977404E-05	4.58119445594E-05	8.15120239902E-05	-4.53061979811E-02	-5.54569034800E-02
7.70501002004E+10	-1.14652501342E-01	-9.93119003410E-02	5.63104270999E-05	-3.14913347767E-05	-1.08524699044E-05	6.56078972938E-05	-4.21999555312E-02	-5.60504400163E-02
7.70561122244E+10	-1.19874535197E-01	-9.46001819210E-02	4.29770005476E-05	-3.00066759684E-05	1.68962478006E-05	2.76013727688E-05	-4.34981075872E-02	-5.41969069320E-02
7.70621242485E+10	-1.22778908876E-01	-9.02565717976E-02	-7.84830539914E-05	2.57164916690E-05	6.11975125940E-06	2.65279467093E-05	-4.53141042629E-02	-5.23053264822E-02
7.70681362725E+10	-1.25218690996E-01	-8.48140379797E-02	1.80925931125E-05	3.33181854313E-05	4.71256403703E-05	1.47810540495E-05	-4.71147209750E-02	-5.11286195123E-02
7.70741482966E+10	-1.24164976548E-01	-8.43670549679E-02	9.47055065853E-05	-8.00578067860E-06	3.97849096420E-05	8.27567739489E-05	-4.44686686004E-02	-5.20312185543E-02
7.70801603206E+10	-1.24668556136E-01	-8.19036643375E-02	2.52948472749E-05	-6.51061408869E-05	1.19582208577E-04	3.03967780618E-05	-4.31131735232E-02	-5.15205827038E-02
7.70861723447E+10	-1.26690213061E-01	-7.71149024490E-02	3.75667782557E-05	-5.82287490482E-05	7.54839929921E-05	-4.67440728096E-05	-4.33790247594E-02	-5.03347511135E-02
7.70921843687E+10	-1.25886857029E-01	-7.59475760124E-02	3.36477975069E-05	-1.32959274130E-05	3.94296235544E-05	-9.71469985007E-05	-4.36540806103E-02	-4.87560003916E-02
7.70981963928E+10	-1.31759733541E-01	-7.12151270116E-02	-4.50910242358E-05	-1.87512014229E-04	5.79680055750E-05	-7.02883386890E-05	-4.34958719202E-02	-4.78634182882E-02
7.71042084168E+10	-1.35176253629E-01	-6.53665220097E-02	3.99182484529E-06	-5.19514435155E-05	3.59632770594E-05	-5.33261708864E-05	-4.32210074711E-02	-4.70910140737E-02
7.71102204409E+10	-1.37268156428E-01	-6.11259204953E-02	-6.34471477617E-05	-3.75706399045E-05	1.81980726848E-05	8.89574341421E-06	-4.34980058761E-02	-4.60193835461E-02
7.71162324649E+10	-1.34712703838E-01	-5.95435747155E-02	1.56288173796E-05	-2.30298916799E-05	-1.57697786352E-05	-3.46372164465E-06	-4.40289309778E-02	-4.44223345455E-02
7.71222444890E+10	-1.32930809998E-01	-5.78622345691E-02	-5.03508931278E-05	6.21821633623E-05	-3.12791845804E-05	-2.27892739305E-05	-4.12526561587E-02	-4.54712284680E-02
7.71282565130E+10	-1.36654212839E-01	-5.17535988151E-02	-8.81041823575E-05	-6.16422077280E-05	-5.73474984225E-05	-2.15542426477E-05	-4.22670761098E-02	-4.36383744918E-02
7.71342685371E+10	-1.37956152593E-01	-4.88709041452E-02	-5.28586683220E-05	-3.97065101038E-06	6.48251011038E-05	-2.06371889224E-05	-4.27793292456E-02	-4.19340361206E-02
7.71402805611E+10	-1.42412061427E-01	-4.27043033983E-02	-2.49414788765E-05	-7.32151150709E-05	-6.55306131898E-07	1.05779200601E-05	-4.25949553800E-02	-4.14239473381E-02
7.71462925852E+10	-1.37528635387E-01	-4.33210078917E-02	3.22297744693E-05	-4.07711309229E-05	4.88263192710E-05	-6.97583005265E-05	-4.03872968323E-02	-4.20284988027E-02
7.71523046092E+10	-1.40626042798E-01	-3.58144954894E-02	5.12321219190E-06	-5.96002790417E-05	-6.92032138937E-05	-1.38915570894E-05	-4.16062801814E-02	-3.97938894933E-02
7.71583166333E+10	-1.42684894896E-01	-3.35582041948E-02	-4.87807605974E-05	-1.06041848066E-05	-3.85579525174E-05	-7.89240213678E-05	-4.17708627719E-02	-3.91281028890E-02
7.71643286573E+10	-1.40955566901E-01	-3.30336837670E-02	-7.98268767201E-05	-4.83251268154E-05	-5.54524452571E-05	9.20270013690E-06	-4.22201895573E-02	-3.83319255486E-02
7.71703406814E+10	-1.41641410563E-01	-2.63819984428E-02	-8.61930694707E-06	-1.31283023845E-05	3.64142632905E-05	3.21369278935E-05	-4.02242134020E-02	-3.77753457721E-02
7.71763527054E+10	-1.42023098895E-01	-2.33130048800E-02	-1.21069238045E-05	1.88832957881E-05	-6.03829788526E-05	1.29779435514E-05	-3.92796267334E-02	-3.79415151469E-02
7.71823647295E+10	-1.42616880993E-01	-1.94344866533E-02	-1.88587310189E-06	2.99374740637E-05	-2.33692766377E-06	1.13476457261E-04	-3.80411802022E-02	-3.69552271560E-02
7.71883767535E+10	-1.43069004392E-01	-1.50242198650E-02	-2.40890192753E-05	6.47175130271E-05	-1.04502853600E-05	-1.27024264505E-05	-3.88889492228E-02	-3.53103687780E-02
7.71943887776E+10	-1.43379890747E-01	-8.27240046377E-03	-7.30240687397E-05	-6.98288695136E-06	-7.30405666110E-05	1.73519690191E-05	-3.69153272367E-02	-3.55519056163E-02
7.72004008016E+10	-1.43239822498E-01	-3.00086276753E-03	-7.66945665588E-05	1.09626636313E-04	-6.43471059074E-05	2.09473245432E-05	-3.95501143627E-02	-3.30195295295E-02
7.72064128257E+10	-1.42265951854E-01	-8.62831013038E-03	-1.38918427694E-04	6.50605598909E-05	4.38651928822E-05	6.46159955888E-05	-3.84304208832E-02	-3.26699584780E-02
7.72124248497E+10	-1.42816060596E-01	-5.14133678684E-04	1.68740181273E-07	7.49103185120E-05	-7.75605028305E-06	1.13680251283E-04	-3.73782640946E-02	-3.19151630832E-02
7.72184368737E+10	-1.43925835316E-01	8.88601541583E-03	5.70813023058E-06	8.21077206599E-05	8.63959496799E-05	1.02641628339E-05	-3.74127379308E-02	-3.15292134093E-02
7.72244488978E+10	-1.43094763222E-01	8.78653230827E-03	3.13116798827E-06	4.07131126448E-05	2.99901167539E-05	1.88827860761E-05	-3.60827969646E-02	-3.18469091452E-02
7.72304609218E+10	-1.42254602878E-01	1.06093051890E-02	1.02000849569E-04	5.90710440411E-05	-5.30969590550E-06	1.67857090265E-06	-3.52924935030E-02	-3.12096005317E-02
7.72364729459E+10	-1.42037507847E-01	1.10655968255E-02	8.47755832407E-05	4.75772322856E-05	3.22572889550E-05	-1.14715288872E-05	-3.56330618584E-02	-2.98437634745E-02
7.72424849699E+10	-1.42062154430E-01	1.85423073599E-02	4.85411303373E-05	-4.21134107272E-05	8.12155294284E-05	-2.67704764898E-05	-3.66341987824E-02	-2.83032020213E-02
7.72484969940E+10	-1.41262097624E-01	2.69149066373E-02	-1.01011888281E-07	6.08151667627E-05	7.65762174503E-05	-1.65411022706E-05	-3.40242782507E-02	-2.83422419660E-02
7.72545090180E+10	-1.40789852878E-01	2.15993940512E-02	2.84206810272E-05	-3.33930834779E-05	1.37915122803E-05	2.59123507820E-05	-3.41108717625E-02	-2.71619268457E-02
7.72605210421E+10	-1.38877364145E-01	3.07310324092E-02	4.15919561806E-05	-4.44167160655E-05	1.80677505193E-05	-3.77447051370E-05	-3.41683249248E-02	-2.56617847042E-02
7.72665330661E+10	-1.39611248625E-01	3.64944877104E-02	-7.00815740896E-05	-3.83001586027E-06	1.11254233517E-05	-1.24497737654E-05	-3.20843835871E-02	-2.64388003461E-02
7.72725450902E+10	-1.39078712948E-01	3.21351172557E-02	4.07262595290E-06	-5.27524605307E-05	8.72428401460E-05	-2.60706886495E-06	-3.18612433174E-02	-2.59751007639E-02
7.72785571142E+10	-1.38694972855E-01	3.88694702199E-02	4.63936907605E-05	-3.05227868028E-05	-2.10695956139E-05	-1.64636966666E-05	-3.21618283285E-02	-2.46422946359E-02
7.72845691383E+10	-1.35047381044E-01	4.68001004651E-02	-3.37662521803E-05	-1.87899419144E-06	-1.17637620858E-05	-9.91247197464E-06	-3.18763673148E-02	-2.36264354393E-02
7.72905811623E+10	-1.35207589853E-01	4.27942382165E-02	1.34515471927E-05	2.30481887244E-05	-7.34746644900E-05	-1.82158712435E-05	-3.28069929179E-02	-2.23175384886E-02
7.72965931864E+10	-1.33504587791E-01	4.87052303106E-02	-2.56652762737E-05	3.03842357791E-05	2.67286833131E-05	8.13854235758E-06	-3.16701057871E-02	-2.16037353690E-02
7.73026052104E+10	-1.32432686546E-01	5.08150900883E-02	5.44763904412E-05	-6.12723674464E-06	5.39748763981E-06	7.99252090602E-06	-3.01903125952E-02	-2.17542227911E-02
7.73086172345E+10	-1.31683504357E-01	4.97868949758E-02	6.96893185645E-05	-1.96210877382E-05	9.56816266713E-06	1.63976363042E-06	-2.72649253440E-02	-2.22831490824E-02
7.73146292585E+10	-1.29670588099E-01	5.81524216738E-02	-3.89545028798E-05	-2.02114247362E-05	1.66690085232E-05	-7.20300695259E-06	-2.74698246121E-02	-2.13989467186E-02
7.73206412826E+10	-1.27781388399E-01	6.58073440596E-02	4.04581315292E-05	-1.37608020419E-05	-3.17943676265E-05	-6.65431233497E-06	-2.93862046989E-02	-1.92294839518E-02
7.73266533066E+10	-1.23543304618E-01	7.07176449351E-02	5.57676543509E-05	2.31941392060E-05	4.23171969587E-05	-2.51434917722E-05	-2.86903058315E-02	-1.90781871508E-02
7.73326653307E+10	-1.23033409803E-01	7.35456048876E-02	8.87649644647E-05	-1.11313972694E-04	1.39042662292E-05	-7.07677603908E-05	-2.73486094947E-02	-1.88712023398E-02
7.73386773547E+10	-1.21251178154E-01	7.44209361599E-02	-9.52242753661E-06	-6.68955460870E-05	2.84766743102E-05	-7.15478981857E-05	-2.56561707742E-02	-1.82249785833E-02
7.73446893788E+10	-1.19504883013E-01	7.84886998833E-02	-6.95201480996E-05	-6.19102202473E-05	-4.01839942988E-05	-3.56835253708E-06	-2.59184122767E-02	-1.74924621696E-02
7.73507014028E+10	-1.18084922532E-01	8.06213661339E-02	-1.24464120219E-04	-4.62757825550E-05	-2.22695288691E-05	-4.28573172229E-05	-2.58316776750E-02	-1.66721393073E-02
7.73567134269E+10	-1.16781101804E-01	8.03699027859E-02	-2.02786642523E-05	5.66531535822E-06	2.07341773909E-06	9.69090085953E-06	-2.50528970517E-02	-1.61919159181E-02
7.73627254509E+10	-1.13376378673E-01	8.49778765657E-02	-8.11528446082E-05	-1.07220092667E-05	-5.52662222414E-05	7.22711837959E-06	-2.42017712206E-02	-1.53759663493E-02
7.73687374749E+10	-1.12416079439E-01	8.98061592407E-02	-1.29400418107E-04	-2.49705454700E-05	1.95731086734E-05	-4.53335352707E-05	-2.26098759446E-02	-1.54637250877E-02
7.73747494990E+10	-1.12255772545E-01	8.76136641588E-02	-1.04323927141E-04	-1.07328773895E-05	-4.78944143634E-05	-2.65750601276E-06	-2.29351680504E-02	-1.47454132912E-02
7.73807615230E+10	-1.07398158934E-01	9.21514445924E-02	-5.02275554317E-05	-2.69331544638E-05	-6.53823272260E-05	-1.33469416068E-05	-2.23009126200E-02	-1.43857567323E-02
7.73867735471E+10	-1.08506976892E-01	9.13758413979E-02	-2.57778328974E-05	4.54749235663E-05	-4.07132391781E-05	1.38398516317E-05	-2.14739831177E-02	-1.38951529012E-02
7.73927855711E+10	-1.03646341290E-01	9.95194274900E-02	1.20238356564E-05	3.11343248163E-05	-4.32722588486E-05	-3.19706228831E-06	-2.15805174646E-02	-1.25630840351E-02
7.73987975952E+10	-9.78755378825E-02	1.04145076603E-01	8.10015841602E-06	5.54679948160E-05	3.38722682196E-05	3.45665541660E-06	-2.05517081003E-02	-1.21181971630E-02
7.74048096192E+10	-1.02161518684E-01	9.69787253311E-02	1.63365761193E-05	-8.02950491799E-06	6.15860443922E-05	-4.04966666343E-06	-2.10667926675E-02	-1.15163371303E-02
7.74108216433E+10	-9.41297731224E-02	1.07640168741E-01	-3.18808756432E-05	-1.71653416081E-05	1.28608005544E-06	-4.52284832207E-05	-1.85253465295E-02	-1.14959601951E-02
7.74168336673E+10	-9.13028224038E-02	1.10828669444E-01	-2.21860786428E-05	-3.33516009451E-05	4.98996530292E-05	-2.54905546307E-05	-1.78966259697E-02	-1.06594546825E-02
7.74228456914E+10	-8.83267665559E-02	1.16318435278E-01	1.29384758115E-05	3.44010389885E-05	-1.08250607174E-04	-5.65327001052E-05	-1.86255745683E-02	-1.00057580257E-02
7.74288577154E+10	-8.72011392546E-02	1.15220907658E-01	-5.06482826136E-05	-1.68276683363E-05	-1.21595177761E-05	6.50491853890E-05	-1.74947768343E-02	-9.43925706862E-03
7.74348697395E+10	-8.74580242971E-02	1.13638021741E-01	-5.24741665671E-05	-9.19975948308E-06	-6.21524854336E-06	2.36169896488E-05	-1.59267516692E-02	-9.12705732677E-03
7.74408817635E+10	-8.64691609079E-02	1.13732614904E-01	-1.38646144309E-05	3.11151721497E-05	2.69580500839E-05	-2.13585658211E-05	-1.45900988269E-02	-8.96463623474E-03
7.74468937876E+10	-7.82980176624E-02	1.21393559741E-01	3.31410316942E-05	-1.82843020611E-05	-5.86619554165E-05	3.68169431263E-05	-1.42778455364E-02	-8.61482834275E-03
7.74529058116E+10	-8.14456502456E-02	1.17009536619E-01	1.04445885096E-05	1.45855786079E-05	-7.99088705215E-05	6.60256004021E-05	-1.46338197151E-02	-8.27772581624E-03
7.74589178357E+10	-7.30247504809E-02	1.25568543714E-01	-2.23874280556E-05	3.78668044774E-05	-1.69507343190E-05	4.76108964403E-05	-1.43897077253E-02	-7.64494641190E-03
7.74649298597E+10	-7.15465588131E-02	1.27860782755E-01	-8.02459117832E-06	1.06096464193E-04	-2.21795596519E-05	5.72304614841E-05	-1.31701788490E-02	-7.15023379669E-03
7.74709418838E+10	-7.34274518192E-02	1.25387484210E-01	9.12141035773E-05	5.49889990648E-05	5.99982970420E-05	1.45479895317E-05	-1.32734851747E-02	-6.49100740139E-03
7.74769539078E+10	-6.51905633398E-02	1.34352010353E-01	7.56700290883E-05	-4.95489367654E-05	6.56492029644E-05	-3.19641974827E-05	-1.11023734467E-02	-6.25329913874E-03
7.74829659319E+10	-6.95047241071E-02	1.28217335545E-01	7.75697959933E-05	-4.42498190572E-05	1.89904681502E-05	2.73452855530E-05	-1.07594232846E-02	-5.52758389072E-03
7.74889779559E+10	-6.29968176106E-02	1.32956246711E-01	2.94405091245E-07	-2.19667479697E-06	4.99460643022E-05	-1.37122049924E-05	-1.03222811844E-02	-5.23721976178E-03
7.74949899800E+10	-5.78020820301E-02	1.35457851239E-01	3.77968700915E-05	-4.54065963119E-05	-5.50516597285E-05	2.67945204471E-05	-9.91669373495E-03	-4.64013209871E-03
7.75010020040E+10	-5.80717545937E-02	1.34490620620E-01	-6.34290794829E-05	4.28683972324E-06	3.07500141101E-05	1.67776702879E-05	-7.87404007823E-03	-4.82068125636E-03
7.75070140281E+10	-5.24392766736E-02	1.40804694266E-01	2.83685852494E-05	1.98049924586E-05	5.77132434967E-06	-5.42156179736E-05	-8.33647846980E-03	-4.25925815215E-03
7.75130260521E+10	-4.94781068468E-02	1.40866218373E-01	-1.57815556605E-05	-4.78555762161E-05	-4.34623539074E-05	-2.03963410566E-05	-7.46811467083E-03	-3.91522776234E-03
7.75190380762E+10	-4.32075365652E-02	1.42728502145E-01	-6.85811618906E-05	1.19477635222E-05	-4.68349900466E-05	3.32258177405E-05	-5.48233310174E-03	-3.56949835556E-03
7.75250501002E+10	-4.46748115231E-02	1.44939391857E-01	5.02602492909E-06	-3.84229728776E-07	-4.68099584457E-06	1.93755414113E-05	-6.02807351285E-03	-3.11043669486E-03
7.75310621242E+10	-4.27533334904E-02	1.45467342541E-01	-1.01092860579E-04	-1.76148236014E-05	2.20034504757E-05	2.90216872389E-06	-5.13893496085E-03	-2.78880005519E-03
7.75370741483E+10	-3.23086304197E-02	1.50371824306E-01	-1.30446875378E-05	6.89782377011E-05	-7.34421843030E-06	4.93691698128E-05	-3.62402273580E-03	-2.47982805240E-03
7.75430861723E+10	-3.68956480399E-02	1.47679071800E-01	4.33697811853E-05	6.85004444687E-05	-1.55091241171E-06	6.11443576563E-05	-2.41155332549E-03	-2.25239352464E-03
7.75490981964E+10	-2.96921356555E-02	1.51728210279E-01	8.50470753020E-05	2.08506934685E-05	5.19847126897E-05	5.34749861717E-05	-2.14379271835E-03	-2.12487724760E-03
7.75551102204E+10	-2.45606869904E-02	1.54582117934E-01	8.80163180655E-05	-1.16378823794E-05	8.10703439130E-05	4.60151462690E-05	-1.64459969168E-03	-1.96517850803E-03
7.75611222445E+10	-1.98762576062E-02	1.55900541261E-01	9.29238759169E-05	-7.19434438049E-05	3.84904934345E-05	-5.50550204905E-05	-8.46219099886E-04	-1.72205435418E-03
7.75671342685E+10	-1.57979080714E-02	1.57730766281E-01	7.44337026029E-05	6.23631363434E-05	-2.84459090767E-06	-5.04866863751E-05	-2.94884759092E-04	-1.43234021169E-03
7.75731462926E+10	-1.37452983842E-02	1.54122988197E-01	5.11847097613E-05	-4.85185211668E-05	-2.53716700904E-05	-4.28129939355E-05	3.76226683525E-04	-1.07567078134E-03
7.75791583166E+10	-1.17609061401E-02	1.55380555327E-01	-3.50905746924E-06	-8.39934969713E-06	1.12501327072E-05	-1.37691105235E-05	1.61930960128E-03	-5.51534680819E-04
7.75851703407E+10	-5.27305109122E-03	1.57581871336E-01	7.52072568789E-05	5.60215614013E-06	7.55770112610E-06	4.53264182287E-06	2.61811806025E-03	-2.66874346921E-04
7.75911823647E+10	2.33658766428E-03	1.60169458357E-01	2.29204159106E-05	-5.24912063127E-05	3.46048703146E-05	-1.26951385312E-04	3.35964890543E-03	-3.14233014893E-04
7.75971943888E+10	3.99814871660E-03	1.59354572850E-01	-2.54741612836E-05	2.53189233314E-05	2.38479374985E-05	-3.89292190538E-05	4.34885270933E-03	-1.82192042189E-04
7.76032064128E+10	7.38571562528E-03	1.60044221431E-01	2.22166533155E-05	-5.33132283110E-05	4.88993797787E-06	-6.93602919665E-05	4.71170206456E-03	-5.80077641824E-04
7.76092184369E+10	1.10582489779E-02	1.61349959882E-01	-4.46906351743E-05	2.08703442105E-05	5.18306740757E-05	5.34157333685E-06	5.43345969465E-03	-4.83655950665E-04
7.76152304609E+10	1.58898785341E-02	1.63011080972E-01	2.29624025300E-05	1.14056802240E-05	1.71828244921E-05	2.55133618662E-05	6.71515495414E-03	2.63381683032E-04
7.76212424850E+10	2.09878308588E-02	1.60140626071E-01	1.91840550710E-05	-1.94212489370E-05	9.71942683397E-05	-1.12257990996E-06	7.30324835756E-03	3.75551082474E-04
7.76272545090E+10	2.46194255650E-02	1.62060005249E-01	-6.45092940485E-05	-2.57213130452E-05	2.22935998283E-05	-8.76589871089E-06	7.85098628244E-03	3.06371918776E-04
7.76332665331E+10	2.77983688126E-02	1.62856433263E-01	3.89249206851E-05	-6.08678281850E-05	5.95497241178E-05	-2.44829222156E-05	8.33616896925E-03	1.52390604255E-04
7.76392785571E+10	3.02056079068E-02	1.62523171459E-01	-4.68864018068E-06	-1.26124986625E-05	2.85231828709E-05	-2.47612649907E-05	9.08496522119E-03	4.99099759843E-04
7.76452905812E+10	3.70327161214E-02	1.62095004170E-01	-2.95316700171E-05	1.17219186349E-06	3.45439778134E-05	-8.86434468337E-06	1.04526090788E-02	1.25508619998E-03
7.76513026052E+10	4.42075313015E-02	1.59874894571E-01	1.44142917784E-05	-6.81179537391E-05	-4.16870278207E-05	-1.34498102013E-05	1.12005801621E-02	1.06506978239E-03
7.76573146293E+10	4.87768602880E-02	1.62028832047E-01	-3.91231932169E-06	-4.04452045036E-05	5.26014461527E-05	-3.25251539106E-05	1.17335574704E-02	7.56395290552E-04
7.76633266533E+10	5.20166137669E-02	1.60827863957E-01	-3.48786066504E-05	-1.00111471325E-04	-9.16242539740E-06	-7.52577720719E-05	1.28503083104E-02	1.41475746789E-03
7.76693386774E+10	5.50893780935E-02	1.59941210977E-01	-7.01386999728E-05	-4.02204210117E-05	-7.37632867062E-06	-1.11328000451E-04	1.35781706809E-02	4.91125770738E-04
7.76753507014E+10	5.90221492255E-02	1.57422800376E-01	-7.27476466208E-05	2.46276275198E-05	-1.30169670217E-05	-5.42139244852E-05	1.42629557922E-02	1.46436080879E-03
7.76813627255E+10	6.18580019735E-02	1.57045862064E-01	-1.15104934626E-04	3.15222202790E-06	-1.00749409800E-04	-1.63508006693E-05	1.48965798975E-02	8.37521615741E-04
7.76873747495E+10	7.39857526260E-02	1.55899577452E-01	-4.16992028687E-05	-5.36359205560E-05	-1.19664034521E-04	-3.70443522630E-05	1.59842090459E-02	1.85650078513E-03
7.76933867735E+10	7.67642071342E-02	1.50981029535E-01	-1.48721075797E-05	-8.66768189287E-06	-1.10778831628E-04	-8.43635109444E-06	1.65290121611E-02	9.76721845328E-04
7.76993987976E+10	7.60695556044E-02	1.53995646363E-01	-8.80818172220E-05	4.71916885546E-05	-3.64686790934E-05	-3.19508128572E-05	1.71559086944E-02	1.03932254499E-03
7.77054108216E+10	7.95246635765E-02	1.51510635718E-01	6.26613789611E-06	9.52838620467E-05	-6.65781417478E-05	4.69941935899E-05	1.80919872944E-02	1.53919720683E-03
7.77114228457E+10	8.43304417033E-02	1.50673419230E-01	-6.43951706666E-05	3.13231895228E-05	-9.18548112458E-05	8.15370305506E-05	1.87764349712E-02	1.78329497965E-03
7.77174348697E+10	8.82409628091E-02	1.46569432526E-01	6.63783231275E-05	1.09221188489E-04	-2.35821835658E-05	1.49862078224E-05	1.96632643377E-02	9.98804111788E-04
7.77234468938E+10	8.93987358294E-02	1.45524475833E-01	3.94237814077E-05	3.78100748889E-05	-7.17639708462E-05	1.07748269898E-04	2.03775036535E-02	5.98528374988E-04
7.77294589178E+10	9.97498827955E-02	1.42738060391E-01	2.10429539933E-05	2.74636045513E-05	4.99267678707E-05	8.85375240056E-05	2.08961734150E-02	2.11023326864E-03
7.77354709419E+10	1.04531906999E-01	1.36973895265E-01	1.57712048829E-05	4.85554554776E-05	8.52145284854E-05	5.40897048893E-05	2.16967720827E-02	1.32690370178E-03
7.77414829659E+10	1.06812031302E-01	1.36616825158E-01	4.95444941751E-05	2.22627077663E-05	3.04606875822E-05	1.28030825558E-05	2.25625635820E-02	8.13191680250E-04
7.77474949900E+10	1.11510516865E-01	1.32958886063E-01	-2.12491255639E-05	-1.86277558822E-05	5.13442685354E-05	2.73563334093E-05	2.35198365115E-02	1.43874701903E-03
7.77535070140E+10	1.13278271771E-01	1.31870855219E-01	2.01529613159E-05	-2.58594697635E-05	6.02491270370E-05	1.63485524449E-05	2.44084750109E-02	1.01134314192E-03
7.77595190381E+10	1.20139503767E-01	1.25608839499E-01	-4.23801164656E-05	-1.79445318705E-06	5.71631026888E-05	3.95819838191E-05	2.51404887715E-02	1.11982175247E-03
7.77655310621E+10	1.19481530545E-01	1.23808431497E-01	-4.22492337663E-05	3.74178799232E-05	3.97291255560E-05	9.23395296622E-07	2.58985294844E-02	2.85143759913E-04
7.77715430862E+10	1.20337242174E-01	1.24328585850E-01	4.76572028737E-06	7.59675596558E-05	5.00345179609E-05	2.06773230269E-05	2.64485271141E-02	1.07202108076E-04
7.77775551102E+10	1.27435979496E-01	1.19368199161E-01	2.77090860711E-05	1.67771654213E-05	3.37734861193E-05	9.19585276850E-05	2.70807700680E-02	2.75444410789E-04
7.77835671343E+10	1.34760869674E-01	1.10662178089E-01	1.48737209902E-05	-1.41465097476E-05	1.18177788064E-05	4.88907721890E-05	2.79174690161E-02	5.16359426197E-04
7.77895791583E+10	1.32010523781E-01	1.12058488280E-01	3.16886322970E-05	6.67969014433E-06	7.57917204596E-05	-3.82056443962E-05	2.86188817027E-02	7.09511474627E-04
7.77955911824E+10	1.33253924999E-01	1.12844823443E-01	3.66525689515E-05	3.14829763442E-05	5.51265956333E-05	3.42763918790E-05	2.91223965790E-02	1.49373033464E-05
7.78016032064E+10	1.36339820175E-01	1.04992960836E-01	6.63390109778E-06	-4.09118475242E-06	9.06811336810E-05	8.72526220006E-06	3.01267290258E-02	-5.13857809996E-04
7.78076152305E+10	1.39178960605E-01	1.00882733909E-01	5.31681292441E-05	1.49765705295E-05	1.31381576507E-04	-4.49436920517E-05	3.08790927384E-02	-4.16060064444E-04
7.78136272545E+10	1.42532078565E-01	1.00333056565E-01	7.05145165554E-05	-1.66375062171E-05	7.25304071996E-05	-2.96283191825E-06	3.19060474897E-02	-5.06374081433E-04
7.78196392786E+10	1.46832568046E-01	9.25955280918E-02	5.27375762585E-05	-7.27615727937E-05	6.43410495933E-05	-8.40127529757E-05	3.21227970516E-02	4.84827954225E-04
7.78256513026E+10	1.49225912332E-01	8.86402893731E-02	1.82880364684E-05	5.07138216582E-06	2.70533874580E-05	-7.99656864076E-05	3.27442503926E-02	6.74504355265E-05
7.78316633267E+10	1.52252340702E-01	7.99178588542E-02	-5.34702318125E-06	-3.17326102973E-05	4.20729778657E-05	-8.39678357377E-05	3.40904361794E-02	-1.44944868285E-03
7.78376753507E+10	1.52278815047E-01	8.31186724486E-02	-4.21160405190E-05	-5.45396970149E-05	-4.95328946977E-05	-7.24036198868E-05	3.48622406168E-02	-1.63964583268E-03
7.78436873747E+10	1.54897661686E-01	7.65264407202E-02	-2.75184807513E-05	-4.14360462687E-05	-8.09870186562E-06	-1.43200073861E-04	3.58383925015E-02	-2.32938846842E-03
7.78496993988E+10	1.56338072392E-01	7.60548366099E-02	-4.61998044383E-05	1.16731030354E-05	-3.59086322186E-05	-4.69618165035E-05	3.59100264753E-02	-8.18186851040E-04
7.78557114228E+10	1.56042749595E-01	6.76542784623E-02	8.59593396307E-06	-2.35299571285E-05	1.06253209799E-05	-6.42952731084E-05	3.67960698897E-02	-1.83173450970E-03
7.78617234469E+10	1.58496156472E-01	6.46642127106E-02	1.48188175547E-05	-1.35159460279E-06	-3.01495338979E-05	-3.74593920256E-05	3.76382063341E-02	-1.85044846129E-03
7.78677354709E+10	1.58474845520E-01	6.22154657254E-02	1.29407560078E-05	2.28270148769E-05	-7.45538659178E-05	-2.31088155326E-06	3.80107600945E-02	-1.78983852646E-03
7.78737474950E+10	1.58769521931E-01	6.42359145185E-02	6.13672268055E-05	-4.29377876194E-06	-1.77003493480E-05	1.91625261585E-05	3.87421286113E-02	-2.01990035393E-03
7.78797595190E+10	1.61437606873E-01	5.40776453172E-02	-6.24111014806E-05	-4.05717287611E-06	8.24481435674E-06	3.98290090883E-05	3.92253886739E-02	-2.55167027557E-03
7.78857715431E+10	1.61518365892E-01	4.59775155902E-02	-1.99460069093E-05	-3.72254985856E-06	-1.32828556364E-05	6.12392807533E-06	4.03761176773E-02	-3.47764278824E-03
7.78917835671E+10	1.63142060819E-01	4.85972690909E-02	4.38962738030E-05	3.51637225790E-05	7.17915765673E-06	-9.25573333127E-06	4.08314051202E-02	-3.53367657014E-03
7.78977955912E+10	1.64258174642E-01	4.02375758159E-02	5.23847571716E-05	-5.92613094924E-05	2.56156155184E-07	-5.49664194233E-05	4.17071369727E-02	-2.66022576547E-03
7.79038076152E+10	1.64226313167E-01	3.49751961554E-02	2.36622130309E-05	-1.11704939460E-04	-4.70624415990E-06	-3.42345875528E-05	4.18826012842E-02	-1.68398470579E-03
7.79098196393E+10	1.64282031406E-01	3.60268909117E-02	1.08998130167E-05	-2.95743761475E-05	-2.61995494066E-06	-7.47000312211E-06	4.25366757453E-02	-2.97603876270E-03
7.79158316633E+10	1.63728277723E-01	3.51566025211E-02	-3.67413619468E-05	-3.47342706812E-05	-3.90799072376E-05	-1.07918816297E-05	4.39264938858E-02	-3.78282923178E-03
7.79218436874E+10	1.63847246490E-01	3.69784249774E-02	2.59531788405E-05	-7.16803402389E-05	-2.53090703444E-05	8.23289409682E-06	4.50688012967E-02	-3.93575736575E-03
7.79278557114E+10	1.65625923969E-01	1.97927883128E-02	-8.58447373891E-05	-6.66966003046E-05	-6.65900168222E-05	-5.76066197799E-06	4.53180689342E-02	-3.40442625044E-03
7.79338677355E+10	1.68715748609E-01	1.78299411171E-02	-1.08728309922E-04	-9.17839233756E-05	-5.33146481934E-05	2.96226445171E-06	4.53293858853E-02	-4.59460948695E-03
7.79398797595E+10	1.64879961654E-01	2.26115043835E-02	-6.31595974185E-05	5.42113694844E-05	-7.72812825683E-05	-2.72949300618E-05	4.59395607739E-02	-4.30597186713E-03
7.79458917836E+10	1.64475274120E-01	1.62937669586E-02	-2.70163546648E-05	1.05695267575E-04	-4.06878981780E-05	8.43897704160E-05	4.70552723442E-02	-4.79936499337E-03
7.79519038076E+10	1.63157290561E-01	7.86030395479E-03	1.50921209076E-05	-1.22635922443E-05	-4.85787148749E-05	1.21851642487E-04	4.79103481946E-02	-6.19906267884E-03
7.79579158317E+10	1.65568725297E-01	1.23833936452E-02	1.15569467947E-05	4.17774606488E-05	2.25439894541E-05	7.34623367857E-05	4.94184720049E-02	-7.34744807376E-03
7.79639278557E+10	1.66670598789E-01	2.36937376561E-03	-4.24149285475E-05	-1.51571357006E-05	4.21520236481E-05	4.50469597376E-05	4.90915786837E-02	-5.86943606865E-03
7.79699398798E+10	1.63436453278E-01	-2.40265544279E-03	-4.36554195086E-05	1.85396557804E-05	-1.06658232860E-05	3.71957550912E-05	4.99178430392E-02	-7.27591223560E-03
7.79759519038E+10	1.62579615386E-01	-4.19735455427E-03	-2.71685113666E-05	3.28392790561E-05	1.85908341555E-05	5.37972638528E-05	5.02983909379E-02	-6.30167594119E-03
7.79819639279E+10	1.64783454849E-01	-6.43891925185E-03	-2.36015250480E-05	-1.45894443080E-05	6.68810015153E-05	1.41709794453E-06	5.11685580786E-02	-6.06768302726E-03
7.79879759519E+10	1.62879070838E-01	-4.28784885675E-03	-3.12589077228E-05	5.36877794982E-05	2.96848969726E-05	2.73055692622E-05	5.22176665271E-02	-7.25071957452E-03
7.79939879760E+10	1.64593397361E-01	-4.96933267429E-03	-6.37165408849E-05	4.31598438160E-05	7.99393463283E-05	-3.49412623512E-06	5.21994920796E-02	-7.37406024739E-03
7.80000000000E+10	1.62457073895E-01	-2.04626927451E-02	1.53615655513E-05	-2.61977124336E-05	3.67078135894E-05	-4.07406779839E-05	5.30321027627E-02	-8.34750808982E-03
