# Hz S MA R 50
! CMT, C4420, 21421029, 25.1.2/3
! Date: 8/6/2025 1:02:58 PM
! Data: Format (Calibration Info)
! Freq	S33:Mag/Ang(F2)	S43:Mag/Ang(F2)	S34:Mag/Ang(F2)	S44:Mag/Ang(F2)
7.50000000000E+10	2.05213960820E-01	-2.92221602738E+01	4.16449503575E-04	4.59786832177E+01	3.51179074788E-04	4.98637094534E+01	2.58864279392E-01	-9.08269140753E+00
7.50060120240E+10	2.05710778218E-01	-2.88961431408E+01	3.89423443798E-04	2.24830970110E+01	3.36131298570E-04	4.27958697256E+01	2.58261521540E-01	-9.48616385478E+00
7.50120240481E+10	2.08667093183E-01	-3.05936204830E+01	3.84151296900E-04	1.06831396526E+01	3.29776172156E-04	3.00044981189E+01	2.61233417738E-01	-1.09595605593E+01
7.50180360721E+10	2.07613057374E-01	-3.15539745179E+01	3.73192722088E-04	8.84921407612E+00	3.54268643656E-04	2.45205893263E+01	2.58386613364E-01	-1.03649929573E+01
7.50240480962E+10	2.07131469902E-01	-3.22132517749E+01	3.88455293505E-04	1.72163276017E+01	3.28641959685E-04	1.64862873209E+01	2.55576976119E-01	-9.85768708633E+00
7.50300601202E+10	2.06544892226E-01	-3.20197657643E+01	3.85034914156E-04	-4.59453302666E+00	3.52853537948E-04	3.56227496750E+00	2.57693013524E-01	-1.07172043950E+01
7.50360721443E+10	2.05548545739E-01	-2.98628138983E+01	3.58530252854E-04	-1.40380723939E+01	2.70488525201E-04	-2.19696955435E+00	2.57957358906E-01	-1.11114102655E+01
7.50420841683E+10	2.05839883914E-01	-3.14816477914E+01	3.20779616803E-04	-5.62719622731E+00	3.22287137718E-04	-1.57966653567E+01	2.56601721876E-01	-1.11025868927E+01
7.50480961924E+10	2.05856776194E-01	-3.43422054903E+01	3.07206020213E-04	-2.35712027962E+01	2.28789434813E-04	-1.85452649674E+01	2.51300289306E-01	-1.07651014597E+01
7.50541082164E+10	2.03087056968E-01	-3.37421847275E+01	1.93510652387E-04	-2.24873983756E+01	2.96369482628E-04	-2.21549538283E+01	2.53914809799E-01	-1.07763984268E+01
7.50601202405E+10	2.05932632385E-01	-3.32242052785E+01	2.86280907330E-04	-1.79305670233E+01	2.29911393218E-04	-1.91546488908E+01	2.57050656316E-01	-1.17095214191E+01
7.50661322645E+10	2.06927290443E-01	-3.37798722356E+01	3.18369392068E-04	-2.54686899918E+01	3.15512054565E-04	-1.86765536349E+01	2.57295173490E-01	-1.29170105207E+01
7.50721442886E+10	2.01392590076E-01	-3.09716541918E+01	3.90543028778E-04	-4.10360276227E+01	3.10520524420E-04	-2.51877299360E+01	2.56704788015E-01	-1.33008381006E+01
7.50781563126E+10	2.04058395791E-01	-3.47359993017E+01	3.62497886979E-04	-5.27239202417E+01	3.74953203082E-04	-4.94138988015E+01	2.54907364199E-01	-1.23731913061E+01
7.50841683367E+10	1.98491566345E-01	-3.10044992177E+01	3.77951445149E-04	-6.19321270838E+01	3.51298708723E-04	-4.72436946895E+01	2.55382666020E-01	-1.17793960859E+01
7.50901803607E+10	2.01827680607E-01	-3.27068321138E+01	3.33595339034E-04	-7.11242490113E+01	3.54606540696E-04	-6.28499260695E+01	2.58236680338E-01	-1.27223810300E+01
7.50961923848E+10	2.03964348959E-01	-3.42498406689E+01	3.81216570859E-04	-6.38302269266E+01	3.41837895093E-04	-6.28729915604E+01	2.55923565595E-01	-1.41376274009E+01
7.51022044088E+10	2.01735003934E-01	-3.43455254260E+01	4.39501194117E-04	-7.27804339525E+01	2.99521918518E-04	-7.62963109044E+01	2.53554936853E-01	-1.23358649346E+01
7.51082164329E+10	1.99875886986E-01	-3.46885388714E+01	4.03504589225E-04	-8.46801070800E+01	2.76904007813E-04	-8.27678092669E+01	2.54710083993E-01	-1.29004629048E+01
7.51142284569E+10	1.97762703621E-01	-3.33429015444E+01	3.84744053943E-04	-9.01621050834E+01	3.34934584166E-04	-1.01334096546E+02	2.56079585821E-01	-1.43855627740E+01
7.51202404810E+10	1.99563996150E-01	-3.40814578541E+01	3.41359638414E-04	-9.62182979951E+01	3.46822232826E-04	-1.09573199312E+02	2.54977513605E-01	-1.38852227212E+01
7.51262525050E+10	2.00277478271E-01	-3.70619934396E+01	3.66141552171E-04	-1.12405594223E+02	3.33166039409E-04	-9.99562429535E+01	2.54687087799E-01	-1.52905922314E+01
7.51322645291E+10	2.00284481142E-01	-3.64523692926E+01	3.84652230539E-04	-1.16455304795E+02	2.87949043359E-04	-1.20056489259E+02	2.56038321547E-01	-1.46003583824E+01
7.51382765531E+10	1.95942287684E-01	-3.31680399231E+01	3.29925225073E-04	-1.29244619444E+02	3.01142992095E-04	-1.21542048978E+02	2.52870641784E-01	-1.45264488507E+01
7.51442885772E+10	1.96854937933E-01	-3.50165794022E+01	3.45463209300E-04	-1.30202717065E+02	2.95977350478E-04	-1.43655547206E+02	2.56574293542E-01	-1.46829540260E+01
7.51503006012E+10	1.96209832490E-01	-3.57793481172E+01	3.51241692894E-04	-1.48267167208E+02	2.73391513773E-04	-1.38314494958E+02	2.53085515907E-01	-1.51847781451E+01
7.51563126253E+10	1.93909515065E-01	-3.60104672243E+01	2.85138371258E-04	-1.47618516806E+02	2.69531401842E-04	-1.54663648596E+02	2.55658685919E-01	-1.63671692440E+01
7.51623246493E+10	1.99009455559E-01	-3.78287168064E+01	2.84375323325E-04	-1.53700099539E+02	2.23252541745E-04	-1.47694974786E+02	2.57530572299E-01	-1.67443669446E+01
7.51683366733E+10	1.92775868721E-01	-3.49276957883E+01	2.88338925985E-04	-1.53149359628E+02	2.29125548361E-04	-1.52040325090E+02	2.58716790271E-01	-1.65346208603E+01
7.51743486974E+10	1.96811851008E-01	-3.60144451174E+01	2.86285613318E-04	-1.57007175134E+02	2.54921402053E-04	-1.54178761487E+02	2.54997110883E-01	-1.61345235684E+01
7.51803607214E+10	1.96521115117E-01	-3.71077512979E+01	3.32757260168E-04	-1.79819727786E+02	2.82596798302E-04	-1.67815692667E+02	2.54673017415E-01	-1.72656292821E+01
7.51863727455E+10	1.98564354668E-01	-3.86159508980E+01	2.90349399997E-04	1.68272114365E+02	3.07810175425E-04	-1.67846731705E+02	2.56486966956E-01	-1.74010885928E+01
7.51923847695E+10	1.94182330120E-01	-3.80540826806E+01	2.96437867059E-04	1.58446205377E+02	2.22590761442E-04	-1.79319148504E+02	2.60550656783E-01	-1.80881152882E+01
7.51983967936E+10	1.93452891171E-01	-3.66660035761E+01	2.55081734521E-04	1.47757329227E+02	2.19965773140E-04	1.58148780508E+02	2.58041693913E-01	-1.75786830714E+01
7.52044088176E+10	1.95336978752E-01	-3.64813335976E+01	2.82537531820E-04	1.49300907020E+02	2.95376757655E-04	1.39101877167E+02	2.54484195205E-01	-1.69163366645E+01
7.52104208417E+10	1.93294871650E-01	-3.72454367619E+01	2.29288904353E-04	1.37466158563E+02	2.02245471265E-04	1.40107032110E+02	2.54124249274E-01	-1.77886158244E+01
7.52164328657E+10	1.94840834695E-01	-3.84172535586E+01	2.50762594176E-04	1.29908369531E+02	2.35410886596E-04	1.30512262833E+02	2.60216062001E-01	-2.00320826149E+01
7.52224448898E+10	1.94371014130E-01	-3.92242811898E+01	2.69089773703E-04	1.51845520777E+02	1.85104997911E-04	1.23552625702E+02	2.55363459025E-01	-1.87258832982E+01
7.52284569138E+10	1.96661043631E-01	-3.92014613351E+01	2.72410160372E-04	1.25871125222E+02	1.44477237521E-04	1.27825501595E+02	2.50625775493E-01	-1.77354167589E+01
7.52344689379E+10	1.93429484131E-01	-3.99934937408E+01	2.62261930712E-04	1.23644569452E+02	1.54685465756E-04	1.17266552503E+02	2.59223555963E-01	-2.09852109195E+01
7.52404809619E+10	1.94181836511E-01	-3.81509452552E+01	2.16006618076E-04	1.02004820659E+02	1.39757236999E-04	1.24461517371E+02	2.57481954479E-01	-2.01731559283E+01
7.52464929860E+10	1.91268490522E-01	-3.72937403534E+01	2.03353191463E-04	1.28868021518E+02	1.36869037455E-04	1.18914294653E+02	2.52863661358E-01	-1.85242049807E+01
7.52525050100E+10	1.89898239680E-01	-3.93410692411E+01	1.13125076146E-04	9.67898206633E+01	1.31172680880E-04	1.26252984060E+02	2.56379545923E-01	-2.11270176302E+01
7.52585170341E+10	1.90657065109E-01	-3.92047684066E+01	1.86421372670E-04	1.16235306693E+02	1.98783678183E-04	1.14988023149E+02	2.58163423363E-01	-2.13658197025E+01
7.52645290581E+10	1.93715311556E-01	-4.06293167935E+01	2.64573353568E-04	8.43335203550E+01	2.19564922925E-04	8.83513758512E+01	2.59592414205E-01	-2.16863690963E+01
7.52705410822E+10	1.91797242860E-01	-4.05962489592E+01	2.52746829106E-04	7.84917333413E+01	2.17129760394E-04	7.61355815661E+01	2.52654152815E-01	-2.02165184481E+01
7.52765531062E+10	1.87373172534E-01	-3.78741750294E+01	2.41853360879E-04	4.94838848023E+01	2.30023522125E-04	7.21891232088E+01	2.52353616929E-01	-2.11519878840E+01
7.52825651303E+10	1.87257566500E-01	-3.94101337688E+01	2.24072690081E-04	6.58109199069E+01	2.28275943094E-04	4.86538865923E+01	2.53782874034E-01	-2.19793100082E+01
7.52885771543E+10	1.90314239062E-01	-4.06220447217E+01	2.20258569043E-04	5.15467537296E+01	1.48514609236E-04	4.76088371294E+01	2.54232255291E-01	-2.14055850296E+01
7.52945891784E+10	1.88578158508E-01	-3.83070898803E+01	1.52702464596E-04	5.12134929642E+01	1.53164316189E-04	4.59956080769E+01	2.57505946115E-01	-2.25872484818E+01
7.53006012024E+10	1.89021110707E-01	-3.99692333386E+01	1.66928937030E-04	4.30075327083E+01	1.56606019729E-04	1.25645479810E+01	2.55296245299E-01	-2.26067058543E+01
7.53066132265E+10	1.86038395986E-01	-3.94747535213E+01	1.34955570266E-04	2.61157719301E+01	1.14579280747E-04	4.33367277833E+01	2.51255310676E-01	-2.17745478214E+01
7.53126252505E+10	1.86225814037E-01	-4.04690987250E+01	1.40026755025E-04	1.85723858659E+01	1.49592447124E-04	1.54589239813E+01	2.51049955178E-01	-2.30885658799E+01
7.53186372745E+10	1.89970743426E-01	-4.22490584536E+01	1.59905578808E-04	-1.01663558347E+01	1.42021936207E-04	-2.45904454934E+01	2.54231385972E-01	-2.40594372103E+01
7.53246492986E+10	1.88418048220E-01	-4.16225116274E+01	1.17282694992E-04	-6.49003981666E+00	7.22351751107E-05	-4.82859462865E+00	2.56553355905E-01	-2.39620672287E+01
7.53306613226E+10	1.86893750465E-01	-4.08076310190E+01	8.40371178631E-05	-3.56229369327E+01	1.28295240703E-04	-1.37783191181E+01	2.55768331948E-01	-2.36069682739E+01
7.53366733467E+10	1.82271927427E-01	-4.00308357109E+01	8.27167460393E-05	-1.39896450400E+01	1.10036422477E-04	-5.97527023869E+01	2.51348547595E-01	-2.45882230516E+01
7.53426853707E+10	1.83868211443E-01	-4.07170403612E+01	3.24039801503E-05	-4.03460803236E+01	4.91230552394E-05	1.39614566007E+02	2.52455155766E-01	-2.43038468687E+01
7.53486973948E+10	1.89648029452E-01	-4.24767348364E+01	7.32073656522E-05	-1.12702032170E+02	7.55140882828E-05	1.66536931864E+02	2.53833435115E-01	-2.49507418031E+01
7.53547094188E+10	1.85912938977E-01	-4.18907505006E+01	1.14690765464E-04	4.94560219587E+01	1.07588991630E-04	4.33262650020E+01	2.55885391221E-01	-2.60646535615E+01
7.53607214429E+10	1.85355822566E-01	-4.23903822357E+01	1.12312541771E-04	1.13660248485E+01	5.27999165675E-05	4.75470039520E+01	2.52467424762E-01	-2.51601631987E+01
7.53667334669E+10	1.82672084359E-01	-4.06634328909E+01	1.33957719778E-04	3.23037648574E+00	1.04016195124E-04	4.31029283509E+01	2.51676403395E-01	-2.56382724714E+01
7.53727454910E+10	1.87250045602E-01	-4.40132663179E+01	8.84818085778E-05	4.19937576143E+01	9.13366580646E-05	3.44632235106E+01	2.52207805847E-01	-2.57624390927E+01
7.53787575150E+10	1.84736281499E-01	-4.45536381552E+01	1.93057001210E-04	-2.68479296117E+01	9.40709427064E-05	-1.03325622551E+01	2.52672285286E-01	-2.64922178789E+01
7.53847695391E+10	1.83031989415E-01	-4.25146587825E+01	8.77237199307E-05	-4.69247351144E+01	7.93342985678E-05	-2.64038917335E+01	2.53861148424E-01	-2.69674304576E+01
7.53907815631E+10	1.81282349353E-01	-4.18223037029E+01	1.26710854181E-04	-6.94324936633E+01	8.01299366830E-05	-4.48355686841E+01	2.50133358639E-01	-2.63743994960E+01
7.53967935872E+10	1.81071812657E-01	-4.18765066758E+01	1.89321780443E-04	-7.93725137445E+01	9.59194843802E-05	-6.86735495758E+01	2.54316004812E-01	-2.69643135787E+01
7.54028056112E+10	1.84464868267E-01	-4.49025006178E+01	1.22087096867E-04	-1.17049386134E+02	1.37643649894E-04	-1.03855773952E+02	2.53998086521E-01	-2.72869855234E+01
7.54088176353E+10	1.81587776797E-01	-4.42446823503E+01	1.22377306215E-04	-1.29563187889E+02	4.64691262798E-05	1.72483688417E+02	2.50248252663E-01	-2.67887363276E+01
7.54148296593E+10	1.81708595920E-01	-4.40047521342E+01	1.22436284423E-04	-1.68821551837E+02	7.72439021769E-05	-1.34175506507E+02	2.47925936656E-01	-2.77811357508E+01
7.54208416834E+10	1.86230396967E-01	-4.54389699968E+01	8.76146976971E-05	1.46430095474E+02	6.71691057045E-05	1.26738083402E+02	2.50216748984E-01	-2.70859082732E+01
7.54268537074E+10	1.82271108772E-01	-4.44532475295E+01	3.88176771598E-05	1.53974957242E+02	4.88634682822E-05	4.49628534403E+01	2.55866232476E-01	-2.94040129312E+01
7.54328657315E+10	1.76850822798E-01	-4.25361255044E+01	6.38942366750E-05	6.81911688901E+01	8.79738685728E-05	3.75934079409E+01	2.52792249712E-01	-2.92616884371E+01
7.54388777555E+10	1.77558684985E-01	-4.38199265529E+01	3.15349520396E-05	-2.08392004070E+01	1.12275480973E-04	1.50119367265E+01	2.48141642358E-01	-2.84635246282E+01
7.54448897796E+10	1.77281969622E-01	-4.50853884633E+01	4.56467338307E-05	-4.69583223094E+01	1.47618389230E-04	-7.32329698208E+00	2.49405940051E-01	-2.89129841517E+01
7.54509018036E+10	1.82081283201E-01	-4.60676094101E+01	7.03612049396E-05	-5.91493442190E+01	4.91739604083E-05	-1.76270342602E+01	2.51342345663E-01	-3.00561381554E+01
7.54569138277E+10	1.75913819352E-01	-4.29742508254E+01	3.25208803183E-05	-1.77975948195E+02	1.33233527425E-04	-8.80930781076E+01	2.52157198195E-01	-3.13359859751E+01
7.54629258517E+10	1.78420928678E-01	-4.43818292277E+01	6.34696718988E-06	-4.89297442151E+01	4.92621578028E-05	-1.19911634801E+02	2.52849088985E-01	-3.09842138810E+01
7.54689378758E+10	1.77406313115E-01	-4.62410117528E+01	7.57178097782E-06	-1.19873128053E+02	6.24808206376E-05	-1.08138276706E+02	2.51563300298E-01	-3.04938789955E+01
7.54749498998E+10	1.77626849191E-01	-4.50763040859E+01	5.15095246879E-05	-8.82258251175E+01	7.68528450880E-05	-1.07610242210E+02	2.48789155880E-01	-2.96702912756E+01
7.54809619238E+10	1.77187215329E-01	-4.53315030145E+01	4.90433902605E-05	-5.90578898196E+01	5.85624731170E-05	-8.47018227919E+01	2.51021508507E-01	-3.16507919227E+01
7.54869739479E+10	1.76436690541E-01	-4.45405736892E+01	6.81441433057E-05	-1.03269156573E+02	6.92438453776E-05	-8.94473751549E+01	2.50929839780E-01	-3.27597331925E+01
7.54929859719E+10	1.74144330010E-01	-4.47602516294E+01	9.14708954345E-05	-1.65275165344E+02	8.91527148770E-05	-7.70810980477E+01	2.51537704596E-01	-3.22761142850E+01
7.54989979960E+10	1.71007727992E-01	-4.42774421725E+01	5.80227227134E-05	1.34025373566E+02	1.01169922424E-04	-1.35678432997E+02	2.49968625348E-01	-3.19857335779E+01
7.55050100200E+10	1.75817042239E-01	-4.67939161567E+01	2.96893027796E-05	1.56940655817E+02	4.20584034014E-05	1.25863056739E+02	2.51077595324E-01	-3.23994218536E+01
7.55110220441E+10	1.76401574405E-01	-4.62616959986E+01	5.83638593863E-05	-1.60258860578E+02	3.92569986588E-05	1.87901811108E+01	2.50495860774E-01	-3.36445677557E+01
7.55170340681E+10	1.72618331655E-01	-4.57803794805E+01	3.19601832259E-05	2.53613568932E+01	9.61987395769E-05	1.09048982106E+02	2.51269386888E-01	-3.43908793696E+01
7.55230460922E+10	1.73521062802E-01	-4.68234585576E+01	4.91228872497E-05	7.96832544950E+01	5.03763949376E-05	7.47156275086E+01	2.48124338668E-01	-3.30890706227E+01
7.55290581162E+10	1.73483203647E-01	-4.74661548677E+01	1.48081460397E-05	-3.95368986744E+01	3.49590932485E-05	-2.16181316870E+01	2.46846193087E-01	-3.29135057745E+01
7.55350701403E+10	1.76177852443E-01	-4.86947666446E+01	5.09123954844E-05	-3.05762040434E+01	2.02710888291E-05	-7.70358581588E+00	2.46237625961E-01	-3.43925316265E+01
7.55410821643E+10	1.74755031706E-01	-4.83626995851E+01	4.98401063041E-05	-1.39481883425E+02	1.02280554788E-04	-3.61278417643E+01	2.50448337939E-01	-3.59483038312E+01
7.55470941884E+10	1.74919318385E-01	-4.81435235936E+01	3.93827543302E-05	-2.91002372738E+00	6.23664567072E-05	1.61541703256E+02	2.48936170796E-01	-3.61869829822E+01
7.55531062124E+10	1.73693696124E-01	-4.79106569630E+01	1.66802750562E-05	-8.24791814331E+01	1.69798515207E-05	5.39964735617E+01	2.46947609267E-01	-3.45535131350E+01
7.55591182365E+10	1.71340736177E-01	-4.86763189471E+01	2.63883596202E-05	-4.37677661874E+01	3.01832465028E-05	3.56022811010E+01	2.43971089539E-01	-3.54051064542E+01
7.55651302605E+10	1.71043611495E-01	-4.81138133129E+01	6.32881068383E-05	-1.15539938635E+02	4.12086463091E-05	1.30582534860E+02	2.44593075518E-01	-3.54593700159E+01
7.55711422846E+10	1.72017449974E-01	-4.71185623071E+01	5.54102002614E-05	-1.42240824539E+02	4.78946196997E-05	-7.41914732783E+01	2.47386703555E-01	-3.61141124750E+01
7.55771543086E+10	1.69576308539E-01	-4.72275731238E+01	4.15030555223E-05	1.16732016652E+02	4.40438006899E-05	4.36809122009E+01	2.45634598713E-01	-3.65358896662E+01
7.55831663327E+10	1.68033264604E-01	-4.82830568476E+01	4.92894913990E-05	7.95179248877E+01	7.48046472886E-06	-1.54764424562E+01	2.43788807849E-01	-3.72856002375E+01
7.55891783567E+10	1.68947616321E-01	-4.76102650253E+01	7.32801256471E-05	-3.75239162870E+01	8.71533938435E-06	-1.18768081386E+02	2.43622074259E-01	-3.75581336851E+01
7.55951903808E+10	1.69799422009E-01	-4.89962237052E+01	1.07256245337E-04	-3.08190876581E+01	3.83038517469E-05	1.44129763566E+01	2.44675029199E-01	-3.70470933447E+01
7.56012024048E+10	1.73879816884E-01	-5.03533644334E+01	8.52505728289E-05	-2.92747065811E+01	9.04109087166E-05	-1.50490187091E+01	2.43119419305E-01	-3.73923739589E+01
7.56072144289E+10	1.70859345869E-01	-4.94790995467E+01	8.79624278547E-05	-5.92992745590E+01	4.78970855680E-05	-1.38814060084E+02	2.40410395448E-01	-3.84822815418E+01
7.56132264529E+10	1.67581000209E-01	-4.79265194771E+01	6.96034963481E-05	-9.57268367800E+01	5.31571059707E-05	1.61658751118E+01	2.43214258880E-01	-3.91283946380E+01
7.56192384770E+10	1.66507012433E-01	-4.87647476366E+01	4.24178533644E-05	1.38316685576E+02	3.82122465828E-05	6.18194442802E+01	2.40614248857E-01	-3.76341578841E+01
7.56252505010E+10	1.67312047883E-01	-4.87119586450E+01	4.69453416491E-05	-4.70368724527E+01	5.83484803207E-05	1.48967250218E+01	2.42272580805E-01	-3.92462215533E+01
7.56312625251E+10	1.69302648608E-01	-4.95598930205E+01	3.71380826164E-05	-2.01517988668E+01	9.56556512535E-05	2.91471790249E+01	2.39179053608E-01	-3.98737997733E+01
7.56372745491E+10	1.68234817770E-01	-4.98328581244E+01	7.64246863767E-05	-1.19420493884E+01	7.72034201764E-05	-6.38639344010E+01	2.39353467756E-01	-3.94538658231E+01
7.56432865731E+10	1.66990523323E-01	-5.09549698862E+01	7.45644142662E-05	-5.37745718860E+01	7.80360466470E-05	-2.66003683516E+01	2.42177595315E-01	-3.99695202987E+01
7.56492985972E+10	1.66662028384E-01	-5.03615703460E+01	6.89153542554E-05	-8.54895913909E+01	1.15035424894E-04	-6.99371251911E+01	2.38203797761E-01	-3.95901238149E+01
7.56553106212E+10	1.68594224269E-01	-5.09030991089E+01	9.19279596425E-05	-8.08286147235E+01	1.57723531240E-04	-8.49556292094E+01	2.38129706451E-01	-4.03566919064E+01
7.56613226453E+10	1.66846210859E-01	-4.93677639010E+01	1.06942278720E-04	-1.15294956823E+02	1.32787918961E-04	-8.58769560629E+01	2.37893542238E-01	-4.03763855925E+01
7.56673346693E+10	1.67204034292E-01	-5.08458858471E+01	1.28067499409E-04	-1.36511955374E+02	1.29422643666E-04	-1.60087944515E+02	2.39330596915E-01	-4.07136140853E+01
7.56733466934E+10	1.65592212554E-01	-5.12198436871E+01	1.11164285319E-04	-1.49171958415E+02	9.28119637004E-05	-1.41580668434E+02	2.37228556785E-01	-4.09708450506E+01
7.56793587174E+10	1.64092236599E-01	-5.10986049196E+01	8.17420300234E-05	-1.50142519759E+02	6.10535851132E-05	-1.23426227556E+02	2.34219344118E-01	-4.05868866348E+01
7.56853707415E+10	1.63148225310E-01	-5.04312570581E+01	1.08529233804E-04	1.72865641174E+02	1.24702126544E-04	-1.47979452039E+02	2.39686156688E-01	-4.18263888804E+01
7.56913827655E+10	1.65544786068E-01	-5.22368996508E+01	1.11776731047E-04	1.77130689629E+02	1.41918310634E-04	-1.63838701296E+02	2.35134973222E-01	-4.02071512317E+01
7.56973947896E+10	1.66409600800E-01	-5.29681387906E+01	9.47090591758E-05	1.62823834447E+02	1.66297941757E-04	1.63404483461E+02	2.33580141352E-01	-4.09999987264E+01
7.57034068136E+10	1.64480296419E-01	-5.02903942040E+01	9.33521914486E-05	1.65197245714E+02	1.89484649923E-04	1.70859264886E+02	2.34223117330E-01	-4.25341694356E+01
7.57094188377E+10	1.62852857206E-01	-5.20488311744E+01	1.11871387327E-04	1.34763880990E+02	1.52610076388E-04	1.36260195800E+02	2.34816339239E-01	-4.26754255158E+01
7.57154308617E+10	1.63655619492E-01	-5.28124771598E+01	1.20083641854E-04	1.32276499285E+02	1.58198843038E-04	1.29352034556E+02	2.35550678438E-01	-4.21219318408E+01
7.57214428858E+10	1.65123016753E-01	-5.28116955360E+01	6.65390950926E-05	1.13717101846E+02	1.23433661802E-04	1.29821809443E+02	2.36971031895E-01	-4.21931228171E+01
7.57274549098E+10	1.65885130708E-01	-5.33956605503E+01	4.75388554994E-05	3.87285509694E+00	9.49993310814E-05	1.30316392732E+02	2.33592793553E-01	-4.27045415801E+01
7.57334669339E+10	1.63323805993E-01	-5.40748925275E+01	9.55145724282E-05	1.40089528727E+02	5.25781976261E-05	1.38697810586E+02	2.37011741200E-01	-4.45430161571E+01
7.57394789579E+10	1.60810377858E-01	-5.31827908075E+01	5.59323912248E-05	1.73088365857E+02	5.31293080475E-05	9.39089484494E+01	2.35412228093E-01	-4.48360731789E+01
7.57454909820E+10	1.60823665212E-01	-5.21902544195E+01	9.85800623000E-05	1.34951998575E+02	8.92040724305E-05	1.23365898634E+02	2.31587044770E-01	-4.33232217071E+01
7.57515030060E+10	1.62301415735E-01	-5.26637202638E+01	1.27329778734E-04	1.72085177206E+02	1.44829601425E-04	1.42351135711E+02	2.36092830385E-01	-4.42520573194E+01
7.57575150301E+10	1.60784685370E-01	-5.32224364535E+01	1.44579106634E-04	1.10227320746E+02	1.39884997279E-04	1.13835998984E+02	2.32790415354E-01	-4.46922471577E+01
7.57635270541E+10	1.59434304461E-01	-5.38316206108E+01	8.99347109739E-05	1.08959416279E+02	1.43498206936E-04	1.13736225435E+02	2.30674191590E-01	-4.54802266578E+01
7.57695390782E+10	1.59296925498E-01	-5.38994743165E+01	1.08091484263E-04	1.39119094603E+02	1.47847002145E-04	1.00422771345E+02	2.36821123278E-01	-4.67137366015E+01
7.57755511022E+10	1.59365196422E-01	-5.41934520702E+01	1.07449597568E-04	1.07079286536E+02	1.61891800126E-04	8.96413219614E+01	2.32856666921E-01	-4.57275846505E+01
7.57815631263E+10	1.57582250927E-01	-5.33034467815E+01	1.32393849175E-04	1.09904772791E+02	1.08402322653E-04	9.17288771595E+01	2.30226032533E-01	-4.51375955386E+01
7.57875751503E+10	1.56973560034E-01	-5.34095814633E+01	9.49178874705E-05	1.26607146888E+02	1.61371415128E-04	9.99309369231E+01	2.29246512634E-01	-4.66893748233E+01
7.57935871743E+10	1.60178192337E-01	-5.44961810516E+01	1.58806739313E-04	9.93403439686E+01	1.15545697398E-04	8.32814577234E+01	2.30218999741E-01	-4.60748835576E+01
7.57995991984E+10	1.56713273299E-01	-5.56583503449E+01	2.13707813527E-04	8.47372942366E+01	1.82779123252E-04	8.31698620739E+01	2.30719766931E-01	-4.72746802036E+01
7.58056112224E+10	1.58798181009E-01	-5.53920467823E+01	2.47888616062E-04	6.00498913932E+01	1.89033244230E-04	8.10765354601E+01	2.30098026675E-01	-4.83122575644E+01
7.58116232465E+10	1.59753425718E-01	-5.53533790507E+01	1.22369587204E-04	3.98981144006E+01	2.43560564080E-04	7.01971638846E+01	2.26084032484E-01	-4.64359880686E+01
7.58176352705E+10	1.56354177110E-01	-5.46488946211E+01	2.35475588484E-04	3.38554354517E+01	2.67863417503E-04	3.95207353278E+01	2.26630040000E-01	-4.82355282666E+01
7.58236472946E+10	1.57426401758E-01	-5.62234419411E+01	1.96573192631E-04	1.07347024299E+01	2.67329047139E-04	1.25493523056E+01	2.26746601271E-01	-4.77218168893E+01
7.58296593186E+10	1.54794478829E-01	-5.45992842156E+01	2.33095981039E-04	1.27599024329E+01	1.96421410585E-04	-2.49931289573E+00	2.27705548898E-01	-4.75694040095E+01
7.58356713427E+10	1.55084053507E-01	-5.51651853404E+01	2.26216767454E-04	7.32310948063E+00	1.87015701333E-04	-9.92580000918E+00	2.24964722782E-01	-4.77525411447E+01
7.58416833667E+10	1.53315751688E-01	-5.38884035264E+01	1.03153254059E-04	-5.37165214493E+00	1.55871373755E-04	-2.68127052404E+01	2.22409466736E-01	-4.75363225522E+01
7.58476953908E+10	1.53153145090E-01	-5.56623524593E+01	1.46758141095E-04	-1.56117376765E+01	1.57573645003E-04	-3.39091212201E+01	2.22059247899E-01	-4.90856992372E+01
7.58537074148E+10	1.55416862844E-01	-5.64023564223E+01	9.24178597318E-05	6.22258266074E+00	1.55374477188E-04	-1.00941547601E+01	2.26503235453E-01	-5.02570319135E+01
7.58597194389E+10	1.55072582187E-01	-5.61117215506E+01	1.57154325104E-04	-5.17118102513E+00	1.95614362495E-04	-2.14015745541E+01	2.21989415973E-01	-4.92140819138E+01
7.58657314629E+10	1.53203373818E-01	-5.53453274924E+01	1.62038135402E-04	-1.87408624154E+01	1.57176109251E-04	-1.84527153337E+01	2.24258491242E-01	-5.00876391430E+01
7.58717434870E+10	1.50481421814E-01	-5.51359837530E+01	1.52834887835E-04	-1.50523235896E+01	1.79116123896E-04	-1.33008890351E+01	2.22840759046E-01	-4.97350087231E+01
7.58777555110E+10	1.51835710467E-01	-5.50395005601E+01	2.11523684320E-04	-3.36876349616E+01	2.17276792869E-04	-3.52185928491E+01	2.24130784178E-01	-5.08176977679E+01
7.58837675351E+10	1.50632388002E-01	-5.65897510286E+01	2.39217482661E-04	-4.65660084873E+01	2.66753063752E-04	-3.20130563571E+01	2.20659148512E-01	-5.08174160882E+01
7.58897795591E+10	1.50295103280E-01	-5.45582540366E+01	1.69221221194E-04	-3.94801425024E+01	2.43081577542E-04	-6.06593658216E+01	2.19280068717E-01	-5.02345706552E+01
7.58957915832E+10	1.52357066178E-01	-5.72372255705E+01	2.16458153259E-04	-7.37770936545E+01	2.04310792976E-04	-6.65204354198E+01	2.18251838434E-01	-5.14150676032E+01
7.59018036072E+10	1.50869837071E-01	-5.50604939921E+01	2.59102463691E-04	-6.86316733563E+01	2.52659476388E-04	-7.80080292739E+01	2.20308110934E-01	-5.25477877051E+01
7.59078156313E+10	1.49730624936E-01	-5.46157072297E+01	2.07901742090E-04	-8.61370178089E+01	2.97857436283E-04	-8.51051827172E+01	2.20948036179E-01	-5.26510514179E+01
7.59138276553E+10	1.49156092295E-01	-5.56277987534E+01	2.32856772089E-04	-8.85112870604E+01	2.55469686050E-04	-7.71806584555E+01	2.19543506669E-01	-5.31241771254E+01
7.59198396794E+10	1.51822230947E-01	-5.64711918273E+01	2.29628095323E-04	-1.03606683107E+02	2.64407309585E-04	-1.03567962855E+02	2.17335999758E-01	-5.17309283378E+01
7.59258517034E+10	1.51104539416E-01	-5.71094584049E+01	2.49415582221E-04	-1.20923098435E+02	2.13915814996E-04	-1.16173337136E+02	2.17845766588E-01	-5.16805555694E+01
7.59318637275E+10	1.50221428496E-01	-5.67609021561E+01	2.20510904810E-04	-1.11280309352E+02	2.43640636130E-04	-1.17426871249E+02	2.17969524023E-01	-5.17029016063E+01
7.59378757515E+10	1.48087166229E-01	-5.69357653588E+01	3.18884574366E-04	-1.15686643749E+02	2.77510874181E-04	-1.17924553048E+02	2.16719982802E-01	-5.30117449329E+01
7.59438877756E+10	1.50445924847E-01	-5.66714002471E+01	3.17297738422E-04	-1.33507912686E+02	2.76599958368E-04	-1.34692725613E+02	2.18664935316E-01	-5.37735003894E+01
7.59498997996E+10	1.49927726127E-01	-5.59488932925E+01	3.05802303232E-04	-1.44725557880E+02	3.60036932293E-04	-1.51003148705E+02	2.17257628219E-01	-5.39615277186E+01
7.59559118236E+10	1.49869266891E-01	-5.66936422735E+01	2.90888673856E-04	-1.71404040915E+02	3.02434677754E-04	-1.66060270137E+02	2.14048263707E-01	-5.20322081810E+01
7.59619238477E+10	1.49168542381E-01	-5.82809752283E+01	3.21393771205E-04	-1.73124826046E+02	2.28918290803E-04	-1.68277199597E+02	2.13631640707E-01	-5.37532225813E+01
7.59679358717E+10	1.48822525357E-01	-5.72174735424E+01	2.04487707485E-04	1.69522242033E+02	2.48754799832E-04	1.62966284902E+02	2.12732262913E-01	-5.35973719555E+01
7.59739478958E+10	1.50535777705E-01	-5.77635908993E+01	2.26876172982E-04	1.62129796032E+02	2.54140329507E-04	1.50112451489E+02	2.12413369541E-01	-5.27199736283E+01
7.59799599198E+10	1.51104638487E-01	-5.90859937140E+01	2.04991645370E-04	1.73507652299E+02	1.28579369096E-04	1.53809549586E+02	2.14314987294E-01	-5.33596439330E+01
7.59859719439E+10	1.47026392599E-01	-5.86497981097E+01	1.76529116564E-04	1.60525881822E+02	1.86290150735E-04	1.71147117694E+02	2.11608101427E-01	-5.36202919311E+01
7.59919839679E+10	1.49253449382E-01	-5.90988329893E+01	2.81023738200E-04	1.52083383860E+02	1.91722261149E-04	1.56413979043E+02	2.14567173468E-01	-5.52699406126E+01
7.59979959920E+10	1.49833899174E-01	-5.72861765769E+01	2.45586497117E-04	1.26029877200E+02	2.19674446234E-04	1.37377942387E+02	2.11435568126E-01	-5.53731698615E+01
7.60040080160E+10	1.48534052398E-01	-5.89462826402E+01	2.47236031202E-04	1.28088857228E+02	1.79711660551E-04	1.43581925385E+02	2.13357960830E-01	-5.50052611595E+01
7.60100200401E+10	1.48177246415E-01	-5.83096338737E+01	1.85629247512E-04	1.05940506885E+02	2.37936091414E-04	1.24659167297E+02	2.09090814325E-01	-5.42164782357E+01
7.60160320641E+10	1.46365710852E-01	-5.73891466238E+01	1.95829459397E-04	1.07109075648E+02	1.78196587616E-04	1.22756088602E+02	2.14285344527E-01	-5.61950506780E+01
7.60220440882E+10	1.46684430256E-01	-5.90989823705E+01	1.84767352405E-04	9.89092496767E+01	2.00429403297E-04	1.10848856643E+02	2.10192409207E-01	-5.41004128820E+01
7.60280561122E+10	1.47516716704E-01	-6.00044928412E+01	1.88118259272E-04	9.97908414896E+01	2.12439820535E-04	1.06091312722E+02	2.08626120774E-01	-5.62264885965E+01
7.60340681363E+10	1.45553623737E-01	-5.68953762688E+01	1.91660450493E-04	9.23058451389E+01	2.25811253685E-04	9.60885494807E+01	2.08611576150E-01	-5.68120809025E+01
7.60400801603E+10	1.45297030468E-01	-5.86734826264E+01	2.36387693531E-04	9.02710036542E+01	2.79602869860E-04	8.25761920115E+01	2.10987116382E-01	-5.78055139524E+01
7.60460921844E+10	1.44767059853E-01	-5.80465231752E+01	2.28004910815E-04	7.84190975135E+01	2.31362423089E-04	7.52241184469E+01	2.09540243468E-01	-5.68649086483E+01
7.60521042084E+10	1.43323186486E-01	-5.80444551709E+01	2.15140981221E-04	5.78700434053E+01	1.46542724616E-04	6.89684686878E+01	2.07983866274E-01	-5.61365223427E+01
7.60581162325E+10	1.44764949429E-01	-6.10122951882E+01	1.82750095474E-04	6.13312279069E+01	2.06691738598E-04	7.43075280786E+01	2.08998321422E-01	-5.67190071618E+01
7.60641282565E+10	1.45409648932E-01	-5.96825118046E+01	2.07841269048E-04	6.27569476736E+01	1.72823385390E-04	6.55125241450E+01	2.07125766915E-01	-5.77032697939E+01
7.60701402806E+10	1.43064502784E-01	-5.77761274160E+01	1.79135946180E-04	5.60103669586E+01	1.93835794008E-04	7.77335943423E+01	2.07600934666E-01	-5.77390189420E+01
7.60761523046E+10	1.44573994900E-01	-6.19069250405E+01	2.61306921912E-04	2.94693352280E+01	2.91538149129E-04	5.46024456650E+01	2.06377895609E-01	-5.75173913642E+01
7.60821643287E+10	1.45742964054E-01	-6.04332684773E+01	2.25590980278E-04	1.25596413356E+01	2.44525911584E-04	2.56832758735E+01	2.06878610379E-01	-5.81474541825E+01
7.60881763527E+10	1.44843852177E-01	-6.01515550992E+01	1.90633805005E-04	3.74988952404E+00	2.16610825963E-04	2.77427999250E+01	2.07819095682E-01	-5.91517995920E+01
7.60941883768E+10	1.42642444268E-01	-6.06658837769E+01	2.26880088234E-04	-2.09743578144E+01	1.69128224789E-04	-1.85196688351E+00	2.03992308217E-01	-5.75643402346E+01
7.61002004008E+10	1.42715436844E-01	-6.01313051391E+01	1.51295224026E-04	-1.53140880354E+01	1.32570501217E-04	2.07341342691E+01	2.05214141851E-01	-5.87964225605E+01
7.61062124248E+10	1.44488327324E-01	-6.02618643284E+01	3.44091333218E-05	-4.53306762797E+01	9.68495323392E-05	1.01164378845E+01	2.04101348703E-01	-5.87404275108E+01
7.61122244489E+10	1.41454113754E-01	-6.03118111956E+01	5.77770671542E-05	9.83697502463E+00	1.33060708366E-04	-9.18518146958E+00	2.01418201614E-01	-5.78401729936E+01
7.61182364729E+10	1.43840579827E-01	-6.12875746273E+01	1.00969561267E-04	-2.70565747348E+01	1.70802860311E-04	-1.40389706145E+01	2.04885909518E-01	-6.03795669897E+01
7.61242484970E+10	1.39569145062E-01	-5.92334465761E+01	1.20505307233E-04	-9.09237828920E+00	8.05881462533E-05	-7.53900839253E+00	2.05386485744E-01	-6.09309995150E+01
7.61302605210E+10	1.40531164874E-01	-6.02481164072E+01	1.06542226709E-04	-1.08821469475E+01	1.43560620427E-04	-1.70638665914E+01	2.03419360235E-01	-6.00729196081E+01
7.61362725451E+10	1.40196607594E-01	-6.13829330298E+01	8.85570634436E-05	-2.40901263850E+01	1.06118215654E-04	-1.26187876060E+01	1.99862888081E-01	-5.91344043498E+01
7.61422845691E+10	1.42054318806E-01	-6.19808332766E+01	1.13119012974E-04	1.83773019568E+00	1.32687181048E-04	6.93625923301E-01	1.99815048705E-01	-5.96107627202E+01
7.61482965932E+10	1.38565882091E-01	-6.11102963640E+01	1.20134457569E-04	-2.57831773733E+01	1.15352713165E-04	-5.56756679493E+01	2.02926501493E-01	-6.07991317429E+01
7.61543086172E+10	1.42073511461E-01	-6.15953014439E+01	1.10266666853E-04	-2.08369567134E+01	1.30584155996E-04	-2.14999082357E+01	2.01908540398E-01	-6.09054009709E+01
7.61603206413E+10	1.39669744381E-01	-6.12346343152E+01	2.10662880702E-04	-3.18113804323E+01	1.35127538747E-04	-2.60498960488E+01	2.04200128322E-01	-6.21872369872E+01
7.61663326653E+10	1.38900642084E-01	-6.12239575409E+01	2.13559692786E-04	-3.66372053398E+01	1.46664981087E-04	-2.60202178451E+01	1.99902598186E-01	-6.09424890930E+01
7.61723446894E+10	1.41404219253E-01	-6.23254610048E+01	1.65696389399E-04	-7.01368516598E+01	1.47949429292E-04	-4.89276298043E+01	2.00069464493E-01	-6.15881670042E+01
7.61783567134E+10	1.40446376998E-01	-6.09269501749E+01	1.75074403280E-04	-7.48352539057E+01	1.33842115239E-04	-5.95901450549E+01	1.98660597367E-01	-6.10051517037E+01
7.61843687375E+10	1.38532511879E-01	-6.19765025428E+01	1.75923147776E-04	-1.05475946897E+02	1.84596732165E-04	-8.13208518293E+01	2.00133404417E-01	-6.28537263093E+01
7.61903807615E+10	1.39284305727E-01	-6.37189236505E+01	8.62253027556E-05	-5.55789446940E+01	1.64147536668E-04	-8.87350660574E+01	1.99133708120E-01	-6.25895255286E+01
7.61963927856E+10	1.39002372715E-01	-6.00411501350E+01	1.19661709912E-04	-1.08272512450E+02	8.81521455833E-05	-1.29689463996E+02	1.95328802763E-01	-6.06566124759E+01
7.62024048096E+10	1.37001442964E-01	-6.38480661773E+01	1.02082783772E-04	-1.21844789397E+02	9.13107837248E-05	-1.33369225890E+02	1.97761262693E-01	-6.22601392286E+01
7.62084168337E+10	1.36759255625E-01	-6.24873912059E+01	4.09295885612E-05	-5.99813670430E+01	8.69340800111E-05	-9.60550089123E+01	1.97222494541E-01	-6.28519210595E+01
7.62144288577E+10	1.36936632454E-01	-6.07989947842E+01	1.14697782717E-04	-8.22480828008E+01	4.74353938188E-05	-1.13944301662E+02	1.98153032737E-01	-6.31477275523E+01
7.62204408818E+10	1.37973739421E-01	-6.21513484461E+01	7.94355909564E-05	-9.09452832640E+01	1.21681349014E-04	-8.59778367996E+01	1.95650313185E-01	-6.24237007788E+01
7.62264529058E+10	1.37843670854E-01	-6.48425615026E+01	1.12300446264E-04	-1.53643852965E+02	1.01778427492E-04	-1.39462003650E+02	1.94173325236E-01	-6.24447834766E+01
7.62324649299E+10	1.36687031296E-01	-6.39822987577E+01	5.58235562336E-05	-9.37922357133E+01	7.00179509816E-05	-1.24654863702E+02	1.94904956920E-01	-6.28748479226E+01
7.62384769539E+10	1.35785206731E-01	-6.28952363573E+01	1.86886345553E-05	1.56803449269E+02	4.11969469173E-05	-5.91644800740E+01	1.94975469147E-01	-6.40099451566E+01
7.62444889780E+10	1.35088728526E-01	-6.18907775748E+01	9.55870030225E-05	-1.07532398348E+02	6.36702864840E-05	-5.66712824344E+01	1.94194451808E-01	-6.36437954813E+01
7.62505010020E+10	1.36678259557E-01	-6.15520550820E+01	7.22077678724E-05	-6.41490172626E+01	1.17925407388E-04	-6.47626001930E+01	1.93620681746E-01	-6.34284084990E+01
7.62565130261E+10	1.36379736648E-01	-6.36920140948E+01	1.42725578765E-04	-8.44196127282E+01	1.52841138365E-04	-6.90485153971E+01	1.92823276500E-01	-6.38099846284E+01
7.62625250501E+10	1.36260934961E-01	-6.54773913448E+01	1.16716258112E-04	-1.08151004405E+02	1.47902550358E-04	-8.07897147539E+01	1.96816554543E-01	-6.49504749884E+01
7.62685370741E+10	1.35357238261E-01	-6.26531287754E+01	1.50228978722E-04	-8.93630640782E+01	2.22511950163E-04	-1.10251881817E+02	1.93258372585E-01	-6.43613232699E+01
7.62745490982E+10	1.34654033085E-01	-6.33586208822E+01	1.78447707736E-04	-1.22061883157E+02	2.57581676781E-04	-1.22774704395E+02	1.93474144777E-01	-6.40675762453E+01
7.62805611222E+10	1.35873718301E-01	-6.34368138642E+01	1.44377857005E-04	-1.73673107642E+02	2.52282157382E-04	-1.40343359940E+02	1.91621010975E-01	-6.47863963432E+01
7.62865731463E+10	1.35215688696E-01	-6.25401788152E+01	1.63522250212E-04	-1.70512836588E+02	2.05819522737E-04	-1.60626305608E+02	1.91096356852E-01	-6.49248517631E+01
7.62925851703E+10	1.33610748282E-01	-6.39140795235E+01	1.53160739539E-04	-1.65938331211E+02	1.37856884777E-04	-1.70157348683E+02	1.91018425408E-01	-6.48345415384E+01
7.62985971944E+10	1.35146346572E-01	-6.43272187978E+01	1.45105735633E-04	-1.78969866375E+02	1.18644540934E-04	-1.66325094951E+02	1.88303820755E-01	-6.34756928108E+01
7.63046092184E+10	1.33596632783E-01	-6.45952732919E+01	1.39548206897E-04	1.63849400181E+02	1.12828662859E-04	-1.75536731231E+02	1.91502784171E-01	-6.54204290588E+01
7.63106212425E+10	1.34117806247E-01	-6.57834460358E+01	1.39768061943E-04	1.39867033819E+02	1.92198855541E-04	-1.73128487576E+02	1.93230096293E-01	-6.66510866732E+01
7.63166332665E+10	1.32154818810E-01	-6.54038966180E+01	1.43618973913E-04	1.75555585011E+02	1.22475321711E-04	1.77965745287E+02	1.88683713592E-01	-6.51720151701E+01
7.63226452906E+10	1.35355249118E-01	-6.58949878305E+01	1.18048258176E-04	1.36006641190E+02	1.46496630778E-04	1.76701825391E+02	1.89097348114E-01	-6.59776036023E+01
7.63286573146E+10	1.31809899009E-01	-6.35456225005E+01	8.68910258643E-05	1.56158262178E+02	9.24270119805E-05	-1.79832432977E+02	1.88687051818E-01	-6.57064646246E+01
7.63346693387E+10	1.31616992410E-01	-6.29706758123E+01	2.49200258388E-05	1.02040456933E+02	1.08797919819E-04	1.79732403363E+02	1.91360851560E-01	-6.66854425527E+01
7.63406813627E+10	1.31952313895E-01	-6.35012363642E+01	8.13765772206E-05	1.63261197243E+02	1.23753852565E-04	-1.76929306293E+02	1.88363689375E-01	-6.67715721006E+01
7.63466933868E+10	1.34657276668E-01	-6.45585185411E+01	5.95371716042E-05	-1.70681840242E+02	9.66813373939E-05	-1.58708649017E+02	1.88804463161E-01	-6.68234594328E+01
7.63527054108E+10	1.31700261104E-01	-6.47400267446E+01	1.28391268917E-04	1.51615218761E+02	2.11030235436E-04	1.77377182258E+02	1.90182327186E-01	-6.75250195425E+01
7.63587174349E+10	1.31637335511E-01	-6.50167797486E+01	1.35298087760E-04	1.75303993259E+02	2.20543845545E-04	1.68019190423E+02	1.89069167374E-01	-6.68879247874E+01
7.63647294589E+10	1.32190918470E-01	-6.33536764098E+01	2.33405754611E-04	1.76374482996E+02	2.56598841422E-04	1.51275193121E+02	1.87419539478E-01	-6.68736699654E+01
7.63707414830E+10	1.32180686256E-01	-6.42289511194E+01	2.19022468571E-04	1.24385355799E+02	2.45964105269E-04	1.45001408585E+02	1.87273126628E-01	-6.78278969051E+01
7.63767535070E+10	1.32779537830E-01	-6.68729819709E+01	2.67230857929E-04	1.14540281957E+02	2.14875107333E-04	1.31698521882E+02	1.87413558992E-01	-6.72470927563E+01
7.63827655311E+10	1.32215043436E-01	-6.77117279064E+01	2.37282071435E-04	9.51299403170E+01	1.90155535026E-04	1.02390762469E+02	1.88237075422E-01	-6.81448058320E+01
7.63887775551E+10	1.31388798535E-01	-6.51097296098E+01	2.28505766329E-04	8.65798503244E+01	1.85985209077E-04	9.77675856770E+01	1.88012080931E-01	-6.82025278839E+01
7.63947895792E+10	1.30669812702E-01	-6.51686812139E+01	1.77163706025E-04	7.62159037489E+01	2.01819786252E-04	9.19829525603E+01	1.87750269380E-01	-6.84509219716E+01
7.64008016032E+10	1.28564701110E-01	-6.54000655708E+01	2.17210310597E-04	8.89253525837E+01	1.65404294014E-04	9.00168890229E+01	1.87075261056E-01	-6.93627695635E+01
7.64068136273E+10	1.31832824294E-01	-6.43859561513E+01	1.40484864505E-04	6.82055954569E+01	1.36145988402E-04	1.02349598743E+02	1.85090860080E-01	-6.89835895247E+01
7.64128256513E+10	1.31040258161E-01	-6.53253388697E+01	1.97512550531E-04	8.52974929339E+01	1.84146598016E-04	1.08657283382E+02	1.86296566794E-01	-6.96213291562E+01
7.64188376754E+10	1.30764873427E-01	-6.66764341114E+01	2.12130160366E-04	6.33408452501E+01	2.23929258817E-04	8.88077248061E+01	1.85785344482E-01	-6.87133961321E+01
7.64248496994E+10	1.30338804864E-01	-6.66664057687E+01	1.30190150561E-04	6.20451983834E+01	1.78953571523E-04	5.29221825506E+01	1.85903217389E-01	-7.00389132380E+01
7.64308617234E+10	1.30068020522E-01	-6.46730757977E+01	1.19229404718E-04	4.86568594076E+01	2.37876090695E-04	6.97797216405E+01	1.86122326034E-01	-7.02576108590E+01
7.64368737475E+10	1.30244881242E-01	-6.59926483512E+01	1.38989594014E-04	4.27235497707E+01	1.82892370625E-04	6.38766612991E+01	1.88815476925E-01	-7.12655315188E+01
7.64428857715E+10	1.31014845823E-01	-6.80352726692E+01	1.68364763290E-04	7.20668439274E+01	1.94703623996E-04	5.08232478608E+01	1.84395539750E-01	-6.93846988157E+01
7.64488977956E+10	1.29993271499E-01	-6.86870949397E+01	1.47172674571E-04	6.74068827777E+01	1.46317432449E-04	5.05421837382E+01	1.84646663969E-01	-6.96574838745E+01
7.64549098196E+10	1.27815795005E-01	-6.65287829487E+01	1.73724590803E-04	5.25691326785E+01	2.38882045079E-04	6.39719998551E+01	1.85509981393E-01	-7.03039341444E+01
7.64609218437E+10	1.27126590933E-01	-6.53942834242E+01	1.76983840190E-04	4.19311726345E+01	3.15277397452E-04	5.24353737075E+01	1.85273629657E-01	-7.12260772098E+01
7.64669338677E+10	1.28804847244E-01	-6.84184675881E+01	2.80082371126E-04	4.64325196076E+01	1.87302704614E-04	5.23861690089E+01	1.84746340864E-01	-7.16018592696E+01
7.64729458918E+10	1.29461678672E-01	-6.87422890122E+01	2.58284749873E-04	2.04815224780E+01	2.02463030986E-04	5.31061190079E+01	1.85131544964E-01	-7.15667916699E+01
7.64789579158E+10	1.28587370166E-01	-6.58457458028E+01	2.89934853035E-04	1.38397036881E+01	1.90271482905E-04	2.25248509804E+01	1.85210360829E-01	-7.19314071356E+01
7.64849699399E+10	1.28914702452E-01	-6.70944559160E+01	2.56830029838E-04	1.12624237914E+01	1.74800350519E-04	2.99189988020E+01	1.83363057105E-01	-7.10558377624E+01
7.64909819639E+10	1.27352673404E-01	-6.67519169168E+01	1.87579717016E-04	3.41361090989E+01	2.20061728513E-04	2.62346211648E+01	1.84910310068E-01	-7.26916596340E+01
7.64969939880E+10	1.28077098162E-01	-6.92070808414E+01	2.25887071970E-04	-1.47628898690E+01	2.10628432305E-04	5.15415333536E+00	1.82696610023E-01	-7.25304750588E+01
7.65030060120E+10	1.27477996367E-01	-6.97696012652E+01	2.49258583840E-04	-1.01015685997E+01	2.41870051077E-04	-8.51135145992E+00	1.83471566159E-01	-7.28721898119E+01
7.65090180361E+10	1.28242570771E-01	-6.86606616355E+01	1.38088523951E-04	-2.07580235454E+01	2.33263855680E-04	-8.89417639873E+00	1.81034686725E-01	-7.20446896447E+01
7.65150300601E+10	1.26313181919E-01	-6.66283110185E+01	2.03577598025E-04	-1.62933647466E+01	2.55184211559E-04	-2.66521173701E+01	1.81516379710E-01	-7.31320484157E+01
7.65210420842E+10	1.26683485938E-01	-6.97274426533E+01	2.55131125501E-04	-4.75555549662E+01	2.32401664111E-04	-5.13604269259E+01	1.84328283170E-01	-7.46022184457E+01
7.65270541082E+10	1.25752503254E-01	-6.89965511632E+01	2.16270709751E-04	-5.16466657670E+01	2.16407996482E-04	-4.66298634065E+01	1.82595728697E-01	-7.38748874670E+01
7.65330661323E+10	1.27447817959E-01	-6.99605943557E+01	1.49666068099E-04	-3.29906804931E+01	2.34929024887E-04	-5.27196729874E+01	1.81602369973E-01	-7.38507963459E+01
7.65390781563E+10	1.26254755799E-01	-6.87467196747E+01	1.72331385671E-04	-3.68698698874E+01	1.48331112330E-04	-4.66752375658E+01	1.81153511850E-01	-7.49069635999E+01
7.65450901804E+10	1.26529070434E-01	-6.78104700336E+01	1.84249145197E-04	-4.35862586424E+01	2.11025627705E-04	-5.78187606574E+01	1.81113003470E-01	-7.52101987015E+01
7.65511022044E+10	1.25749295416E-01	-6.93609755647E+01	1.78676100145E-04	-6.96375636110E+01	2.38182823998E-04	-5.09907554025E+01	1.80038693916E-01	-7.52519384910E+01
7.65571142285E+10	1.23533418065E-01	-6.71415642677E+01	1.62348334667E-04	-7.41609061488E+01	1.85995419740E-04	-4.55290511106E+01	1.80738996523E-01	-7.53082989612E+01
7.65631262525E+10	1.24367220813E-01	-6.87308725232E+01	1.68419054734E-04	-6.13393762253E+01	1.41164894306E-04	-5.98254915354E+01	1.81271522060E-01	-7.62122794846E+01
7.65691382766E+10	1.25157253167E-01	-7.05848173610E+01	1.93370726631E-04	-6.24324737810E+01	2.17696242920E-04	-4.10189556371E+01	1.78370110488E-01	-7.63256977402E+01
7.65751503006E+10	1.24971145696E-01	-7.08112195025E+01	2.88250978215E-04	-7.74934651121E+01	2.26875193689E-04	-4.88518478817E+01	1.79213530544E-01	-7.62834526300E+01
7.65811623246E+10	1.24505987268E-01	-7.06275260186E+01	2.92102329205E-04	-6.27706565373E+01	2.81288020990E-04	-6.63615477141E+01	1.79276113225E-01	-7.65709643669E+01
7.65871743487E+10	1.21858640255E-01	-6.75835895158E+01	3.43740503642E-04	-8.25691670141E+01	3.51806445331E-04	-7.35727116958E+01	1.80821970526E-01	-7.85155078549E+01
7.65931863727E+10	1.21670850380E-01	-6.73453477188E+01	2.90871286794E-04	-1.17418573888E+02	2.54752803467E-04	-9.35171407438E+01	1.79682256470E-01	-7.86377205415E+01
7.65991983968E+10	1.23407597510E-01	-6.96540361950E+01	2.35065775480E-04	-1.18099191700E+02	2.74639892525E-04	-8.72681420808E+01	1.77316126470E-01	-7.71491386403E+01
7.66052104208E+10	1.22201235355E-01	-6.92633358248E+01	2.61814993870E-04	-1.02189611304E+02	2.43954378738E-04	-8.36029580881E+01	1.76058459687E-01	-7.76941515436E+01
7.66112224449E+10	1.21387324277E-01	-6.98439216877E+01	2.16006054844E-04	-1.16407388295E+02	2.53570183025E-04	-1.07484605068E+02	1.77963034124E-01	-7.91597073744E+01
7.66172344689E+10	1.22486909603E-01	-6.98464204032E+01	3.16988200240E-04	-1.19978076906E+02	2.66241168062E-04	-1.13131398327E+02	1.78365569727E-01	-7.99569548895E+01
7.66232464930E+10	1.22619135271E-01	-7.01218403223E+01	2.58556957608E-04	-1.40407127657E+02	2.12430528113E-04	-1.33917881980E+02	1.77936387897E-01	-8.02923919373E+01
7.66292585170E+10	1.21780626482E-01	-6.91626226485E+01	2.09944423317E-04	-1.44530860743E+02	2.31354750609E-04	-1.48054190160E+02	1.76057074604E-01	-8.03130138553E+01
7.66352705411E+10	1.20586928439E-01	-6.81932834506E+01	2.91000793601E-04	-1.44077663402E+02	2.72708358736E-04	-1.49226367927E+02	1.74265747151E-01	-7.97786546187E+01
7.66412825651E+10	1.22509435715E-01	-7.11290447498E+01	2.63474785373E-04	-1.41769849190E+02	2.26118264258E-04	-1.40196475148E+02	1.73493783879E-01	-7.96883834916E+01
7.66472945892E+10	1.21068932227E-01	-7.05169061996E+01	1.90363491344E-04	-1.66034905660E+02	2.57822217562E-04	-1.66249689799E+02	1.73613864952E-01	-7.97659934750E+01
7.66533066132E+10	1.20052588300E-01	-6.84102787471E+01	1.93061360699E-04	-1.70529753189E+02	2.40768220905E-04	-1.70159712673E+02	1.75313720701E-01	-8.14564435861E+01
7.66593186373E+10	1.17958333847E-01	-6.80085895281E+01	2.29879054770E-04	-1.78528904798E+02	1.85957422559E-04	-1.61264594325E+02	1.74368065231E-01	-8.27270133588E+01
7.66653306613E+10	1.21942462179E-01	-7.11565127835E+01	2.15666374433E-04	-1.72646933696E+02	1.99195228803E-04	-1.72283212998E+02	1.73196246210E-01	-8.18767128144E+01
7.66713426854E+10	1.19983372187E-01	-6.88981877087E+01	2.33560852409E-04	-1.67355187244E+02	2.61409199391E-04	-1.64721279114E+02	1.71439131295E-01	-8.12485340954E+01
7.66773547094E+10	1.20466318550E-01	-6.94784599752E+01	2.06818385508E-04	1.74476293482E+02	2.55320930043E-04	-1.74435330419E+02	1.69602667134E-01	-8.20615108295E+01
7.66833667335E+10	1.19887483288E-01	-6.92645781834E+01	1.76090147545E-04	1.59630901900E+02	2.64458264402E-04	1.68110096770E+02	1.71418540047E-01	-8.17954558152E+01
7.66893787575E+10	1.18873325346E-01	-7.01186048134E+01	2.49033773774E-04	1.38912852332E+02	2.42058736344E-04	1.67277066215E+02	1.70952282550E-01	-8.32701260107E+01
7.66953907816E+10	1.20191411948E-01	-7.01024540726E+01	2.83215701773E-04	1.62038210079E+02	2.53963616919E-04	1.64976676646E+02	1.69654365562E-01	-8.25242791657E+01
7.67014028056E+10	1.20167876400E-01	-6.92601642221E+01	2.50713442350E-04	1.39818000326E+02	2.27116388927E-04	1.57577409703E+02	1.69089109533E-01	-8.33939350146E+01
7.67074148297E+10	1.19408344531E-01	-6.89934751778E+01	2.17519284052E-04	1.50093166722E+02	2.00531620184E-04	1.52946391027E+02	1.69431363078E-01	-8.46339859815E+01
7.67134268537E+10	1.20309997982E-01	-7.12059628089E+01	3.03026542844E-04	1.38684813433E+02	2.05782599588E-04	1.40635632121E+02	1.67989274869E-01	-8.50028300962E+01
7.67194388778E+10	1.21337570478E-01	-7.20723859710E+01	2.76188134782E-04	1.20525144884E+02	2.55858176776E-04	1.40268785708E+02	1.67092882971E-01	-8.48479015506E+01
7.67254509018E+10	1.21007947913E-01	-7.20001138859E+01	2.35964711283E-04	1.01073615056E+02	2.01226453943E-04	1.15217604883E+02	1.66730642689E-01	-8.43649742111E+01
7.67314629259E+10	1.18837261145E-01	-7.06694606109E+01	2.00734502039E-04	1.06263100165E+02	2.20888171491E-04	1.00837347298E+02	1.66863552650E-01	-8.45992456739E+01
7.67374749499E+10	1.19448292265E-01	-6.96264315311E+01	2.22904641659E-04	9.24850581391E+01	2.02191041379E-04	1.10168457229E+02	1.64082667764E-01	-8.46262247490E+01
7.67434869739E+10	1.19915679640E-01	-6.96654338822E+01	1.67659009513E-04	1.09143179429E+02	1.85314152719E-04	1.25032267696E+02	1.63553947991E-01	-8.51414454805E+01
7.67494989980E+10	1.18945250710E-01	-6.98663183737E+01	1.68300143679E-04	8.96956692542E+01	1.91286255476E-04	9.69745735951E+01	1.63196897044E-01	-8.55128879118E+01
7.67555110220E+10	1.16358338251E-01	-6.95744980011E+01	1.65991591019E-04	7.74518151032E+01	2.32044710884E-04	1.01807151491E+02	1.64428468300E-01	-8.71242895424E+01
7.67615230461E+10	1.18804567932E-01	-7.12609537796E+01	2.59970349423E-04	8.09877417585E+01	1.89933315178E-04	1.09911043923E+02	1.61915624283E-01	-8.59933269127E+01
7.67675350701E+10	1.18605327778E-01	-7.13038366254E+01	2.46221054777E-04	7.24809029117E+01	2.34828467875E-04	9.03478928664E+01	1.61189582280E-01	-8.75879921704E+01
7.67735470942E+10	1.17483690002E-01	-6.91733796638E+01	2.10605487916E-04	6.66793036314E+01	2.00244145829E-04	7.89865962368E+01	1.60543113445E-01	-8.73355453889E+01
7.67795591182E+10	1.20199855317E-01	-7.13739730946E+01	2.22095511666E-04	5.09907142724E+01	2.20760888810E-04	7.28811695187E+01	1.60084960341E-01	-8.78139260055E+01
7.67855711423E+10	1.18947446175E-01	-6.98574497931E+01	1.89236840412E-04	4.62626737998E+01	1.76562856012E-04	3.53461093208E+01	1.58118233623E-01	-8.68245957365E+01
7.67915831663E+10	1.17515926706E-01	-7.15346305218E+01	1.90355718578E-04	3.49457252854E+01	1.83280461926E-04	5.91994997815E+01	1.59585364687E-01	-8.85874100909E+01
7.67975951904E+10	1.18501267038E-01	-7.06305557984E+01	1.71720020205E-04	-1.11380990150E+00	1.70735402334E-04	5.39400116622E+01	1.58378532710E-01	-8.88559445759E+01
7.68036072144E+10	1.16504785213E-01	-7.15410122442E+01	1.13306753687E-04	-9.54289363873E+00	1.78224706533E-04	2.71026328308E+01	1.58265486849E-01	-8.97105537838E+01
7.68096192385E+10	1.19117562959E-01	-7.28616166969E+01	1.31573566072E-04	3.38053742964E+01	1.70688218915E-04	6.68212636213E+01	1.57755063026E-01	-8.98939317828E+01
7.68156312625E+10	1.18131984964E-01	-7.16950086900E+01	8.87967311059E-05	4.96818881808E+01	1.58593611824E-04	4.38836236779E+01	1.55459547109E-01	-8.92959142419E+01
7.68216432866E+10	1.17207760912E-01	-7.10302979824E+01	1.60393379255E-04	1.34839169307E+01	2.08179595669E-04	3.55562226213E+01	1.53570149581E-01	-8.91379254169E+01
7.68276553106E+10	1.15382901004E-01	-7.05301831956E+01	1.62177803288E-04	1.66652014844E+01	1.66088827887E-04	2.94493574422E+01	1.53360363033E-01	-8.87711545364E+01
7.68336673347E+10	1.18106197897E-01	-7.26786804982E+01	1.66742314902E-04	7.69363861486E+00	1.53746034077E-04	5.23747490280E+01	1.53616183987E-01	-8.97095354189E+01
7.68396793587E+10	1.17682546622E-01	-7.12280919045E+01	1.13844378972E-04	-1.62551959158E+01	1.48210105325E-04	3.65354172531E+01	1.52468629953E-01	-9.13099060687E+01
7.68456913828E+10	1.18425040937E-01	-7.25405252398E+01	1.14670340270E-04	-6.76903670489E+00	1.24352708792E-04	1.89847200800E+01	1.51592174666E-01	-9.02428491488E+01
7.68517034068E+10	1.17978234242E-01	-7.23249240209E+01	8.60717521809E-05	2.66519749704E+01	1.83268338331E-04	-9.88841539023E+00	1.50431156164E-01	-9.12166317524E+01
7.68577154309E+10	1.13780136913E-01	-7.07496394461E+01	9.37422683859E-05	2.81236212676E+01	1.85504244362E-04	7.14015597390E+00	1.50008812584E-01	-9.08945355542E+01
7.68637274549E+10	1.17149816652E-01	-7.20231685125E+01	7.81522971957E-05	3.74859515464E+00	2.07434893514E-04	1.84401174598E+01	1.49507283284E-01	-9.04720290500E+01
7.68697394790E+10	1.16883744522E-01	-7.23911944920E+01	1.31102295470E-04	1.39382305931E-01	1.00642098656E-04	7.67376226026E+00	1.50293816813E-01	-9.26003291455E+01
7.68757515030E+10	1.17072084868E-01	-7.17590599187E+01	1.67608855720E-04	5.15558708141E+00	1.38908305531E-04	6.81872400974E-01	1.48145305401E-01	-9.26663877277E+01
7.68817635271E+10	1.17056567998E-01	-7.15770427863E+01	9.34922942378E-05	8.11037841033E+00	1.58458602259E-04	-1.02913523911E+01	1.45754357800E-01	-9.29421241606E+01
7.68877755511E+10	1.15677359121E-01	-7.17220426379E+01	1.18531572592E-04	-3.95518913323E+01	1.14876273550E-04	-2.16995052497E+01	1.45318794284E-01	-9.26464715669E+01
7.68937875752E+10	1.17967789048E-01	-7.32378751894E+01	7.21504301537E-05	-5.14470108222E+01	6.04074808460E-05	-5.72348282667E+00	1.44433836752E-01	-9.21299319230E+01
7.68997995992E+10	1.16119312733E-01	-7.28662850882E+01	7.23524288419E-05	-2.79915357561E+01	7.75240697917E-05	-2.49535516231E+01	1.44251055483E-01	-9.33102520200E+01
7.69058116232E+10	1.15726829802E-01	-7.23831047074E+01	8.14443173630E-05	-7.75119969557E+01	1.49385258310E-04	-1.15871655966E+01	1.43543959417E-01	-9.41688525648E+01
7.69118236473E+10	1.14537174122E-01	-7.26616587744E+01	1.57705458513E-04	-1.09019860854E+01	1.23213885661E-04	-7.95522595280E+00	1.42654461231E-01	-9.40218101646E+01
7.69178356713E+10	1.17872211761E-01	-7.43376903853E+01	1.59468973696E-04	-3.56725657561E+01	1.42813034832E-04	1.23824071789E+01	1.41447113146E-01	-9.41619023594E+01
7.69238476954E+10	1.16743347574E-01	-7.41603398425E+01	2.15754492274E-04	-3.24274974062E+01	1.35201572269E-04	-5.29699172429E+01	1.41875082608E-01	-9.51947121201E+01
7.69298597194E+10	1.18971103847E-01	-7.52748194462E+01	7.68994203014E-05	-4.50704600995E+01	1.88163650879E-04	-2.54240392106E+01	1.40055636410E-01	-9.39533702990E+01
7.69358717435E+10	1.14928450134E-01	-7.38980812207E+01	6.98713365566E-05	-8.55818250393E+01	1.69254122192E-04	-3.34214727045E+01	1.39428730811E-01	-9.41613274661E+01
7.69418837675E+10	1.14634241412E-01	-7.31925286455E+01	6.13995114488E-05	-5.43989689693E+01	9.83962481168E-05	-3.71448760286E+00	1.37864287374E-01	-9.47381555304E+01
7.69478957916E+10	1.15719725326E-01	-7.28711507743E+01	1.53143530319E-04	-3.52478206117E+01	1.40308476921E-04	-1.52907773282E+01	1.36848881669E-01	-9.56962423898E+01
7.69539078156E+10	1.14398182693E-01	-7.22016026846E+01	1.70090562520E-04	-1.57902785869E+01	2.02176496493E-04	-3.69048710970E+01	1.36689081160E-01	-9.38724216564E+01
7.69599198397E+10	1.13828527651E-01	-7.25923617534E+01	1.94875464019E-04	-3.58441460773E+01	2.26036936880E-04	-4.00181850031E+01	1.36360928995E-01	-9.48619351491E+01
7.69659318637E+10	1.16323994438E-01	-7.45995402375E+01	1.94016788551E-04	-6.70829127386E+01	1.94684882946E-04	-7.58998924784E+01	1.34686447851E-01	-9.72216537148E+01
7.69719438878E+10	1.14870904342E-01	-7.48174052827E+01	1.35062788904E-04	-3.87521427213E+01	2.17749297116E-04	-5.63803542967E+01	1.33645919550E-01	-9.65083670922E+01
7.69779559118E+10	1.15042348256E-01	-7.44596962398E+01	1.93766123199E-04	-6.29046900603E+01	1.60300589012E-04	-6.47207424490E+01	1.31730959538E-01	-9.61358342508E+01
7.69839679359E+10	1.14204624081E-01	-7.40034046935E+01	2.22794879107E-04	-5.72056602810E+01	1.84731286883E-04	-5.62091203731E+01	1.30420085429E-01	-9.48378674905E+01
7.69899799599E+10	1.13357941920E-01	-7.31554008125E+01	1.57245988945E-04	-8.25292312506E+01	1.60371796379E-04	-8.66798787248E+01	1.30761810278E-01	-9.70823046620E+01
7.69959919840E+10	1.12057897029E-01	-7.21315730622E+01	2.02845094208E-04	-6.60983871657E+01	2.43378996270E-04	-8.53168745357E+01	1.30467093301E-01	-9.73943214499E+01
7.70020040080E+10	1.14008255029E-01	-7.43807640170E+01	1.80395295466E-04	-1.15691016108E+02	3.02373468636E-04	-9.33962907016E+01	1.29630966461E-01	-9.65027513396E+01
7.70080160321E+10	1.14985699176E-01	-7.53998825008E+01	1.74281366858E-04	-1.32820990995E+02	1.86100519312E-04	-1.06322754797E+02	1.28276684497E-01	-9.67161320075E+01
7.70140280561E+10	1.14231462940E-01	-7.28988331758E+01	1.22511761980E-04	-1.33068081841E+02	9.77390869240E-05	-8.49194115299E+01	1.26679908634E-01	-9.68121608714E+01
7.70200400802E+10	1.13504645953E-01	-7.30494518746E+01	1.37178163805E-04	-7.52925724459E+01	7.99001828410E-05	-1.09414324037E+02	1.26627569591E-01	-9.73330347403E+01
7.70260521042E+10	1.13392536517E-01	-7.50069969566E+01	2.25862640164E-04	-8.62900722972E+01	1.91641452219E-04	-1.00230531706E+02	1.24591155118E-01	-9.63904596601E+01
7.70320641283E+10	1.13158595399E-01	-7.42609922676E+01	2.16680762840E-04	-9.96756657177E+01	2.18040603009E-04	-1.01729007516E+02	1.23648511919E-01	-9.70950167916E+01
7.70380761523E+10	1.14068857585E-01	-7.37150882131E+01	2.60632355965E-04	-1.04261204912E+02	3.16835425438E-04	-1.12433359608E+02	1.25207713337E-01	-9.83492281567E+01
7.70440881764E+10	1.12544411341E-01	-7.37777799743E+01	3.28491604110E-04	-1.29056919991E+02	3.68148258566E-04	-1.38197045268E+02	1.24009242121E-01	-9.87458235991E+01
7.70501002004E+10	1.13227745977E-01	-7.34789041483E+01	3.05955952583E-04	-1.54845677607E+02	3.43859571849E-04	-1.40412964927E+02	1.21837363688E-01	-9.87445859896E+01
7.70561122244E+10	1.14965857485E-01	-7.42644348673E+01	2.01343505155E-04	-1.68035898216E+02	3.15524288176E-04	-1.56671272863E+02	1.19368277367E-01	-9.66491529603E+01
7.70621242485E+10	1.15249865372E-01	-7.53437779147E+01	2.02865378827E-04	-1.69282770381E+02	2.25661953002E-04	-1.49671352147E+02	1.19510875287E-01	-9.97876739281E+01
7.70681362725E+10	1.12709729052E-01	-7.37861801499E+01	1.76518263457E-04	-1.55646776252E+02	2.71222183914E-04	-1.57876467713E+02	1.19729011908E-01	-9.93834483971E+01
7.70741482966E+10	1.13280296905E-01	-7.40179948226E+01	2.33696136685E-04	-1.62038245776E+02	2.95444864701E-04	-1.66114050099E+02	1.19119225921E-01	-9.81989297889E+01
7.70801603206E+10	1.13612065086E-01	-7.39153615321E+01	2.96545010681E-04	-1.75708982644E+02	3.20715969050E-04	-1.71195810480E+02	1.17471123521E-01	-9.71686088004E+01
7.70861723447E+10	1.12741130041E-01	-7.48505673174E+01	2.87448398993E-04	1.77141645552E+02	2.91027988004E-04	1.72675044903E+02	1.17089566330E-01	-9.79455073621E+01
7.70921843687E+10	1.12003419687E-01	-7.33971995619E+01	2.84339018793E-04	1.71800163615E+02	3.15611361011E-04	1.63548427187E+02	1.15935478894E-01	-1.00677468883E+02
7.70981963928E+10	1.14398663216E-01	-7.39137768765E+01	2.07111834408E-04	1.55495417421E+02	2.78492184289E-04	1.60054050320E+02	1.14684990312E-01	-9.81889518545E+01
7.71042084168E+10	1.14637376098E-01	-7.41556528879E+01	2.38875068430E-04	1.42585401064E+02	2.64060194952E-04	1.66019941912E+02	1.13932324448E-01	-9.93411697874E+01
7.71102204409E+10	1.15532813208E-01	-7.47978646069E+01	2.02451353337E-04	1.47361176075E+02	2.67752888159E-04	1.49803988860E+02	1.13142938865E-01	-9.96938447715E+01
7.71162324649E+10	1.13986493437E-01	-7.43657665555E+01	2.68299221985E-04	1.36022832548E+02	2.75770701472E-04	1.34562094338E+02	1.11333469283E-01	-9.94997841989E+01
7.71222444890E+10	1.12913922935E-01	-7.52284583099E+01	2.34217209123E-04	1.31093428942E+02	2.79528025872E-04	1.27946283018E+02	1.11798316165E-01	-9.94842760650E+01
7.71282565130E+10	1.13576771773E-01	-7.39228036656E+01	2.97169828649E-04	1.35829428861E+02	2.76540961060E-04	1.26057931899E+02	1.09675419907E-01	-9.98136278513E+01
7.71342685371E+10	1.13114451991E-01	-7.29082074103E+01	2.35607846015E-04	1.18752526711E+02	2.81363858209E-04	1.06768030008E+02	1.08965428925E-01	-1.00969234687E+02
7.71402805611E+10	1.16889929520E-01	-7.56181889988E+01	2.04642129259E-04	1.03285314729E+02	2.17806894686E-04	1.13467665672E+02	1.09245987733E-01	-1.01617615175E+02
7.71462925852E+10	1.12686064392E-01	-7.51305205925E+01	1.87765131237E-04	1.18848497770E+02	2.69671411318E-04	1.02432030959E+02	1.08657047237E-01	-1.01948274909E+02
7.71523046092E+10	1.13159542428E-01	-7.43530325543E+01	1.78708665714E-04	1.20230422267E+02	2.92579126009E-04	1.05192280117E+02	1.05781355509E-01	-9.90974512121E+01
7.71583166333E+10	1.15094337777E-01	-7.46146123074E+01	2.11563856819E-04	1.03289527441E+02	2.86695610468E-04	1.05921636439E+02	1.05777265124E-01	-1.00041015900E+02
7.71643286573E+10	1.14005357203E-01	-7.47820080082E+01	3.11435191538E-04	9.12991757018E+01	3.23428839363E-04	9.34319884643E+01	1.05770800565E-01	-1.00769002668E+02
7.71703406814E+10	1.13703390370E-01	-7.66804471492E+01	2.79245105092E-04	8.68129374929E+01	3.38995203387E-04	7.96277618667E+01	1.03647615708E-01	-1.00986578568E+02
7.71763527054E+10	1.13226631857E-01	-7.64127911916E+01	2.67622314969E-04	7.13514497550E+01	3.06539227069E-04	7.00284337054E+01	1.04216649601E-01	-9.98813204326E+01
7.71823647295E+10	1.12770744696E-01	-7.46314789243E+01	1.94102736095E-04	6.09143239034E+01	2.78197399729E-04	6.66975776658E+01	1.01905780566E-01	-9.90038652066E+01
7.71883767535E+10	1.12989374784E-01	-7.43440868207E+01	2.16477668731E-04	6.87459755819E+01	2.44063828374E-04	5.74516545522E+01	1.00736692642E-01	-9.84871987074E+01
7.71943887776E+10	1.12751175824E-01	-7.51819117439E+01	2.09789218206E-04	5.88002779216E+01	2.53834064756E-04	5.53810637758E+01	1.00821699460E-01	-1.01064393113E+02
7.72004008016E+10	1.12718410969E-01	-7.55792239796E+01	2.56202435265E-04	5.44826972496E+01	2.79053877113E-04	4.99040267207E+01	1.00806906676E-01	-1.01848782549E+02
7.72064128257E+10	1.13613021629E-01	-7.53088070433E+01	2.29322106413E-04	3.31482412816E+01	2.51418571332E-04	3.04314366099E+01	9.90756184448E-02	-1.00120325052E+02
7.72124248497E+10	1.14115338717E-01	-7.66708772814E+01	2.71116002023E-04	1.54333752931E+01	2.36598670401E-04	2.72655942507E+01	9.76534169147E-02	-9.92661916533E+01
7.72184368737E+10	1.14977650350E-01	-7.77653131370E+01	2.39393617724E-04	2.18858815181E+01	1.58774207758E-04	1.84495886962E+01	9.60762633088E-02	-9.93806853728E+01
7.72244488978E+10	1.14643708170E-01	-7.55275431619E+01	2.19688901185E-04	3.28395111525E+01	1.27372610542E-04	4.55800006148E-01	9.76922873239E-02	-1.00138727365E+02
7.72304609218E+10	1.13940893301E-01	-7.57909279185E+01	1.90508675229E-04	1.43703738741E+01	1.58255586438E-04	2.02555704570E+00	9.62846839138E-02	-9.98760342760E+01
7.72364729459E+10	1.14367215483E-01	-7.63824904453E+01	1.48755406930E-04	9.33396500428E+00	1.19928415750E-04	-4.91824662524E+00	9.45395452001E-02	-9.82251759050E+01
7.72424849699E+10	1.14683068321E-01	-7.71181764955E+01	1.61479263584E-04	-4.61038061689E+00	1.47442091065E-04	5.98118282554E+00	9.46634945217E-02	-9.82585846322E+01
7.72484969940E+10	1.14172971343E-01	-7.84425328677E+01	1.48163168884E-04	-3.31118138039E+00	1.16870710670E-04	2.23203591724E+01	9.31127232650E-02	-9.82369915811E+01
7.72545090180E+10	1.13258621026E-01	-7.61320539368E+01	1.78562150808E-04	-2.31627886980E+00	1.25312026693E-04	1.96149630224E+01	9.29219057190E-02	-9.99356800694E+01
7.72605210421E+10	1.12457805330E-01	-7.74226981479E+01	1.91118288394E-04	-1.61817428621E+01	1.67161585532E-04	1.02993743725E+01	9.22367504779E-02	-1.00310565008E+02
7.72665330661E+10	1.13984792691E-01	-7.65115033263E+01	1.82019455438E-04	-2.01190402087E+01	1.93661847401E-04	-9.73675357447E+00	9.23705377975E-02	-1.00374169866E+02
7.72725450902E+10	1.13964335123E-01	-7.82318516894E+01	1.27486663955E-04	-1.32646880723E+01	1.44381530900E-04	-8.52499900358E+00	9.08261407964E-02	-9.72283413488E+01
7.72785571142E+10	1.15112181774E-01	-7.84510579045E+01	1.74005392525E-04	-2.98869692695E+01	9.39820933383E-05	2.13148290808E+01	8.99865360172E-02	-9.85083402918E+01
7.72845691383E+10	1.13509272328E-01	-7.92583858711E+01	1.67998124831E-04	-2.59268125226E+01	1.46853754503E-04	-7.84481297495E+00	8.83806512101E-02	-9.70946486185E+01
7.72905811623E+10	1.12500607004E-01	-7.71691951045E+01	2.17540741927E-04	-3.58877687504E+01	1.42825784122E-04	-7.36912153746E+00	8.91901972117E-02	-9.96345545777E+01
7.72965931864E+10	1.12262047731E-01	-7.60885544288E+01	1.91729032259E-04	-3.43237374377E+01	2.12111200917E-04	-3.04699776733E+01	8.81268654121E-02	-1.00115873426E+02
7.73026052104E+10	1.12900054659E-01	-7.61314697786E+01	2.18608354898E-04	-3.08267321696E+01	1.68187412456E-04	-2.79085773472E+01	8.75027684056E-02	-9.89236472761E+01
7.73086172345E+10	1.13075561613E-01	-7.61245906200E+01	1.40016108099E-04	-5.67899163042E+01	1.37453907185E-04	-5.84157879645E+01	8.55485849808E-02	-9.60424216105E+01
7.73146292585E+10	1.13615166437E-01	-7.64841887364E+01	2.11195108267E-04	-6.16714640530E+01	1.94918661477E-04	-4.99966130401E+01	8.50842007992E-02	-9.66488600749E+01
7.73206412826E+10	1.14966251852E-01	-7.89894535376E+01	1.65868551527E-04	-7.28693824341E+01	1.82638594837E-04	-6.17490761419E+01	8.50766625471E-02	-9.87963390650E+01
7.73266533066E+10	1.11924563064E-01	-7.69903069979E+01	1.02406055055E-04	-7.64580184345E+01	1.41791972892E-04	-5.75887041577E+01	8.37564207300E-02	-9.78942459690E+01
7.73326653307E+10	1.13706045943E-01	-7.97901756863E+01	1.15776575580E-04	-5.60396811419E+01	1.22059349714E-04	-4.88327478347E+01	8.30383894938E-02	-9.82386856349E+01
7.73386773547E+10	1.13666286019E-01	-7.97902747453E+01	1.43020300313E-04	-4.62729301571E+01	1.02789919166E-04	-3.97833519843E+01	8.19407973687E-02	-9.70408573757E+01
7.73446893788E+10	1.12065428270E-01	-7.81661012838E+01	1.51588905732E-04	-4.09973766872E+01	2.04550039924E-04	-5.35529379805E+01	8.12455778367E-02	-9.70166138769E+01
7.73507014028E+10	1.13461218655E-01	-7.87886561751E+01	1.47016442876E-04	-7.20626058212E+01	1.38871597799E-04	-7.98586527319E+01	8.20653377892E-02	-9.65265092319E+01
7.73567134269E+10	1.11182228465E-01	-7.83983675522E+01	1.98312100579E-04	-9.85451067536E+01	1.37763316384E-04	-7.20130089101E+01	8.04617235888E-02	-9.51611316103E+01
7.73627254509E+10	1.11381399922E-01	-7.87755546344E+01	1.33017626023E-04	-1.12608118437E+02	1.66031783867E-04	-8.85455925682E+01	8.02414984886E-02	-9.56613936947E+01
7.73687374749E+10	1.14310481623E-01	-7.94725323112E+01	1.55010907974E-04	-1.10093214672E+02	1.46582127921E-04	-7.97817949272E+01	8.01019012234E-02	-9.57432967237E+01
7.73747494990E+10	1.13513346521E-01	-7.91089377307E+01	1.58326519252E-04	-1.36181646437E+02	1.08232369177E-04	-9.16737643901E+01	7.87791214618E-02	-9.50458998837E+01
7.73807615230E+10	1.11950859926E-01	-7.96605183427E+01	8.92986146287E-05	-1.10335041160E+02	1.10127429870E-04	-7.90430262128E+01	7.87205910922E-02	-9.62560963502E+01
7.73867735471E+10	1.12721620542E-01	-7.91202286272E+01	5.47541091362E-05	-1.56748844312E+02	1.52012328610E-04	-7.26517725724E+01	7.72993328617E-02	-9.50617208362E+01
7.73927855711E+10	1.13464611976E-01	-7.86567442792E+01	7.92971008586E-05	-8.84313497246E+01	1.25706943026E-04	-7.68474836079E+01	7.59625690282E-02	-9.34541761252E+01
7.73987975952E+10	1.12918292470E-01	-7.81196532679E+01	1.36119281998E-04	-9.09886814998E+01	1.89733992527E-04	-1.04219442912E+02	7.58777440533E-02	-9.32114013791E+01
7.74048096192E+10	1.13244734251E-01	-7.82657366060E+01	1.21213104001E-04	-9.33149148022E+01	1.81758642588E-04	-1.12574084553E+02	7.53626448170E-02	-9.32740486398E+01
7.74108216433E+10	1.13271364661E-01	-7.80426888892E+01	1.78056948156E-04	-1.27393704640E+02	1.96698274491E-04	-1.05588989393E+02	7.56672774798E-02	-9.36592896359E+01
7.74168336673E+10	1.12483925545E-01	-7.83505280383E+01	2.04133443822E-04	-1.52108794234E+02	2.36562345017E-04	-1.32007510370E+02	7.51202055200E-02	-9.25516439162E+01
7.74228456914E+10	1.12229150997E-01	-7.93013290547E+01	2.59749396297E-04	-1.43149189373E+02	1.74413985148E-04	-1.53546945136E+02	7.37432743034E-02	-9.04208076295E+01
7.74288577154E+10	1.13032725525E-01	-7.96405382673E+01	1.61246563597E-04	-1.48832035901E+02	1.78037957403E-04	-1.25018901703E+02	7.34374254625E-02	-9.02909555058E+01
7.74348697395E+10	1.12179976640E-01	-7.96335374737E+01	1.84760361284E-04	-1.54511859267E+02	1.76814740204E-04	-1.47357560196E+02	7.43384122494E-02	-9.21490509675E+01
7.74408817635E+10	1.12373819754E-01	-7.79770033481E+01	2.00851076285E-04	-1.48819445487E+02	1.80496226602E-04	-1.32251487741E+02	7.36241752067E-02	-9.11502281014E+01
7.74468937876E+10	1.12185981453E-01	-7.99271712486E+01	1.97449104600E-04	-1.72699409993E+02	1.85496804773E-04	-1.57811335994E+02	7.28312991285E-02	-8.98256171100E+01
7.74529058116E+10	1.11987258452E-01	-7.94236942950E+01	1.77779297051E-04	1.67588492633E+02	1.85236734972E-04	-1.69927245917E+02	7.24270410366E-02	-8.76537610557E+01
7.74589178357E+10	1.11368859191E-01	-7.88209565987E+01	1.61168355056E-04	1.60809727274E+02	1.28020718819E-04	-1.78157662215E+02	7.28836456526E-02	-8.94985045822E+01
7.74649298597E+10	1.11342924232E-01	-7.90066800499E+01	9.91307700058E-05	1.70239583817E+02	1.42455120161E-04	-1.66426396795E+02	7.33564584691E-02	-8.99447762392E+01
7.74709418838E+10	1.14472056951E-01	-8.07602506298E+01	1.21985459744E-04	1.55263424733E+02	1.23134679653E-04	1.70248626674E+02	7.17790820827E-02	-8.76874953899E+01
7.74769539078E+10	1.16226302669E-01	-8.21134192383E+01	9.07964058667E-05	1.59415568582E+02	1.63209122287E-04	-1.68735159620E+02	7.15961044445E-02	-8.73410719240E+01
7.74829659319E+10	1.13166889974E-01	-7.88644537012E+01	1.52504183554E-04	1.76640418161E+02	1.90978192299E-04	-1.70623794523E+02	7.22151091242E-02	-8.74040702910E+01
7.74889779559E+10	1.13249502001E-01	-7.93946625320E+01	1.44679425252E-04	1.42605231826E+02	1.69523245433E-04	1.56703810569E+02	7.19991846606E-02	-8.72170006155E+01
7.74949899800E+10	1.12738438553E-01	-7.96605845426E+01	1.59897317228E-04	1.46215671876E+02	1.79957027247E-04	1.68029473594E+02	7.07357678946E-02	-8.56802182629E+01
7.75010020040E+10	1.11520790228E-01	-8.16354254285E+01	1.84828730042E-04	1.51566394541E+02	1.14815384505E-04	1.41864547146E+02	7.06661472032E-02	-8.43477307969E+01
7.75070140281E+10	1.14473157837E-01	-7.94470603130E+01	1.80032846066E-04	1.44058794940E+02	1.71920251747E-04	1.55925053952E+02	7.09733624440E-02	-8.51508243263E+01
7.75130260521E+10	1.14524326049E-01	-8.17438716004E+01	1.65764316107E-04	1.10356451575E+02	1.62903784749E-04	1.59859673524E+02	7.12658001117E-02	-8.50608465708E+01
7.75190380762E+10	1.13231498495E-01	-8.04601173971E+01	2.05147975188E-04	1.11893648994E+02	1.95803221951E-04	1.52952905892E+02	7.17833719702E-02	-8.56505504898E+01
7.75250501002E+10	1.15223786665E-01	-8.25136889974E+01	1.91447302874E-04	1.19710068351E+02	2.43711564864E-04	1.44527671154E+02	7.04775516847E-02	-8.33106872216E+01
7.75310621242E+10	1.12406234459E-01	-8.24478807875E+01	1.35231065441E-04	7.80761693959E+01	2.12749184388E-04	1.10141852817E+02	7.10215240198E-02	-8.26916424389E+01
7.75370741483E+10	1.12142255642E-01	-8.04546092296E+01	1.55599642557E-04	1.03031143191E+02	1.49068047956E-04	1.03059007845E+02	7.12587151086E-02	-8.29326162784E+01
7.75430861723E+10	1.14031393857E-01	-8.23190093458E+01	2.15140355137E-04	7.50184763085E+01	1.80805075724E-04	8.27164627481E+01	7.03647154352E-02	-8.11968646025E+01
7.75490981964E+10	1.14780300109E-01	-8.27352790516E+01	8.01667016833E-05	9.45838300301E+01	2.13671534508E-04	7.93240787955E+01	7.08603922783E-02	-8.17871620677E+01
7.75551102204E+10	1.13701481361E-01	-8.24160287052E+01	1.64964836275E-04	6.74109033756E+01	1.45921764533E-04	7.26370701864E+01	7.07908224730E-02	-8.19717124996E+01
7.75611222445E+10	1.13118531109E-01	-8.01028068783E+01	1.00345702947E-04	3.37806386617E+01	1.81721396103E-04	8.28723482649E+01	7.08852015621E-02	-8.23051356141E+01
7.75671342685E+10	1.13525095103E-01	-8.30213336317E+01	1.15302853743E-04	6.37699320090E+01	1.33615427664E-04	5.74272478313E+01	7.05029514020E-02	-8.04702957531E+01
7.75731462926E+10	1.12093948491E-01	-8.32895704226E+01	1.40027136129E-04	5.52595822491E+01	1.55629909004E-04	6.54508046205E+01	7.02573236613E-02	-7.90226151022E+01
7.75791583166E+10	1.12443565953E-01	-8.30939468609E+01	1.29170508882E-04	4.37114449306E+01	1.36984443194E-04	5.95500514955E+01	7.06327843674E-02	-7.96893685529E+01
7.75851703407E+10	1.12592048670E-01	-8.30402561379E+01	1.70953280091E-04	4.66700833199E+01	1.49045134381E-04	4.06710297163E+01	7.03216718385E-02	-7.87846464607E+01
7.75911823647E+10	1.13911455526E-01	-8.34977363437E+01	1.00169298186E-04	2.57545921747E+01	9.80934520888E-05	3.43407654673E+01	7.00820324947E-02	-7.87327937206E+01
7.75971943888E+10	1.11928363549E-01	-8.08640163249E+01	1.04744519785E-04	5.14201810709E+01	1.49780812008E-04	5.33868398759E+01	7.09992129387E-02	-7.83823988786E+01
7.76032064128E+10	1.12245892755E-01	-8.34612275337E+01	1.69504869615E-04	4.91068672543E+00	1.12664544260E-04	3.79000730644E+01	7.09402776533E-02	-7.71280098106E+01
7.76092184369E+10	1.12792838173E-01	-8.29904927229E+01	1.31946453780E-04	1.78694703918E+01	1.43148543417E-04	1.33989152962E+01	7.10486615449E-02	-7.77753203440E+01
7.76152304609E+10	1.14551105995E-01	-8.16495282190E+01	9.60327791760E-05	2.70735143342E+00	1.13858792494E-04	1.14332822769E+01	7.13922474034E-02	-7.81163947784E+01
7.76212424850E+10	1.12932055296E-01	-8.39442757849E+01	1.35866123877E-04	1.68810701447E+00	6.75297281349E-05	-1.84027949877E+01	7.19727243013E-02	-7.76955644475E+01
7.76272545090E+10	1.12913659407E-01	-8.58109728200E+01	1.15255338582E-04	-4.29977652347E+01	7.33050742312E-05	4.18609141693E+00	7.17454329047E-02	-7.59178852961E+01
7.76332665331E+10	1.13909499954E-01	-8.55503543143E+01	2.07226558273E-05	6.31148720266E+01	5.66601468629E-05	6.67474211298E+00	7.13122060026E-02	-7.42854444141E+01
7.76392785571E+10	1.12110692932E-01	-8.20140060085E+01	6.57377151239E-05	-3.22909645176E+01	9.13065930274E-05	-1.65798141526E+01	7.14056331970E-02	-7.51679191825E+01
7.76452905812E+10	1.12294144635E-01	-8.26758375792E+01	8.05579598370E-05	-3.04539607999E+01	1.04768361302E-04	6.27460118610E+00	7.23749357455E-02	-7.62613593718E+01
7.76513026052E+10	1.12137425864E-01	-8.44512005970E+01	1.42122108013E-04	-5.82883171757E+01	9.65400348221E-05	-9.69741466759E+00	7.24285953391E-02	-7.47232722809E+01
7.76573146293E+10	1.14479726361E-01	-8.47896255226E+01	1.03772355297E-04	-4.51049574858E+01	9.10455240011E-05	-3.32320628225E+01	7.17886570502E-02	-7.25010146323E+01
7.76633266533E+10	1.12914490375E-01	-8.44671922540E+01	9.31619594462E-05	-8.23827432391E+01	5.04107160808E-05	-6.84907060550E+01	7.27122711782E-02	-7.29308080349E+01
7.76693386774E+10	1.12547064313E-01	-8.21465771038E+01	1.12512321913E-04	-1.14871228266E+02	5.35445695501E-05	-6.31324531839E+01	7.33924024257E-02	-7.28379910626E+01
7.76753507014E+10	1.11993631755E-01	-8.46541822816E+01	7.38158660137E-05	-8.52808672373E+01	4.64453690293E-05	-6.98964946842E+01	7.30370383820E-02	-7.28602411055E+01
7.76813627255E+10	1.12045469021E-01	-8.26192916574E+01	5.55930722046E-05	-4.33023333941E+01	5.34849091362E-05	8.64823556732E+01	7.34319881799E-02	-7.26387975620E+01
7.76873747495E+10	1.15620805203E-01	-8.56365421733E+01	5.25115437944E-05	-4.11764822237E+01	6.03742790529E-05	-8.08009100139E+01	7.50038905480E-02	-7.30628364415E+01
7.76933867735E+10	1.12606022320E-01	-8.58758087170E+01	6.53156428983E-05	-1.05906453264E+02	6.91156429859E-05	-1.18868554828E+02	7.45982694628E-02	-7.18915519370E+01
7.76993987976E+10	1.13021179044E-01	-8.41104573384E+01	4.03114489072E-05	1.66315382261E+02	2.15013295095E-05	2.08412293590E+01	7.46572044187E-02	-7.11935488073E+01
7.77054108216E+10	1.11861485458E-01	-8.32805636455E+01	5.16940549731E-05	1.61054393577E+02	3.21713141252E-05	-1.70717321001E+02	7.42337293337E-02	-7.00570796973E+01
7.77114228457E+10	1.13446526874E-01	-8.71816501799E+01	2.33672668752E-05	1.63215806500E+02	5.63367490607E-05	2.47922060001E+01	7.52770713564E-02	-7.08293289823E+01
7.77174348697E+10	1.10683273260E-01	-8.38558386224E+01	6.83719906995E-05	4.06403629072E+01	6.94125730725E-05	-2.48421089492E-01	7.66344087097E-02	-7.08502473792E+01
7.77234468938E+10	1.10001418521E-01	-8.39651487419E+01	4.11266751157E-05	1.02873044342E+02	5.87871079568E-05	2.74872899502E+01	7.64475371493E-02	-6.96848531671E+01
7.77294589178E+10	1.13213258499E-01	-8.70713742224E+01	1.37137919537E-04	1.87143861377E+01	9.82639411167E-05	7.71636750845E+00	7.59546810600E-02	-6.89404645374E+01
7.77354709419E+10	1.10596612324E-01	-8.58126748828E+01	6.89383589222E-05	4.48657710115E+01	1.15905174704E-04	-7.35161819095E+00	7.61754556969E-02	-6.93015059441E+01
7.77414829659E+10	1.10468088200E-01	-8.34806065773E+01	6.00916059403E-05	-2.66468417794E+01	6.10624433161E-05	-1.29935380164E+01	7.73451182889E-02	-7.00546893654E+01
7.77474949900E+10	1.11691480078E-01	-8.73559673494E+01	8.40231383451E-05	-3.98174508062E+01	5.86698142235E-05	1.63816850439E+01	7.87085897605E-02	-6.99247882616E+01
7.77535070140E+10	1.12132368937E-01	-8.67441892979E+01	1.11330546472E-04	-8.81020014715E+00	7.76359052906E-05	-1.08510519635E+01	7.83068334214E-02	-6.93772405083E+01
7.77595190381E+10	1.11976609117E-01	-8.76008854988E+01	8.49274706236E-05	-9.85495975471E+01	8.44550810625E-05	-1.18006902198E+01	7.77102181865E-02	-6.80582788881E+01
7.77655310621E+10	1.10561266350E-01	-8.63366344305E+01	6.83373435309E-05	-7.58565366853E+01	7.14934063211E-05	-2.82112584265E+01	7.80660838361E-02	-6.79399089924E+01
7.77715430862E+10	1.10593586935E-01	-8.38359256947E+01	2.89153667116E-05	-2.38588955450E+01	7.66535672426E-05	-3.54311323562E+01	7.83546965419E-02	-6.78908257356E+01
7.77775551102E+10	1.12335724837E-01	-8.58722761456E+01	9.19772966129E-05	-6.55620954181E+01	9.73994815804E-05	-2.89498576473E+01	7.99310861025E-02	-6.81303599460E+01
7.77835671343E+10	1.12413027285E-01	-8.63369901061E+01	2.45852255754E-05	-1.11567166916E+02	6.15177808820E-05	-2.84835057494E+01	8.03601920065E-02	-6.76462899255E+01
7.77895791583E+10	1.11217219897E-01	-8.57899675389E+01	6.42866756994E-05	-2.81568912940E+01	1.32145589579E-04	-2.99931913830E+01	8.02096023417E-02	-6.68400781949E+01
7.77955911824E+10	1.11933790766E-01	-8.52378124767E+01	9.67994441979E-05	-6.25801700439E+01	1.14767164850E-04	-7.14949561670E+01	8.03219686470E-02	-6.75135788437E+01
7.78016032064E+10	1.10894033035E-01	-8.69016070839E+01	1.03734888855E-04	-3.64036283185E+01	1.65633130110E-04	-6.46070456184E+01	8.11595904309E-02	-6.73785805753E+01
7.78076152305E+10	1.10661826667E-01	-8.70231858137E+01	1.18351439196E-04	-5.83184538148E+01	1.51781548267E-04	-6.67860920409E+01	8.20741515928E-02	-6.73708556839E+01
7.78136272545E+10	1.12696481801E-01	-8.84354444126E+01	1.19662864391E-04	-9.66061615443E+01	1.39210659059E-04	-5.92705144442E+01	8.22883792427E-02	-6.58799799664E+01
7.78196392786E+10	1.10959158888E-01	-8.48449440573E+01	1.44971010835E-04	-6.59358743688E+01	1.16504190063E-04	-6.62158424127E+01	8.21065724851E-02	-6.61210408836E+01
7.78256513026E+10	1.11965563666E-01	-8.67539294939E+01	6.49873993174E-05	-8.29238301981E+01	1.19450986646E-04	-7.85893762989E+01	8.23417040208E-02	-6.64914046588E+01
7.78316633267E+10	1.10511359378E-01	-8.77817759948E+01	1.86364719870E-04	-9.91514269178E+01	2.07085463246E-04	-1.02522366402E+02	8.44813816482E-02	-6.71913171748E+01
7.78376753507E+10	1.10686947954E-01	-8.66742196619E+01	1.56640444499E-04	-1.02655811110E+02	1.74280816287E-04	-1.10526529410E+02	8.46018114707E-02	-6.66973264802E+01
7.78436873747E+10	1.11280140738E-01	-8.65469883967E+01	1.31314066189E-04	-1.08602210027E+02	1.87064448870E-04	-1.27906307985E+02	8.41428628288E-02	-6.49525322570E+01
7.78496993988E+10	1.11255438447E-01	-8.59624720055E+01	1.88506785171E-04	-1.36144715284E+02	2.16263561006E-04	-1.25057576025E+02	8.48326505685E-02	-6.56704097780E+01
7.78557114228E+10	1.09857794666E-01	-8.72292040921E+01	1.51905766857E-04	-1.49565198366E+02	1.97422782453E-04	-1.51166780291E+02	8.43328866762E-02	-6.44690179970E+01
7.78617234469E+10	1.10543175235E-01	-8.74641011776E+01	1.11471747857E-04	-1.48168297474E+02	1.86612746443E-04	-1.71263049015E+02	8.62508222914E-02	-6.59868559299E+01
7.78677354709E+10	1.10907218768E-01	-8.74784524271E+01	1.45268605097E-04	-1.74187059719E+02	2.04003889428E-04	1.72255179357E+02	8.66867938935E-02	-6.61287045642E+01
7.78737474950E+10	1.10465194936E-01	-8.61118717635E+01	1.02181045015E-04	-1.73294079553E+02	1.76416323495E-04	1.68889843957E+02	8.67456014209E-02	-6.57795836929E+01
7.78797595190E+10	1.10243951167E-01	-8.61318084329E+01	9.27247428431E-05	-1.49623816029E+02	1.47718880715E-04	1.76791735164E+02	8.64188768345E-02	-6.50001474073E+01
7.78857715431E+10	1.09531424424E-01	-8.75137776332E+01	6.49303287355E-05	-1.78031512071E+02	1.28632486662E-04	1.64900282388E+02	8.69399525155E-02	-6.42188617919E+01
7.78917835671E+10	1.11105742104E-01	-8.72810079293E+01	6.39598120154E-05	1.69380339291E+02	1.44407929062E-04	-1.79615023350E+02	8.74596827413E-02	-6.43922612960E+01
7.78977955912E+10	1.11118612805E-01	-8.78233589794E+01	1.28595424049E-04	1.76721089216E+02	7.82728424572E-05	-1.69514918101E+02	8.87612558186E-02	-6.45600310616E+01
7.79038076152E+10	1.11019418377E-01	-8.85780818099E+01	1.20576755526E-04	1.73497260130E+02	5.57463981663E-05	1.48542463942E+02	8.92254324536E-02	-6.47435092686E+01
7.79098196393E+10	1.11605965793E-01	-8.83178666251E+01	1.75744171124E-04	1.48484364822E+02	1.56681048554E-04	1.25992427068E+02	8.74803545436E-02	-6.39186235668E+01
7.79158316633E+10	1.10926543277E-01	-8.81189955146E+01	1.33119531149E-04	1.34052037896E+02	1.77476545505E-04	1.26827778261E+02	8.98589846042E-02	-6.43312475234E+01
7.79218436874E+10	1.11698889251E-01	-8.97214583851E+01	1.18077179868E-04	9.35341843531E+01	1.15284009523E-04	9.64896439478E+01	9.07725130851E-02	-6.37710361799E+01
7.79278557114E+10	1.11671503306E-01	-8.97859416956E+01	1.20721781877E-04	1.26139138484E+02	8.80432489515E-05	1.18116901369E+02	9.17341501460E-02	-6.34914002518E+01
7.79338677355E+10	1.14015975011E-01	-9.01278679580E+01	5.86803480515E-05	1.09581034239E+02	7.53926057985E-05	1.27503126343E+02	9.14349486129E-02	-6.45301276922E+01
7.79398797595E+10	1.10899261583E-01	-8.77133752045E+01	1.07726801668E-04	1.30519003573E+02	8.39196314723E-05	1.10948473338E+02	9.13499600237E-02	-6.35987892957E+01
7.79458917836E+10	1.10849931266E-01	-8.75410110594E+01	1.67918455214E-04	1.42574816520E+02	1.42759417681E-04	9.67588511278E+01	9.20470845089E-02	-6.32301970663E+01
7.79519038076E+10	1.09669288220E-01	-8.77191994773E+01	1.53836099373E-04	1.27885552084E+02	1.54313779650E-04	9.35862392944E+01	9.30881442131E-02	-6.38566979139E+01
7.79579158317E+10	1.10695320831E-01	-8.68770817362E+01	2.09241416456E-04	1.18171736546E+02	1.26042344464E-04	9.03551245436E+01	9.50155413895E-02	-6.43478648170E+01
7.79639278557E+10	1.13140093070E-01	-8.93658049583E+01	1.93749900060E-04	1.03886644656E+02	1.41805147631E-04	7.25852467441E+01	9.32312601520E-02	-6.26353742924E+01
7.79699398798E+10	1.09882728688E-01	-8.75770054406E+01	1.20159951425E-04	1.08893257384E+02	9.74622227101E-05	8.24152201427E+01	9.57890506868E-02	-6.43089795148E+01
7.79759519038E+10	1.10251575477E-01	-8.80788714807E+01	1.21234504131E-04	8.34650918374E+01	1.20031016698E-04	5.08257764056E+01	9.60682441206E-02	-6.42177085985E+01
7.79819639279E+10	1.12099703344E-01	-8.86024978367E+01	1.84400080206E-04	5.27337954106E+01	1.04302393600E-04	3.56264526286E+01	9.71497036037E-02	-6.34796714600E+01
7.79879759519E+10	1.10408487224E-01	-8.74597142250E+01	1.36544849150E-04	3.02729476053E+01	1.36143713565E-04	6.47333498868E+00	9.65631375268E-02	-6.28011128938E+01
7.79939879760E+10	1.12825326287E-01	-8.96190675925E+01	9.93753299070E-05	2.58318398471E+01	9.09489695381E-05	2.52539748240E+01	9.72588155759E-02	-6.35946013300E+01
7.80000000000E+10	1.11679777897E-01	-8.99553955862E+01	3.35039529882E-05	6.08282355233E+01	5.26632163400E-05	9.43873597295E+00	9.70304978246E-02	-6.30539299843E+01
