# Hz S RI R 50
! CMT, C4420, 21421029, 25.1.2/3
! Date: 8/5/2025 12:49:45 PM
! Data: Format (Calibration Info)
! Freq	S33:Re/Im(F2)	S43:Re/Im(F2)	S34:Re/Im(F2)	S44:Re/Im(F2)
7.50000000000E+10	1.62606378814E-01	2.08453384990E-01	-6.97547460807E-05	5.69943526655E-06	-4.25685412683E-05	-1.60824755140E-06	1.58071865485E-01	2.16108741470E-01
7.50060120240E+10	1.64596546623E-01	2.07144992542E-01	-3.57298850489E-05	2.31505841378E-05	1.22168196228E-05	6.60287691049E-07	1.61070342714E-01	2.11557895771E-01
7.50120240481E+10	1.75122771761E-01	2.02920648125E-01	-3.37658839746E-05	-2.53912821655E-05	-8.02739993884E-06	2.33313345295E-05	1.70889657396E-01	2.05258811724E-01
7.50180360721E+10	1.82300321235E-01	1.92629047558E-01	-8.93472542402E-06	4.79874417781E-05	1.21460811320E-05	5.17019820662E-05	1.74823454820E-01	2.00260077821E-01
7.50240480962E+10	1.87708430096E-01	1.87035201164E-01	1.40085619489E-05	4.99944978909E-06	-9.63864190728E-06	4.90621698402E-06	1.73875377894E-01	1.97423207821E-01
7.50300601202E+10	1.87984082794E-01	1.86406139389E-01	3.50392380214E-05	4.38171816751E-05	3.79500124333E-05	3.01018367247E-05	1.82513617527E-01	1.90885295767E-01
7.50360721443E+10	1.86253518722E-01	1.89100949356E-01	7.68978512519E-05	-3.92480216102E-05	-2.82210550830E-06	3.09726075129E-05	1.81772110298E-01	1.90843831381E-01
7.50420841683E+10	1.93706000996E-01	1.81795100581E-01	7.24531851205E-05	-9.65205350547E-06	4.16351612372E-05	-5.00107015576E-05	1.81998925572E-01	1.87558398015E-01
7.50480961924E+10	2.01591242174E-01	1.67659126833E-01	3.29877004534E-06	-1.46353859818E-06	-1.28632037837E-05	-2.11586199394E-05	1.90299765910E-01	1.74879746666E-01
7.50541082164E+10	2.01080855998E-01	1.64277356414E-01	2.28759633347E-05	-8.75453468650E-05	1.97964230274E-05	-2.08738625928E-05	1.96991069402E-01	1.72202663700E-01
7.50601202405E+10	2.06486768253E-01	1.66208502284E-01	4.23327122698E-06	-7.23373030446E-05	-3.96380704406E-05	-9.87031562901E-05	2.01748995261E-01	1.69830615908E-01
7.50661322645E+10	2.08543773347E-01	1.66979706040E-01	-4.65136819761E-05	-3.92222730870E-05	-4.40720887502E-05	-2.45840719681E-05	2.01022137143E-01	1.65552897535E-01
7.50721442886E+10	2.06260599855E-01	1.61608291120E-01	-4.06723970534E-05	-5.22481077739E-06	-1.38922283231E-04	-3.33333628290E-05	2.02730212650E-01	1.60835078181E-01
7.50781563126E+10	2.18263826470E-01	1.46759768754E-01	-4.41379561824E-05	5.88999035776E-05	-5.21706909188E-05	3.49042819980E-05	2.07426155628E-01	1.55884561537E-01
7.50841683367E+10	2.16651191288E-01	1.44526607237E-01	-1.40523095833E-05	-3.07849608328E-06	-4.41064693041E-05	1.38830348897E-05	2.14931683028E-01	1.51113548084E-01
7.50901803607E+10	2.16787914976E-01	1.48092050842E-01	7.11723843387E-06	5.15363687495E-05	-5.92943768656E-05	-1.44502243721E-05	2.19217598437E-01	1.45579506114E-01
7.50961923848E+10	2.25261514140E-01	1.41095862990E-01	4.06291978790E-05	7.82768086938E-05	2.97495352906E-05	5.07802628064E-05	2.18054269483E-01	1.38463770735E-01
7.51022044088E+10	2.16068708780E-01	1.44990662679E-01	1.28510181463E-05	1.03488711293E-06	5.01957566677E-05	5.78679996104E-05	2.17034591806E-01	1.41301993845E-01
7.51082164329E+10	2.22846269913E-01	1.32318310474E-01	5.14177465354E-05	9.04212130108E-06	-5.70298582120E-06	3.34818197422E-05	2.25736293795E-01	1.30584956320E-01
7.51142284569E+10	2.24865370866E-01	1.28000678758E-01	5.77761588228E-05	1.18878406093E-05	8.61256743837E-05	3.67952330148E-05	2.29588157034E-01	1.22373214011E-01
7.51202404810E+10	2.35654141223E-01	1.16272524094E-01	-1.20057683611E-05	-1.53877619225E-05	5.45229998651E-05	-2.89324836162E-06	2.29622241013E-01	1.19560759217E-01
7.51262525050E+10	2.38138153365E-01	1.07161543441E-01	3.98294318923E-05	-2.85681133933E-05	5.13118755083E-05	-1.52756735686E-05	2.27500961013E-01	1.16012291912E-01
7.51322645291E+10	2.34787027705E-01	1.13174816239E-01	5.99572487025E-06	-3.77239541188E-05	2.85841134691E-05	-4.08494466633E-05	2.31870801178E-01	1.12741575043E-01
7.51382765531E+10	2.39637083102E-01	1.03444438772E-01	2.63022881633E-05	-3.58405233018E-05	4.17057920553E-06	-3.97767487640E-05	2.37103583866E-01	9.96438402899E-02
7.51442885772E+10	2.40827826217E-01	9.90611882419E-02	-5.50698186459E-05	-1.39139020623E-05	-3.70785924167E-05	1.38149397089E-05	2.41046333906E-01	9.82715353901E-02
7.51503006012E+10	2.41167275243E-01	9.32671580681E-02	-2.41990588414E-05	-3.31327653891E-05	-8.53058142488E-06	-1.63302407898E-05	2.36002024261E-01	9.56550164366E-02
7.51563126253E+10	2.41329236596E-01	8.79138932299E-02	1.65707942983E-05	1.40760179664E-05	-3.18324513150E-05	-1.29082163711E-05	2.40521487670E-01	8.68505896066E-02
7.51623246493E+10	2.50613360211E-01	8.12029217489E-02	-8.24210538557E-05	2.69853254293E-05	-2.69438280954E-05	5.94524233505E-06	2.42031449986E-01	8.42799071613E-02
7.51683366733E+10	2.44523954915E-01	8.13254807399E-02	-3.93484046918E-05	2.67047983842E-06	-6.69533999929E-05	4.97259324947E-05	2.44915817890E-01	8.33539102385E-02
7.51743486974E+10	2.54694712605E-01	7.31462417734E-02	5.18037305819E-05	8.49084943433E-06	5.14325466258E-05	7.74297969848E-05	2.48783122010E-01	6.86559400241E-02
7.51803607214E+10	2.51643885561E-01	7.26144814398E-02	5.66772094490E-05	8.61916378808E-05	7.52045313655E-06	5.05872415506E-05	2.45601904337E-01	6.54843132772E-02
7.51863727455E+10	2.56559768776E-01	6.40390599654E-02	1.02152700128E-05	-3.23488328990E-06	1.28786516581E-05	1.74315295532E-05	2.46865693992E-01	6.37487506337E-02
7.51923847695E+10	2.55326437008E-01	5.27364294376E-02	-7.21525672870E-06	5.71193490162E-05	5.61508672121E-05	-2.96864458314E-05	2.53195372796E-01	5.77893004372E-02
7.51983967936E+10	2.57465374377E-01	5.06431369356E-02	4.97913233197E-06	2.57184816975E-05	3.58921541041E-05	5.26721886840E-05	2.51736066097E-01	5.42061875373E-02
7.52044088176E+10	2.63540563772E-01	4.30789857328E-02	-1.58224728476E-05	-2.87366810252E-06	-8.44058134435E-06	-6.25006571221E-05	2.54405557963E-01	4.34743069075E-02
7.52104208417E+10	2.59223504413E-01	4.13651761668E-02	1.60397941221E-05	-1.49740730824E-05	1.01239992694E-05	3.48154385703E-06	2.49858667939E-01	4.41437138977E-02
7.52164328657E+10	2.62352932207E-01	3.52364966045E-02	3.62214372501E-05	-1.67512187393E-05	-4.68429761944E-06	-3.53365315024E-05	2.57998140975E-01	2.94109167965E-02
7.52224448898E+10	2.63553610879E-01	2.21804321042E-02	-3.67923196191E-06	-4.08963889461E-05	-2.93861300078E-06	-4.87550963082E-05	2.55489735677E-01	2.82735769073E-02
7.52284569138E+10	2.68823551008E-01	1.98632628722E-02	9.96140758421E-06	-2.38918420700E-06	3.70085832334E-05	-4.74781887722E-05	2.54337309317E-01	2.27085356178E-02
7.52344689379E+10	2.64003351770E-01	1.22549290727E-02	-7.18618164158E-05	6.24783078222E-06	-3.01118065850E-05	-4.65360305701E-05	2.57345200248E-01	1.70749558176E-02
7.52404809619E+10	2.63405762425E-01	2.62043025244E-02	-7.62265202051E-05	3.37606802324E-06	-4.48178720595E-05	4.15790047638E-06	2.57274261659E-01	1.41612404256E-02
7.52464929860E+10	2.68254545804E-01	4.66200768602E-04	5.05826807416E-06	-3.09224069260E-05	-3.30755701053E-05	3.44107802474E-05	2.58553785447E-01	7.64280728515E-03
7.52525050100E+10	2.64153262017E-01	-5.56750040241E-03	-6.13231381096E-05	2.42996014376E-05	-3.88892260368E-05	2.78952846644E-05	2.61195972369E-01	-5.69389386066E-03
7.52585170341E+10	2.64475202592E-01	-5.13901591036E-03	-2.55676577793E-05	6.65384005114E-05	-4.83474431957E-05	5.23728316433E-05	2.62618771518E-01	-9.27132286576E-03
7.52645290581E+10	2.67545005901E-01	-8.99629663071E-03	6.56617253143E-05	7.90071576481E-05	1.95265830822E-05	1.06394935842E-04	2.60947536824E-01	-6.82757915290E-03
7.52705410822E+10	2.66971665456E-01	-2.23034415593E-02	7.16330381005E-05	5.85948769770E-05	5.67048527955E-05	-1.43110019333E-05	2.61225552220E-01	-1.86299616301E-02
7.52765531062E+10	2.66216860037E-01	-3.02885167268E-02	3.92896948915E-05	-5.72344321019E-07	6.40527106073E-05	3.77052335863E-06	2.60371634638E-01	-2.71671803765E-02
7.52825651303E+10	2.63047091008E-01	-3.32873746066E-02	6.20671328877E-06	-5.20368422427E-05	4.61448467156E-05	-9.30893242457E-05	2.60725763416E-01	-3.25305172180E-02
7.52885771543E+10	2.66430545234E-01	-3.76900362608E-02	1.98681419404E-05	-7.31796775601E-05	2.55210760321E-05	2.53823712787E-06	2.63981052367E-01	-3.86163536431E-02
7.52945891784E+10	2.67893487446E-01	-3.82918559368E-02	-6.27970824358E-06	-1.45917847465E-05	4.56181726473E-05	-1.89225396570E-06	2.62629829600E-01	-3.89827557758E-02
7.53006012024E+10	2.66646423752E-01	-4.95965275221E-02	-3.67719301857E-05	-1.88957060078E-05	3.10613157532E-05	-1.99049740344E-05	2.59982478816E-01	-4.28412077028E-02
7.53066132265E+10	2.61181107346E-01	-4.98320606005E-02	-4.64350521876E-05	1.66903033745E-05	-2.02599016482E-05	-1.00716444192E-05	2.60418135003E-01	-5.64344796525E-02
7.53126252505E+10	2.60418898213E-01	-5.82784086883E-02	-5.90755457057E-05	2.85444380942E-05	-5.95225437815E-05	2.49947303305E-05	2.57906435664E-01	-6.37037325748E-02
7.53186372745E+10	2.64783459343E-01	-7.80339660612E-02	-4.30598747571E-05	-1.32349156256E-07	-3.55577654842E-05	4.53917146874E-05	2.59243636726E-01	-7.03103597584E-02
7.53246492986E+10	2.62121641528E-01	-7.11609876376E-02	-8.91700799897E-05	-2.41927262177E-05	-3.68475427079E-05	7.20383047629E-05	2.60966027949E-01	-7.62944773894E-02
7.53306613226E+10	2.60792372047E-01	-7.58798020618E-02	-4.04613238742E-05	3.30696534538E-05	-2.57166169032E-05	2.66706647259E-05	2.60855284836E-01	-8.31565098833E-02
7.53366733467E+10	2.56151080207E-01	-9.26244058158E-02	-5.95016618842E-05	1.01264025086E-04	6.72508205985E-06	3.94014302801E-05	2.54188497379E-01	-8.98553710298E-02
7.53426853707E+10	2.56509936405E-01	-9.58253245622E-02	-3.39344689239E-05	7.51636798085E-05	-5.82264028440E-06	1.01381840314E-04	2.54580996886E-01	-9.29031808518E-02
7.53486973948E+10	2.59491705468E-01	-1.11094417933E-01	1.46055963846E-05	2.61351664645E-05	5.18386009167E-05	5.13753225079E-05	2.52500506903E-01	-9.73946721436E-02
7.53547094188E+10	2.54187394178E-01	-1.07936699290E-01	2.97107932187E-05	5.42621467133E-05	1.21051492921E-04	2.89445111947E-05	2.52548666795E-01	-1.16786875369E-01
7.53607214429E+10	2.52335025701E-01	-1.11945533123E-01	5.41802287614E-05	1.50613036406E-05	8.38841335654E-05	-2.78078962291E-05	2.49670415281E-01	-1.22870406709E-01
7.53667334669E+10	2.50212662952E-01	-1.18771502032E-01	5.94615615627E-05	-3.44107537223E-05	5.98135492059E-05	-1.21150056246E-05	2.45589665588E-01	-1.20797143271E-01
7.53727454910E+10	2.49781068212E-01	-1.25373090459E-01	2.71155562692E-05	1.51102108512E-05	1.06090888273E-04	1.56088049041E-05	2.43994055686E-01	-1.26571047318E-01
7.53787575150E+10	2.43470160648E-01	-1.41455261530E-01	6.36669989105E-05	-8.29625073266E-05	3.07832567064E-05	-2.22848061142E-05	2.40795245726E-01	-1.35374660586E-01
7.53847695391E+10	2.44061673357E-01	-1.34540686982E-01	2.13351225847E-05	-4.60546535691E-07	5.06697876921E-05	-3.62448932889E-05	2.38007609228E-01	-1.48295893860E-01
7.53907815631E+10	2.41137632041E-01	-1.41116800340E-01	7.73846097073E-05	-6.51237254773E-05	1.93962068813E-05	-9.94348765545E-05	2.33248303926E-01	-1.58336736726E-01
7.53967935872E+10	2.39769306381E-01	-1.39748697810E-01	-1.46701954483E-05	-9.86839337510E-05	-3.14622615977E-05	-5.00805808158E-05	2.33717014831E-01	-1.54434531888E-01
7.54028056112E+10	2.32935846426E-01	-1.69601462697E-01	-7.78466520474E-05	-5.02197518517E-05	-6.77257706655E-05	-1.86845536632E-05	2.29764977525E-01	-1.64202591202E-01
7.54088176353E+10	2.27975943992E-01	-1.70230180035E-01	-4.25083819910E-05	-2.45261629933E-05	-8.34156426342E-05	4.99171548502E-06	2.24020289340E-01	-1.71152675796E-01
7.54148296593E+10	2.28865622037E-01	-1.64519385665E-01	-7.81808174569E-05	5.68337604654E-05	-1.17204266495E-04	-6.55189517165E-06	2.16180365775E-01	-1.78632395251E-01
7.54208416834E+10	2.25913141796E-01	-1.84044605389E-01	-4.61025737267E-05	4.48245866327E-05	-3.27309509395E-05	5.89501180639E-05	2.17122258997E-01	-1.80700083387E-01
7.54268537074E+10	2.19166524949E-01	-1.92486307458E-01	4.58321192285E-05	4.43194571224E-05	-4.29174153971E-05	9.99706874177E-06	2.12902140394E-01	-1.91966023846E-01
7.54328657315E+10	2.15430951221E-01	-1.83270985873E-01	3.15303991733E-05	6.41127644284E-05	2.47896719433E-05	4.63712650100E-05	2.05545021804E-01	-1.99450070118E-01
7.54388777555E+10	2.08034769784E-01	-2.00554858224E-01	3.75330299140E-05	2.40310043777E-05	1.78563081725E-05	4.38190829728E-05	1.98071634939E-01	-2.06519712441E-01
7.54448897796E+10	2.01108669177E-01	-2.08616807057E-01	4.45631345615E-05	8.09380547191E-07	2.49227385431E-05	-7.94101266026E-06	1.94472979443E-01	-2.12096711705E-01
7.54509018036E+10	2.00465334073E-01	-2.18114360211E-01	2.77368714130E-05	-4.37772964332E-05	8.99068635903E-05	-6.83286694979E-05	1.90203054203E-01	-2.16443412568E-01
7.54569138277E+10	1.99244364840E-01	-2.10198970780E-01	6.47872445849E-05	-3.88298156956E-05	-8.12619429814E-06	-1.06624449646E-04	1.83377552666E-01	-2.23780883793E-01
7.54629258517E+10	1.91539474787E-01	-2.27801663238E-01	-3.24155101272E-05	-6.04798424141E-05	-1.59041828092E-05	-6.19652680832E-06	1.81331811847E-01	-2.26418997335E-01
7.54689378758E+10	1.81730509393E-01	-2.34260676749E-01	-2.41699214588E-05	-2.50697821904E-06	-2.88350817835E-06	-1.28213984425E-05	1.75997924015E-01	-2.32696374154E-01
7.54749498998E+10	1.80878583059E-01	-2.35355762952E-01	-6.46505393150E-05	-1.03175649425E-04	-8.20897734464E-05	-9.19207629998E-05	1.69672190629E-01	-2.39001233336E-01
7.54809619238E+10	1.70383128815E-01	-2.50624187415E-01	-9.74507152590E-05	1.20150055947E-05	-8.03573856139E-05	-3.19361522126E-05	1.62215826441E-01	-2.46769339548E-01
7.54869739479E+10	1.64789235551E-01	-2.58969038565E-01	-7.74914096998E-05	4.57686840607E-05	-4.79673910114E-05	-1.60049930314E-05	1.58510351506E-01	-2.46455327148E-01
7.54929859719E+10	1.57707729120E-01	-2.59325624283E-01	-3.49782599081E-05	7.95519384964E-05	-5.09084722292E-05	6.36094045315E-05	1.49476530710E-01	-2.59747730706E-01
7.54989979960E+10	1.47627268814E-01	-2.63061245024E-01	7.25382570380E-06	5.94858731359E-05	2.46721547358E-05	9.27806406756E-05	1.43649821668E-01	-2.63654637895E-01
7.55050100200E+10	1.44864512103E-01	-2.66319426210E-01	3.09624415333E-05	1.63058022780E-05	9.68395226455E-06	6.79373128595E-05	1.36554172213E-01	-2.71386760718E-01
7.55110220441E+10	1.32689928648E-01	-2.82002342204E-01	7.29652694434E-05	3.39906758128E-05	3.84710215696E-05	8.53345670016E-05	1.28110625330E-01	-2.76245060540E-01
7.55170340681E+10	1.20847047535E-01	-2.87101851918E-01	1.08634365164E-04	-7.87314801245E-06	1.31742063936E-04	6.18486270257E-05	1.27812455545E-01	-2.75711894166E-01
7.55230460922E+10	1.11816989590E-01	-2.91071575447E-01	9.53804338315E-05	1.83680464740E-05	8.39407210692E-05	6.49934040334E-05	1.14816561793E-01	-2.86414318606E-01
7.55290581162E+10	1.05368243186E-01	-2.93522965252E-01	1.11791824246E-04	-3.51498060390E-05	4.80732620547E-05	-4.39314871328E-05	1.09817152241E-01	-2.88513506656E-01
7.55350701403E+10	9.88528416761E-02	-2.97420085206E-01	7.12604622798E-05	-5.77161574840E-05	6.41185451093E-05	3.07621766474E-05	1.08029435165E-01	-2.85152400845E-01
7.55410821643E+10	9.62296872501E-02	-2.94197810618E-01	7.89234026816E-05	-9.85378410868E-05	-4.37067021664E-05	-3.69809461603E-05	8.95285891839E-02	-3.01908286881E-01
7.55470941884E+10	8.58775360325E-02	-3.02065679938E-01	2.07815936398E-05	-7.18870143881E-05	1.20481073269E-05	-4.51076461283E-06	7.95063528359E-02	-3.07318542777E-01
7.55531062124E+10	8.17123899421E-02	-3.00308682423E-01	-8.44723015139E-05	-5.56859607710E-05	-7.87036799316E-05	-1.61197653630E-05	8.22987704427E-02	-3.04726806409E-01
7.55591182365E+10	6.10963454930E-02	-3.09236927456E-01	-8.73340660273E-05	-9.72107100420E-06	-1.14293153404E-04	-2.41222409945E-05	5.95824258387E-02	-3.14544032812E-01
7.55651302605E+10	5.13663777607E-02	-3.14228113968E-01	-7.85214492818E-06	1.35644934096E-05	-1.91903774520E-05	-5.00824136150E-05	5.43639453949E-02	-3.16977161536E-01
7.55711422846E+10	4.28768703129E-02	-3.19495751159E-01	-5.34417665079E-05	8.86241988109E-05	-1.23153480581E-05	2.55576570029E-05	4.24112298125E-02	-3.24376562826E-01
7.55771543086E+10	3.96198342185E-02	-3.13540540914E-01	2.56358452169E-05	6.59418350408E-05	3.40985260341E-05	1.12584633005E-04	2.85000160241E-02	-3.27022604431E-01
7.55831663327E+10	1.96209465303E-02	-3.17599587911E-01	-5.15876562724E-05	1.19637535052E-04	5.18313917035E-05	1.29205104322E-05	2.30097710262E-02	-3.25175482835E-01
7.55891783567E+10	6.25646619058E-03	-3.23435582799E-01	2.77188927693E-05	5.53114276326E-05	3.58037612006E-05	6.27309100997E-05	1.51674139161E-02	-3.27271706948E-01
7.55951903808E+10	-1.52559765369E-02	-3.28450812880E-01	9.26446014178E-05	8.46457277856E-06	1.35479431020E-04	-3.07183787426E-05	-6.58894462461E-03	-3.35398178994E-01
7.56012024048E+10	-3.08534053646E-02	-3.32695645429E-01	6.87865701186E-05	-4.13357187077E-06	6.21590936466E-05	-9.90378487970E-05	-1.72772723160E-02	-3.34300297818E-01
7.56072144289E+10	-3.05441365824E-02	-3.25728535663E-01	2.38839020849E-05	-2.44298381500E-05	-1.86480995138E-05	-7.20090460432E-05	-3.16698858151E-02	-3.33018468325E-01
7.56132264529E+10	-3.16812119001E-02	-3.20399772447E-01	3.74854691693E-05	-2.77792359624E-05	-4.36036866996E-06	-3.84114258077E-05	-4.21549183732E-02	-3.35116946756E-01
7.56192384770E+10	-4.27627376247E-02	-3.17657729822E-01	-3.90481652146E-05	-1.34543377460E-04	5.95539495212E-05	-5.97345742884E-05	-4.22290689884E-02	-3.32456684234E-01
7.56252505010E+10	-6.04315035761E-02	-3.18834152328E-01	-1.19960615877E-04	-1.27998909906E-04	-4.89608650838E-05	-2.82793491994E-05	-6.84410498958E-02	-3.33711935905E-01
7.56312625251E+10	-8.48767790750E-02	-3.21750967149E-01	-6.38355242653E-05	-1.26429785266E-04	-3.43781933785E-05	-3.57461959313E-05	-8.19060346187E-02	-3.29786041333E-01
7.56372745491E+10	-8.51949273981E-02	-3.15950482052E-01	-2.25944983849E-05	-2.32802273214E-05	5.07235808139E-05	7.24107109598E-05	-7.87839253439E-02	-3.27057213665E-01
7.56432865731E+10	-9.66890769709E-02	-3.11625490995E-01	2.29628089839E-05	-1.35164468594E-05	-8.79417971807E-06	8.66997689042E-06	-9.59738709595E-02	-3.26371137013E-01
7.56492985972E+10	-8.74331808642E-02	-3.07186086953E-01	2.54402284625E-05	5.21283957971E-06	-5.10528702507E-05	4.20410591616E-05	-1.22955437552E-01	-3.20576250626E-01
7.56553106212E+10	-1.19715473470E-01	-3.06470539852E-01	-1.45135730187E-06	5.05641827206E-06	4.77049600429E-05	-1.14932294321E-04	-1.28631375722E-01	-3.16575540868E-01
7.56613226453E+10	-1.28388257439E-01	-3.03806811221E-01	-6.06179121375E-05	-2.50648961723E-05	-6.90730329616E-05	1.69611380338E-05	-1.26982547859E-01	-3.12744543649E-01
7.56673346693E+10	-1.36498737085E-01	-2.97417350783E-01	-1.00847048426E-06	2.54180542460E-05	-2.39947089382E-05	-7.26089560457E-06	-1.46342119330E-01	-3.08017770696E-01
7.56733466934E+10	-1.59600244854E-01	-2.88732967110E-01	-8.46798512537E-05	-4.77084340174E-05	1.84854518738E-05	5.63792511281E-05	-1.63016404960E-01	-2.99479433505E-01
7.56793587174E+10	-1.71787890136E-01	-2.81035481905E-01	3.61914478749E-05	2.76772378483E-05	1.01144204530E-05	1.09708500823E-04	-1.59469287246E-01	-2.95233148788E-01
7.56853707415E+10	-1.80900087142E-01	-2.74083439800E-01	5.37070408127E-05	-5.04381686999E-06	5.13732649056E-05	-2.41121098831E-05	-1.86025427497E-01	-2.87222287552E-01
7.56913827655E+10	-1.85492720473E-01	-2.70069928805E-01	-5.15516889576E-05	3.02110984319E-05	1.59981357221E-05	1.20326884154E-06	-1.90603103359E-01	-2.80240982248E-01
7.56973947896E+10	-1.92638447397E-01	-2.62722272753E-01	-3.13963444281E-05	-1.81339471667E-05	-1.16197492675E-05	-4.83309329226E-05	-1.99198972702E-01	-2.72320060259E-01
7.57034068136E+10	-2.03902727938E-01	-2.55187707760E-01	-3.12935752885E-06	2.01885971361E-05	-3.86704724559E-06	-2.97230641827E-05	-1.97509746843E-01	-2.68462310476E-01
7.57094188377E+10	-2.17308571195E-01	-2.40830455328E-01	-1.88336903171E-06	-3.02048354775E-05	2.10443530404E-05	-4.74661413145E-05	-2.15927358054E-01	-2.57313541605E-01
7.57154308617E+10	-2.28470522453E-01	-2.30755297226E-01	4.66291102273E-05	3.70154367234E-05	-2.73219229812E-05	-8.26046401999E-05	-2.28027164883E-01	-2.48223590596E-01
7.57214428858E+10	-2.34969357956E-01	-2.22635384914E-01	1.87972591805E-05	-2.03845005919E-05	2.81273004106E-05	-1.01852898473E-05	-2.24709070063E-01	-2.47883602140E-01
7.57274549098E+10	-2.47612283967E-01	-2.09923864022E-01	2.38441175041E-05	2.18899683448E-05	4.01320202812E-05	-1.45007544869E-05	-2.45210868693E-01	-2.29398635081E-01
7.57334669339E+10	-2.52993804606E-01	-1.96652752134E-01	-1.14370694714E-05	7.81962460997E-06	-1.54999684286E-05	-4.90154896629E-05	-2.64244427683E-01	-2.12423872245E-01
7.57394789579E+10	-2.51752878593E-01	-1.91357658510E-01	-4.07630038032E-05	7.11894505736E-05	1.41176881166E-05	2.36646600586E-05	-2.63877759860E-01	-2.08761542797E-01
7.57454909820E+10	-2.52033488164E-01	-1.89226507584E-01	2.13948756273E-05	2.99209817918E-05	-9.55005270945E-05	-3.98287509486E-05	-2.64979119177E-01	-2.04065232799E-01
7.57515030060E+10	-2.65138623189E-01	-1.74162122267E-01	-2.71394155388E-05	1.27298295548E-04	-3.53388903818E-05	5.59371222825E-05	-2.75441630928E-01	-1.92523673538E-01
7.57575150301E+10	-2.68702908491E-01	-1.63930265498E-01	2.25747916042E-05	2.46522981002E-05	-3.89643224509E-05	6.91917273254E-05	-2.77064618471E-01	-1.83586003819E-01
7.57635270541E+10	-2.74049906784E-01	-1.49714045088E-01	2.06944698835E-05	6.94554363906E-05	2.15566303839E-05	7.69096635822E-05	-2.80616797647E-01	-1.75057758835E-01
7.57695390782E+10	-2.82489307514E-01	-1.31466556648E-01	7.99450894433E-05	7.03547789547E-05	7.94356349311E-05	-4.53619971829E-05	-2.90738039834E-01	-1.62049605748E-01
7.57755511022E+10	-2.84961820784E-01	-1.24391878753E-01	8.57189734226E-05	-1.70810796793E-05	3.53119996362E-06	2.21817693520E-05	-2.94596173153E-01	-1.52052304520E-01
7.57815631263E+10	-2.82113541219E-01	-1.20073824806E-01	1.40418656754E-04	1.91685235297E-05	4.21874343747E-05	2.40689242816E-05	-2.93266055492E-01	-1.45671275386E-01
7.57875751503E+10	-2.89295630426E-01	-9.47540216353E-02	6.59569079869E-05	-5.98838170445E-05	7.69745697712E-05	1.22304980022E-05	-3.02088543244E-01	-1.28241443256E-01
7.57935871743E+10	-2.94528614914E-01	-8.44547246192E-02	1.17222101307E-05	-1.96335540207E-05	6.67637767458E-05	-2.28752960872E-05	-3.10744135502E-01	-1.10656214620E-01
7.57995991984E+10	-2.89701506698E-01	-7.75576772913E-02	-5.34537517527E-05	-2.99961278504E-05	-1.93045499840E-05	-1.02126338707E-04	-3.13652381271E-01	-1.01158795061E-01
7.58056112224E+10	-2.89828964990E-01	-7.51042931286E-02	3.66716935896E-05	-2.95129672659E-05	-9.19189921431E-05	-3.95195570733E-05	-3.12246183219E-01	-8.90040641725E-02
7.58116232465E+10	-2.94680372914E-01	-4.91490245876E-02	-3.02860629969E-05	6.88586227889E-05	-5.52078879988E-05	8.30081887449E-05	-3.14186361863E-01	-7.82172469486E-02
7.58176352705E+10	-2.90159736355E-01	-4.16191002352E-02	-6.54765343906E-05	6.78219831817E-05	3.47732096556E-05	6.64830175332E-05	-3.11991186425E-01	-7.25410154943E-02
7.58236472946E+10	-2.90969148620E-01	-3.16708462864E-02	-4.97852449500E-05	6.79082564285E-05	4.11469404773E-05	4.36554078488E-06	-3.13467494628E-01	-6.09747778464E-02
7.58296593186E+10	-2.89190407073E-01	-2.45969222982E-02	-7.79641453516E-07	7.33689200384E-06	3.17713484515E-05	7.88156102834E-05	-3.21125449351E-01	-3.63870298988E-02
7.58356713427E+10	-2.87521777699E-01	-2.25186176535E-02	6.58790733210E-05	-1.22803798058E-05	1.06607760537E-04	-5.33342408321E-05	-3.11869386835E-01	-4.20279412562E-02
7.58416833667E+10	-2.86480344371E-01	-6.50026449856E-03	-1.26370008716E-05	-3.49940195173E-07	8.05975167833E-05	6.10309345857E-05	-3.13304934601E-01	-2.41352955108E-02
7.58476953908E+10	-2.82870408452E-01	2.17219290184E-02	5.93611837727E-05	-2.22302154691E-05	6.96264707015E-05	4.85398245853E-06	-3.13023567203E-01	-1.43650123117E-03
7.58537074148E+10	-2.82245078289E-01	1.65398180110E-02	4.44762237652E-05	2.33051573901E-05	8.54218472152E-05	-1.07181117394E-04	-3.13362961718E-01	1.03499247906E-02
7.58597194389E+10	-2.80054094993E-01	2.11482536912E-02	6.08981365126E-05	-1.50444978331E-04	5.26658446959E-05	-5.15882676482E-05	-3.07199757968E-01	1.27796224725E-02
7.58657314629E+10	-2.76554831561E-01	2.79312408643E-02	-6.53779595772E-05	-8.23238709156E-05	4.70186031687E-05	-7.04819493644E-05	-3.05627043884E-01	2.61760133132E-02
7.58717434870E+10	-2.68256157174E-01	5.41002053771E-02	-3.28535427320E-05	1.03903086053E-05	-2.64191646190E-05	-3.77862632093E-05	-3.01445306895E-01	3.67669510877E-02
7.58777555110E+10	-2.67004265290E-01	5.68857784906E-02	-1.39428561345E-04	-5.25512480559E-06	-4.21095241333E-05	-6.77465721571E-05	-2.97074168816E-01	4.07469181490E-02
7.58837675351E+10	-2.58168560400E-01	7.41227434996E-02	-3.76149615344E-05	2.06702381955E-05	-3.87567624818E-05	-8.98363768306E-05	-2.91246886337E-01	6.59021965164E-02
7.58897795591E+10	-2.56253977723E-01	7.69156234158E-02	-5.32853120459E-05	-4.58021979187E-05	-7.44411387916E-05	1.87187147664E-05	-2.87682618647E-01	7.03754088537E-02
7.58957915832E+10	-2.48869076503E-01	9.05585083516E-02	4.97835961207E-06	9.15716144656E-05	-1.28226493355E-04	3.40325240114E-06	-2.81522798043E-01	7.05669997237E-02
7.59018036072E+10	-2.47139039827E-01	8.97810873313E-02	3.35858281793E-06	1.83136160855E-04	-4.69979371139E-05	9.06618130436E-05	-2.75311973438E-01	8.54721284285E-02
7.59078156313E+10	-2.40934605322E-01	9.79902123285E-02	-6.47560866660E-05	1.03049863810E-04	3.21633262220E-05	6.01961660511E-05	-2.70350552599E-01	9.88900292342E-02
7.59138276553E+10	-2.27253105215E-01	1.17047057851E-01	-3.57230265886E-05	6.99276165173E-05	1.02505740574E-04	2.82339977229E-05	-2.62341931452E-01	1.09191868088E-01
7.59198396794E+10	-2.31213640227E-01	1.11838500828E-01	5.50326982457E-05	-3.82672063879E-05	7.32569981871E-05	-1.96577156674E-05	-2.57108873951E-01	1.06701139789E-01
7.59258517034E+10	-2.23470012112E-01	1.18866284566E-01	8.22648487214E-05	2.93890314752E-06	3.74722220605E-05	-1.36795595866E-05	-2.51264554751E-01	1.13881612162E-01
7.59318637275E+10	-2.18841958798E-01	1.23311569629E-01	1.19008325753E-05	-6.72756476746E-05	-2.54136336344E-05	8.28556936220E-06	-2.44708331388E-01	1.21275592308E-01
7.59378757515E+10	-2.10239775962E-01	1.29231053304E-01	3.60748611850E-05	-7.57975810312E-05	3.95537487575E-05	-3.97381671101E-05	-2.38826735650E-01	1.29799972313E-01
7.59438877756E+10	-2.04276911350E-01	1.40658981201E-01	-3.05079208871E-05	9.18207871221E-06	-2.26609849289E-05	-2.95347040032E-05	-2.29856175175E-01	1.38182665881E-01
7.59498997996E+10	-1.98675364998E-01	1.46973982405E-01	-9.41918329383E-05	-5.60229510096E-05	-6.60410961000E-05	-3.43161962891E-05	-2.21712738171E-01	1.41850250430E-01
7.59559118236E+10	-1.90449233374E-01	1.52479367575E-01	-1.10624486236E-04	-2.08826432493E-05	-7.22171575992E-05	-1.08885541510E-05	-2.19961912970E-01	1.40931536230E-01
7.59619238477E+10	-1.85656487424E-01	1.51560065842E-01	2.14707289095E-05	-9.00677352131E-06	-4.98752250404E-05	9.63090878377E-05	-2.12185790936E-01	1.48538995241E-01
7.59679358717E+10	-1.74210460521E-01	1.63271916473E-01	-9.67758480868E-05	2.90793900856E-05	2.31661014906E-06	1.13918136369E-05	-2.00173902538E-01	1.58810052845E-01
7.59739478958E+10	-1.70456448469E-01	1.67169891946E-01	-4.74775560050E-05	6.02573887219E-05	-2.75574675379E-05	6.29445935909E-05	-1.97054707977E-01	1.58548848988E-01
7.59799599198E+10	-1.62501094385E-01	1.71388797828E-01	4.50833926827E-05	-2.83002025032E-06	1.34085076937E-04	1.61159254820E-05	-1.90827626274E-01	1.63254041265E-01
7.59859719439E+10	-1.57539761723E-01	1.67422778600E-01	5.69919230064E-05	4.69600739369E-05	5.03180394070E-05	3.42747812288E-05	-1.84529568853E-01	1.65240890750E-01
7.59919839679E+10	-1.52069065061E-01	1.74293558553E-01	-6.92392444069E-06	8.13598089171E-06	9.18172975679E-05	6.55634019916E-05	-1.78116772255E-01	1.69693152808E-01
7.59979959920E+10	-1.41171992377E-01	1.82422586906E-01	8.11511535876E-05	-4.24204598684E-05	2.09992949389E-05	-3.04834433526E-07	-1.68016250036E-01	1.74243869030E-01
7.60040080160E+10	-1.40488375280E-01	1.77034748522E-01	-2.20734534692E-05	-1.00518931461E-04	-6.69335991115E-06	-1.08684713363E-04	-1.59615422332E-01	1.81132130586E-01
7.60100200401E+10	-1.29712238548E-01	1.83065277177E-01	-5.68363322716E-05	-4.11535981851E-05	-5.75248928961E-05	2.46123905335E-05	-1.58147213101E-01	1.78340026863E-01
7.60160320641E+10	-1.25070220258E-01	1.83621191717E-01	-1.61663846884E-05	-1.07346092689E-04	-6.82002113012E-05	-1.52153422402E-04	-1.51805585670E-01	1.82036977517E-01
7.60220440882E+10	-1.16987836464E-01	1.87495174787E-01	-2.68301942346E-05	6.68213939763E-06	-5.77383554063E-05	6.47613381272E-06	-1.49065753174E-01	1.79942448362E-01
7.60280561122E+10	-1.06331803926E-01	1.91912570945E-01	-2.42285650333E-05	-3.02771499565E-05	1.62453564343E-05	2.98165035648E-05	-1.34385901673E-01	1.87178375108E-01
7.60340681363E+10	-1.11761183994E-01	1.88282097878E-01	-3.41983719732E-05	1.89041100192E-05	-1.12872830450E-04	-4.91173151554E-06	-1.34767491497E-01	1.83427265271E-01
7.60400801603E+10	-1.05007137115E-01	1.89793848865E-01	1.70468880885E-05	1.53183485651E-05	-4.54446728680E-05	-3.74376734445E-06	-1.20408714167E-01	1.93769273418E-01
7.60460921844E+10	-9.94081163751E-02	1.90354477075E-01	1.32593008736E-05	1.02067480038E-04	-3.80206408351E-05	1.40620134689E-05	-1.18739621904E-01	1.93018848939E-01
7.60521042084E+10	-8.19922344899E-02	1.95846258956E-01	7.14911574321E-06	5.40827899216E-05	-1.34923826176E-05	4.95568867555E-05	-1.13163565491E-01	1.93578854454E-01
7.60581162325E+10	-7.38409363035E-02	1.98220916831E-01	-1.18846262188E-05	-5.90123232404E-05	-4.38716375304E-05	-5.72806567800E-05	-1.07918133508E-01	1.94763182329E-01
7.60641282565E+10	-7.46336344714E-02	1.99561737643E-01	-3.03993427164E-05	-8.50799255362E-06	4.56092631490E-06	-3.12790419762E-05	-1.01995109753E-01	1.94539173335E-01
7.60701402806E+10	-7.22092566792E-02	1.96001694421E-01	-5.69187684369E-05	-1.46375912182E-06	-1.49409535349E-05	-1.55000314576E-05	-9.63727238733E-02	1.96892215987E-01
7.60761523046E+10	-5.83957282900E-02	1.98967607410E-01	2.40164867126E-05	-8.48932941169E-05	-6.29441149947E-05	-5.40524783124E-05	-9.61180254944E-02	1.94941170083E-01
7.60821643287E+10	-5.92169628723E-02	1.98875556785E-01	4.28198473070E-05	6.06425056625E-05	-4.27614400152E-05	2.05534757558E-05	-8.63998771823E-02	1.97802643947E-01
7.60881763527E+10	-5.10388172963E-02	1.99426732393E-01	-1.08461588175E-05	-5.93080914820E-05	5.71188778078E-05	6.08085753047E-05	-7.63626751195E-02	2.00839234035E-01
7.60941883768E+10	-3.59888663994E-02	1.98893662989E-01	-2.40115360670E-06	-2.06266969650E-05	6.69308090036E-05	1.73937505699E-05	-7.23586704455E-02	2.00101225226E-01
7.61002004008E+10	-3.45208835138E-02	2.01204705049E-01	-3.56891440932E-07	2.11443109055E-05	6.07541571565E-05	-1.92693821628E-05	-6.69187086692E-02	2.00479829807E-01
7.61062124248E+10	-3.03060464839E-02	2.01937695718E-01	8.31401253712E-05	1.05045497738E-05	1.96322911784E-05	-1.66512524882E-05	-6.28650855760E-02	2.00391715184E-01
7.61122244489E+10	-2.65048248259E-02	1.95406370377E-01	-2.70209535957E-05	-5.99586479771E-06	-1.62909419855E-05	-6.58866885823E-05	-5.48680071817E-02	2.00220480581E-01
7.61182364729E+10	-1.99607226372E-02	1.98435483290E-01	-1.11419040597E-05	-1.51179165803E-05	-8.53550985833E-07	-6.54017209381E-05	-4.85680379754E-02	2.01258019974E-01
7.61242484970E+10	-1.46253234810E-02	1.97724175079E-01	-3.11790437886E-05	-4.67161868745E-05	-4.92933897467E-06	-5.01943612284E-05	-4.13093267050E-02	2.01926969961E-01
7.61302605210E+10	-1.67795687783E-02	1.95464575999E-01	1.19713066409E-06	-1.16411631338E-05	-5.84370838648E-07	3.01271566777E-05	-3.87395629541E-02	2.00717115083E-01
7.61362725451E+10	6.11713267210E-04	1.95040187975E-01	-1.25289690120E-05	4.16539796104E-05	-3.60457860126E-05	-2.89776629105E-05	-2.91598925547E-02	1.99149892399E-01
7.61422845691E+10	6.77001686794E-03	1.95293316624E-01	-3.06970149123E-05	-3.58113839585E-05	1.56573786611E-05	3.82966483408E-05	-2.81507484807E-02	1.98425678403E-01
7.61482965932E+10	8.32105055774E-03	1.92650913484E-01	-3.65314722292E-05	-5.58206110353E-06	-6.91923706808E-06	3.97646627610E-05	-1.96634961351E-02	2.00202792690E-01
7.61543086172E+10	1.12125155620E-02	1.94951348331E-01	-6.33526562562E-05	7.14652268061E-05	-3.75788687213E-05	6.86676942623E-06	-1.44370173672E-02	1.97993734179E-01
7.61603206413E+10	1.35456042088E-02	1.92143196056E-01	-1.42210490817E-05	-3.72903616938E-05	-2.56949176185E-06	3.30601168076E-05	-1.10935999463E-02	1.97996262269E-01
7.61663326653E+10	1.90352272401E-02	1.89909894681E-01	-2.32234062467E-05	-5.64497153581E-05	-3.80499039733E-05	3.04161114569E-06	-5.91952652687E-03	1.96020164443E-01
7.61723446894E+10	2.85321071344E-02	1.88688447123E-01	-1.42466717382E-05	6.80654050560E-05	-2.35688707960E-05	5.72365247525E-05	2.51642169094E-03	1.94042944269E-01
7.61783567134E+10	3.40010319570E-02	1.86671892809E-01	-2.84653799971E-05	-1.61990900361E-05	2.47070408946E-05	5.16078840326E-05	9.19998854372E-03	1.92502837607E-01
7.61843687375E+10	3.79160587811E-02	1.85204025733E-01	-3.79936947291E-05	-2.52074998678E-05	-2.72584698928E-06	-2.44549025850E-05	1.40133721136E-02	1.90274399166E-01
7.61903807615E+10	4.36730737873E-02	1.81345136706E-01	6.72043893721E-05	1.66690095381E-05	3.20444225291E-05	-7.51032892123E-06	1.48818555030E-02	1.89361306932E-01
7.61963927856E+10	4.32380058130E-02	1.81991397819E-01	1.31632967863E-04	-4.53798678311E-05	3.67111498408E-05	1.05234169746E-05	1.84851602364E-02	1.87693601880E-01
7.62024048096E+10	5.70213326936E-02	1.74965501880E-01	1.51339502755E-05	-2.66269733691E-05	2.13348412043E-05	3.93002568105E-05	2.40475879016E-02	1.85430393218E-01
7.62084168337E+10	5.57653100223E-02	1.75505468848E-01	2.71059993343E-05	-1.92236577471E-05	6.12679586912E-06	-2.31961871130E-05	3.05112111467E-02	1.83772033613E-01
7.62144288577E+10	5.68904209194E-02	1.75906764322E-01	-4.10405765812E-05	-1.42066089977E-05	-3.95516571490E-05	7.43410938040E-06	3.67630358687E-02	1.81277837726E-01
7.62204408818E+10	6.25870394842E-02	1.71680052600E-01	3.51484294423E-06	6.60868368752E-06	-2.53748733321E-05	-3.38010152939E-06	4.27427815607E-02	1.78068643980E-01
7.62264529058E+10	7.38659876943E-02	1.69244362438E-01	-2.37475081511E-05	-1.19981594206E-05	1.52328730586E-05	1.10324464073E-04	4.49284035827E-02	1.75823104101E-01
7.62324649299E+10	7.64731240169E-02	1.64414278436E-01	-1.07794010547E-07	-1.69282063666E-05	-7.38311470178E-05	1.60755874757E-05	4.54053689283E-02	1.74386593307E-01
7.62384769539E+10	7.64568701558E-02	1.63489971215E-01	7.04619597639E-06	-3.12372939869E-06	-2.54592742412E-06	2.09736423929E-05	4.99039702689E-02	1.72009335377E-01
7.62444889780E+10	7.72512307926E-02	1.64334365885E-01	7.30390084862E-05	4.56072842211E-06	1.50202239889E-05	4.84633957237E-05	5.55774698963E-02	1.70144164941E-01
7.62505010020E+10	8.28913304421E-02	1.60839230833E-01	-2.43351609414E-05	2.76468780010E-05	-1.48020641433E-06	-1.45028272577E-05	6.06486499173E-02	1.68163414038E-01
7.62565130261E+10	8.76540634169E-02	1.58725980331E-01	2.03729437154E-05	6.79309731257E-05	-7.32911425198E-06	4.60430622492E-05	6.39140944700E-02	1.64868355730E-01
7.62625250501E+10	9.53572664486E-02	1.51810123664E-01	-1.87946797420E-05	-7.37022566435E-06	3.40524646048E-05	2.61617574674E-05	7.03207057514E-02	1.62700226718E-01
7.62685370741E+10	9.67448587201E-02	1.49516276268E-01	7.44482359016E-05	-4.39693833010E-05	-6.62024268436E-06	-8.59204280473E-06	6.87451250474E-02	1.60950114561E-01
7.62745490982E+10	9.82817750897E-02	1.47839270431E-01	2.89411795132E-05	-5.32708003316E-05	8.12779688985E-06	9.89427821503E-06	7.37688599158E-02	1.59806841806E-01
7.62805611222E+10	1.01756622678E-01	1.47916431985E-01	-1.77511626722E-05	-1.58286973744E-05	-1.15200479185E-05	-6.12503618630E-05	8.00459446446E-02	1.52475469046E-01
7.62865731463E+10	1.03614058323E-01	1.43756043326E-01	1.00255769459E-06	-2.20896631853E-05	1.57043630208E-05	-3.20125443018E-05	8.33686112047E-02	1.49296116475E-01
7.62925851703E+10	1.10837715123E-01	1.37723828513E-01	-2.54101560378E-05	-1.81270750761E-05	-4.01897910345E-05	-1.21747758752E-05	8.11012591214E-02	1.50151962824E-01
7.62985971944E+10	1.16581356387E-01	1.32446856652E-01	1.29929374360E-05	-9.78252961259E-06	-1.67082601945E-05	1.21423412055E-05	8.63350094862E-02	1.46640994454E-01
7.63046092184E+10	1.18497975814E-01	1.26755181371E-01	-9.90658914436E-06	1.32830919468E-05	2.81598537765E-05	2.95833948465E-06	8.89781777062E-02	1.44664733599E-01
7.63106212425E+10	1.19338238003E-01	1.28454455232E-01	-1.77127060041E-05	-8.42954262238E-05	2.68255013123E-05	1.46027766978E-05	9.57391326440E-02	1.39134265837E-01
7.63166332665E+10	1.18627486012E-01	1.26212130640E-01	-6.15301912176E-05	2.62960625362E-05	3.22146057101E-05	-2.13749213981E-05	1.00034566898E-01	1.33742255727E-01
7.63226452906E+10	1.25344483696E-01	1.25459106170E-01	-1.71529807890E-05	-2.02065127262E-05	2.76200613099E-05	3.90748326763E-05	9.75706586274E-02	1.33642145945E-01
7.63286573146E+10	1.27545354594E-01	1.18260591117E-01	-5.39711607760E-06	-2.15662340483E-05	5.99029350462E-05	2.34476910580E-05	1.02231444176E-01	1.29486839948E-01
7.63346693387E+10	1.26788982613E-01	1.16190330483E-01	3.16744179673E-05	4.14367719529E-05	-1.61207014255E-05	-3.73378836435E-05	1.05725940606E-01	1.27939189134E-01
7.63406813627E+10	1.31736453845E-01	1.11138335365E-01	2.44055289806E-05	5.73996114624E-05	-3.03352725346E-05	1.17219873244E-05	1.09904297696E-01	1.21268400487E-01
7.63466933868E+10	1.39153545992E-01	1.07316295633E-01	-1.82357525314E-05	-1.23607596190E-05	-3.41223831085E-06	-1.07725000682E-05	1.09070079029E-01	1.20886950991E-01
7.63527054108E+10	1.34271302500E-01	1.08478303774E-01	-4.20183773125E-05	-6.59563081313E-05	1.46064623764E-05	3.54416866116E-05	1.14287564476E-01	1.17727027129E-01
7.63587174349E+10	1.36610115096E-01	1.04656314653E-01	-2.88818139155E-05	-3.31786775926E-05	-3.17283235829E-05	5.80254211319E-06	1.18603711796E-01	1.13113080550E-01
7.63647294589E+10	1.42065709006E-01	9.91142112720E-02	3.79361121313E-05	5.77677345188E-06	5.31011257895E-05	4.73310729746E-06	1.18630302345E-01	1.10517276175E-01
7.63707414830E+10	1.45852633128E-01	9.28077824952E-02	-2.13664922813E-05	-3.10752945311E-05	6.22404358852E-05	-1.32308306029E-05	1.21087005873E-01	1.06248232784E-01
7.63767535070E+10	1.47565457079E-01	8.92741474104E-02	1.86665454970E-06	1.99596593553E-06	-2.64327575376E-05	-3.37575316952E-05	1.24505385958E-01	1.02954212638E-01
7.63827655311E+10	1.47239977843E-01	8.73907647093E-02	-1.32994505100E-05	-1.30672823282E-05	1.81947308239E-05	-7.35543501354E-05	1.25719852269E-01	1.00055222917E-01
7.63887775551E+10	1.49504401385E-01	8.51286691688E-02	-1.55712599113E-05	-3.13775082896E-05	-1.29468421457E-05	-4.31572862611E-05	1.26500136808E-01	9.78710266571E-02
7.63947895792E+10	1.51497000349E-01	7.98590799370E-02	3.60097017825E-06	-9.38201787950E-05	-5.07700801140E-05	-2.73874069724E-05	1.29855295637E-01	9.32907078031E-02
7.64008016032E+10	1.52071756985E-01	7.27852507762E-02	-5.30263173683E-05	-2.51681433421E-05	-8.33758612220E-06	-1.07578720976E-05	1.32508158921E-01	8.70220741123E-02
7.64068136273E+10	1.58110721507E-01	7.10703271347E-02	-3.01905935864E-05	3.85786932498E-05	-7.34396362225E-05	-1.83995981479E-05	1.33614476926E-01	8.42140652322E-02
7.64128256513E+10	1.57213658998E-01	6.87494200882E-02	-1.67764845279E-05	7.22714331198E-05	-2.51963380498E-05	5.53393911326E-06	1.36594488169E-01	8.02344740201E-02
7.64188376754E+10	1.56912431258E-01	6.71114975487E-02	-7.51068831515E-05	-2.18333887145E-05	-4.78633232558E-05	-1.29223463735E-05	1.35736523066E-01	8.14193134705E-02
7.64248496994E+10	1.59099733372E-01	6.07051285005E-02	-1.24418974722E-05	-1.93611612910E-05	-5.89361113042E-05	1.57317506538E-05	1.39725411976E-01	7.20459531519E-02
7.64308617234E+10	1.60871564581E-01	6.03316362452E-02	-2.76902286551E-05	4.83789618742E-05	8.50411034022E-07	7.01889168464E-05	1.42023638177E-01	6.78577410533E-02
7.64368737475E+10	1.63306443595E-01	5.39703907138E-02	9.32515361112E-06	1.55724785394E-05	-2.39239171485E-05	-1.57383406769E-05	1.45240122388E-01	6.47638849796E-02
7.64428857715E+10	1.66373858869E-01	4.52570800581E-02	7.28996432835E-05	-3.18147767922E-05	-2.32349498045E-05	-3.65753893444E-05	1.42725535842E-01	6.54088418747E-02
7.64488977956E+10	1.66086043360E-01	3.98353991962E-02	-1.19201845134E-05	6.08587157073E-05	-9.96831380445E-06	-1.44776341696E-05	1.43821957629E-01	6.14711605931E-02
7.64549098196E+10	1.65107661219E-01	3.71778536743E-02	-7.82258989937E-06	-5.99991095732E-05	4.62851657993E-05	-5.52125366324E-05	1.46717986955E-01	5.52091601640E-02
7.64609218437E+10	1.65279163344E-01	3.49068592428E-02	4.68317800885E-06	-2.91565069213E-05	2.12105729199E-05	-1.08891750610E-04	1.47925852857E-01	5.03887113397E-02
7.64669338677E+10	1.66447924382E-01	3.16843789293E-02	1.55638581025E-05	-3.98471450951E-06	-1.98582191106E-05	-6.95623154087E-05	1.49276169064E-01	4.45683167242E-02
7.64729458918E+10	1.68580514950E-01	2.95302411689E-02	-3.71820125352E-05	-5.40844985698E-05	-5.05151793162E-05	-2.14411155493E-05	1.48789428717E-01	4.45871080878E-02
7.64789579158E+10	1.70907174571E-01	2.17566668228E-02	-1.74412704910E-05	1.08846034781E-05	-2.87558408997E-05	5.73005342650E-05	1.49763018025E-01	4.07348767868E-02
7.64849699399E+10	1.71901643731E-01	1.71545140079E-02	-5.71516142638E-05	1.21345979452E-04	2.89736414085E-05	1.51716039946E-05	1.51600215708E-01	3.57117314482E-02
7.64909819639E+10	1.70239994762E-01	1.48576740153E-02	-7.59219760742E-05	3.70463487790E-05	-4.45539273522E-05	4.27500329717E-05	1.53150344046E-01	2.80503839605E-02
7.64969939880E+10	1.69731087289E-01	1.29927204244E-02	-1.25770303024E-05	5.29550222448E-05	-3.66710569192E-05	-2.12292707425E-05	1.53078798276E-01	2.35699113248E-02
7.65030060120E+10	1.69700062914E-01	5.12150869449E-03	-5.44539328818E-05	-1.16243956754E-05	-8.26599674391E-06	5.77592131408E-05	1.52985767695E-01	2.18853541512E-02
7.65090180361E+10	1.72905342580E-01	-2.42894484691E-03	-7.01749382757E-05	4.24217753292E-05	6.64255458123E-06	7.74107342578E-05	1.51442511087E-01	2.07566003780E-02
7.65150300601E+10	1.71751195940E-01	-1.00714544492E-03	1.67121938659E-05	1.94571070091E-05	3.43560727406E-05	1.21871154078E-05	1.53769311159E-01	1.08959630524E-02
7.65210420842E+10	1.69841905706E-01	-9.15860484572E-03	-2.24831891598E-06	3.67459598895E-05	8.55121601333E-05	6.48432206185E-05	1.55075799811E-01	6.88419127157E-03
7.65270541082E+10	1.69082695311E-01	-8.52023963708E-03	9.97546522544E-05	1.07042404120E-04	4.10831297464E-05	2.08588210834E-05	1.53774099303E-01	5.65975796841E-03
7.65330661323E+10	1.71338790548E-01	-1.82630072779E-02	3.54637653920E-05	-4.20015687800E-05	1.44043211407E-05	4.65354721623E-05	1.53524116214E-01	8.57038216894E-04
7.65390781563E+10	1.70576228554E-01	-2.42963391137E-02	3.82839195971E-06	-8.60651251432E-07	9.06054756077E-05	4.15493094306E-05	1.52135236239E-01	-3.86879532819E-03
7.65450901804E+10	1.71633489114E-01	-2.91394396301E-02	3.41216272575E-05	-7.09914665951E-05	3.98022751073E-05	-3.34485699515E-05	1.51780381437E-01	-7.86697096892E-03
7.65511022044E+10	1.68801453146E-01	-3.00444954453E-02	-1.99558976344E-05	-7.04346723979E-05	-1.02041798567E-05	-3.40504844645E-05	1.50683727329E-01	-1.23508041958E-02
7.65571142285E+10	1.67229903359E-01	-3.27041737594E-02	-3.04917956221E-05	-4.78165187255E-05	-1.82334153041E-05	-9.48823193616E-05	1.52264787220E-01	-1.84155823967E-02
7.65631262525E+10	1.67043253572E-01	-3.62068525499E-02	-4.40578982212E-05	-4.08936652687E-05	-3.43326019722E-05	-4.62555850327E-05	1.51535832924E-01	-2.46916523121E-02
7.65691382766E+10	1.65172929662E-01	-4.49862521255E-02	-5.09760359864E-05	2.22499708453E-05	-6.47810853007E-05	2.58083866945E-05	1.47600187080E-01	-2.48242740543E-02
7.65751503006E+10	1.63767518363E-01	-5.09713666955E-02	-6.76658364106E-05	8.20081582070E-05	-1.01405095297E-05	-2.23331399873E-05	1.47301310316E-01	-2.70511347208E-02
7.65811623246E+10	1.62425207163E-01	-5.44994325090E-02	3.77998513188E-05	3.52535945831E-05	-1.70716017481E-05	5.32523099527E-06	1.47490649486E-01	-3.18409227609E-02
7.65871743487E+10	1.60597415878E-01	-5.74777782947E-02	5.25623930450E-06	1.78272734249E-06	-2.30124893290E-05	2.87365706684E-05	1.45213114399E-01	-3.77679264557E-02
7.65931863727E+10	1.59792432927E-01	-5.99643018655E-02	-3.06970209962E-06	5.19570209865E-05	-1.15833537339E-05	-1.12114883392E-05	1.43873375978E-01	-4.39924118767E-02
7.65991983968E+10	1.59831800816E-01	-6.30909434016E-02	4.61979448506E-05	7.11414785486E-06	-3.21685360253E-06	3.77322296749E-06	1.42933857518E-01	-4.56432945768E-02
7.66052104208E+10	1.57392619802E-01	-6.67743053448E-02	1.48671317915E-05	1.05967141305E-05	-2.22875545951E-05	4.02021274714E-05	1.40556830219E-01	-4.63552090751E-02
7.66112224449E+10	1.53486754802E-01	-7.02257973317E-02	1.28124154296E-05	-5.69205175700E-05	4.89908340240E-05	-9.19088618250E-07	1.39848576018E-01	-5.43377593264E-02
7.66172344689E+10	1.53170971782E-01	-7.58817113962E-02	-8.51634212239E-06	-6.49290134810E-05	5.09507248488E-05	-3.81669354201E-05	1.37817479896E-01	-5.93354301271E-02
7.66232464930E+10	1.51127049743E-01	-8.14241806302E-02	2.01812430246E-05	-1.46153947416E-05	-3.73062087705E-05	1.05176355877E-05	1.35974378036E-01	-5.90440277279E-02
7.66292585170E+10	1.49526087118E-01	-8.48374089636E-02	9.35482398598E-05	-9.85024274901E-05	-8.13131391732E-06	-5.54503214715E-05	1.33349021933E-01	-6.59209730932E-02
7.66352705411E+10	1.46676574883E-01	-8.84065613145E-02	-4.25794922195E-05	-4.37647219437E-05	-6.02521763700E-05	-1.20289751970E-05	1.31644861569E-01	-6.86361147854E-02
7.66412825651E+10	1.43555711886E-01	-9.29789099772E-02	-4.28068507704E-05	-6.75862348984E-05	-1.12878992277E-04	5.15834189393E-06	1.29623303411E-01	-7.23902727400E-02
7.66472945892E+10	1.40920913522E-01	-9.58635816360E-02	-8.66876329579E-05	9.49958541321E-06	-1.33114854201E-05	2.29084848517E-06	1.28473445511E-01	-7.39903401127E-02
7.66533066132E+10	1.42737612196E-01	-8.88049812994E-02	1.68023733417E-05	3.57593837902E-05	-6.14937259391E-05	4.15677393653E-06	1.26464539194E-01	-7.68924472027E-02
7.66593186373E+10	1.34654516551E-01	-1.00031405224E-01	-5.59284451949E-05	2.01308072684E-05	-1.91081181912E-05	5.12218898725E-06	1.22170248884E-01	-8.40550560870E-02
7.66653306613E+10	1.31459664504E-01	-1.09765870333E-01	2.56096559027E-05	6.70319063145E-05	-2.36897388436E-05	5.81328081731E-05	1.20693567859E-01	-8.74630703744E-02
7.66713426854E+10	1.30516762658E-01	-1.10327713112E-01	-8.17967222897E-05	3.99053753990E-05	-5.70633958948E-06	6.28316867841E-05	1.19282824351E-01	-8.89706371429E-02
7.66773547094E+10	1.29735267980E-01	-1.11280653973E-01	-2.05652208421E-05	2.42155374301E-05	2.18650024891E-05	5.62743331359E-05	1.14630508888E-01	-9.31908079449E-02
7.66833667335E+10	1.26861319743E-01	-1.11428990906E-01	6.98873313139E-05	1.32360232686E-05	9.87947934018E-07	2.03109109711E-05	1.15400165156E-01	-9.36923053688E-02
7.66893787575E+10	1.17930849553E-01	-1.22791732474E-01	5.24188153623E-05	-1.56534818909E-05	6.61210060246E-05	-2.06851772797E-05	1.11353020826E-01	-9.81079841672E-02
7.66953907816E+10	1.17388600979E-01	-1.24196425748E-01	1.01552851513E-06	1.26095340396E-05	3.30702782157E-05	3.77631303678E-05	1.09247762492E-01	-9.93280531980E-02
7.67014028056E+10	1.16005009458E-01	-1.25263470192E-01	5.54939623186E-05	-8.09940087044E-06	7.99123063589E-05	2.53581874413E-05	1.04257939754E-01	-1.06579686777E-01
7.67074148297E+10	1.13700103147E-01	-1.24921850453E-01	-6.16717833478E-05	-3.48905466703E-05	4.26764243138E-05	-3.90491416816E-05	1.02098039179E-01	-1.08574122686E-01
7.67134268537E+10	1.08320505407E-01	-1.28279669488E-01	-6.40014331106E-06	-7.63349519376E-05	3.88170073417E-05	-2.85146544564E-05	1.00486717652E-01	-1.08332362959E-01
7.67194388778E+10	1.03368283062E-01	-1.36381321544E-01	-1.67412983721E-05	2.65150962353E-05	-5.69676311591E-05	-2.13636164649E-05	9.77053757113E-02	-1.11618734849E-01
7.67254509018E+10	1.00326130337E-01	-1.37940574900E-01	-2.77652992743E-05	-5.75208900986E-05	-6.93128953563E-05	-2.00632417375E-05	9.52690500524E-02	-1.16202145857E-01
7.67314629259E+10	9.83240924801E-02	-1.35259921702E-01	-5.30243664753E-05	-2.76928038606E-05	-7.58015065716E-06	-2.02402890411E-06	9.19076914047E-02	-1.20253270449E-01
7.67374749499E+10	9.26444761082E-02	-1.44027134570E-01	-1.10381894296E-04	2.70861819429E-06	-2.18054044449E-05	-3.91064867448E-05	8.70054429087E-02	-1.21923873890E-01
7.67434869739E+10	8.84016637474E-02	-1.48332732208E-01	-7.70542709482E-05	7.86756955244E-05	-3.90222853085E-05	4.43657206891E-05	8.32465014284E-02	-1.24779564984E-01
7.67494989980E+10	8.87329437149E-02	-1.41553448396E-01	2.48199498946E-05	3.18875568032E-05	-5.07918011775E-05	9.48028740787E-05	7.70660464160E-02	-1.30251676954E-01
7.67555110220E+10	7.81766705827E-02	-1.47483152480E-01	3.86243917061E-05	8.98228362175E-05	1.12282267058E-05	1.60283524125E-05	7.59262014626E-02	-1.31537987234E-01
7.67615230461E+10	7.81231771293E-02	-1.46655308901E-01	6.86219271941E-05	-2.69897378756E-05	4.74904660241E-05	4.73668507817E-05	7.22691373563E-02	-1.33497163611E-01
7.67675350701E+10	7.30697988182E-02	-1.50315012281E-01	4.97935637531E-05	-3.37243265243E-05	8.18994949181E-05	-3.09036788927E-06	6.80282037647E-02	-1.34805041529E-01
7.67735470942E+10	6.97157648214E-02	-1.52522960521E-01	-8.53501951210E-06	-8.62460325299E-05	7.52641515567E-05	2.38866458088E-05	6.36816669318E-02	-1.37899718879E-01
7.67795591182E+10	6.23562732041E-02	-1.58633276425E-01	6.81701424494E-06	3.83077699559E-06	4.21524128863E-05	-1.44503620311E-05	6.16595178287E-02	-1.37850581344E-01
7.67855711423E+10	5.87430014672E-02	-1.60135963238E-01	1.98608344104E-05	4.52431023206E-05	-8.68427851433E-06	-3.28130643658E-05	5.34488151043E-02	-1.42142416767E-01
7.67915831663E+10	5.17709521973E-02	-1.59323329548E-01	-2.16790415436E-05	-4.59034039306E-05	4.36721524755E-05	-3.66520357801E-05	5.04985457342E-02	-1.44049785586E-01
7.67975951904E+10	5.20606267680E-02	-1.58910170332E-01	3.60462458648E-05	-4.57840419866E-05	2.07826528277E-05	-3.49825131101E-06	4.35620663226E-02	-1.46318146627E-01
7.68036072144E+10	4.84823390726E-02	-1.55790429816E-01	-1.78512802984E-05	-4.12703513546E-05	4.70917463888E-05	-4.13368068835E-05	3.84635829645E-02	-1.48338035392E-01
7.68096192385E+10	3.76904594497E-02	-1.65311325893E-01	-2.84053662358E-05	-4.89791358423E-05	-1.78832798814E-05	-8.74597515306E-05	3.46171989068E-02	-1.49048696328E-01
7.68156312625E+10	3.88497825528E-02	-1.61693940500E-01	-5.50679395063E-05	3.76728210067E-05	1.45931169827E-05	-3.91612267098E-05	2.89046651472E-02	-1.49305754805E-01
7.68216432866E+10	3.71333938643E-02	-1.59911056138E-01	-4.82043682975E-05	-2.40017180104E-05	1.11507505478E-05	-3.57984134755E-05	2.72299786855E-02	-1.47415007288E-01
7.68276553106E+10	2.57701823192E-02	-1.64457232269E-01	-9.38976715471E-05	-2.73942306130E-05	-1.91910189646E-05	-8.16010937982E-06	2.36297024987E-02	-1.48097715879E-01
7.68336673347E+10	2.54473676866E-02	-1.63016399799E-01	-4.97821295551E-05	7.97720123068E-05	-1.47982846228E-05	5.54116968543E-05	1.72465006142E-02	-1.49680777150E-01
7.68396793587E+10	1.95958447526E-02	-1.66161171268E-01	-3.06032439335E-06	6.92641703090E-05	5.59486739397E-05	7.86363546568E-05	9.98506106724E-03	-1.49067973933E-01
7.68456913828E+10	1.25814495658E-02	-1.67014142024E-01	5.76400194202E-05	1.40549589758E-05	5.94718963883E-05	7.81231044944E-06	2.53543248996E-03	-1.49849513932E-01
7.68517034068E+10	7.83293366757E-03	-1.66658360507E-01	-7.95561958269E-08	2.10831543199E-05	4.34734714580E-05	-1.43815445617E-05	4.37133263223E-03	-1.47212513755E-01
7.68577154309E+10	2.08523586804E-03	-1.63891412223E-01	7.73753773445E-05	-3.85273572493E-05	4.96459382778E-05	-1.32168642016E-04	-6.38037310774E-04	-1.47561770632E-01
7.68637274549E+10	-3.23724426495E-03	-1.67124238516E-01	1.12244549980E-04	-7.52961407910E-05	1.87318514873E-05	-7.96768043311E-05	-8.95695537968E-03	-1.47680462378E-01
7.68697394790E+10	1.41706814172E-04	-1.61756773896E-01	1.03474069020E-04	-3.70817541184E-05	-3.46196371679E-05	-1.04304363910E-04	-1.11233686495E-02	-1.46809843860E-01
7.68757515030E+10	-4.22932486641E-03	-1.62368751579E-01	1.83357747011E-05	-4.30512131666E-05	-3.66428122157E-05	-3.07299617922E-05	-1.51968604619E-02	-1.44741402536E-01
7.68817635271E+10	-1.21668984743E-02	-1.64373723758E-01	-6.55733478170E-05	-2.50810088853E-05	-8.69442174565E-05	-1.12448906759E-04	-1.72614552421E-02	-1.42358262066E-01
7.68877755511E+10	-1.61904094394E-02	-1.62254054689E-01	-2.15005447454E-05	-1.89139645866E-05	-8.95011276427E-05	-7.07464092647E-05	-2.22330650448E-02	-1.42237874505E-01
7.68937875752E+10	-2.57172356670E-02	-1.63770148191E-01	-1.14820479769E-05	-2.91605528109E-05	-1.31757556641E-04	-6.35718993561E-05	-2.52662906334E-02	-1.41846715876E-01
7.68997995992E+10	-2.80068521406E-02	-1.60685130942E-01	-6.12697413290E-05	7.29553665311E-05	-1.33073031435E-04	-1.34365945308E-05	-2.90322267572E-02	-1.41023078445E-01
7.69058116232E+10	-3.36492969768E-02	-1.60861036631E-01	-1.52297885266E-04	5.24262614814E-06	-8.04573009788E-05	-1.38228289158E-05	-3.71801853994E-02	-1.39754976589E-01
7.69118236473E+10	-3.55619389734E-02	-1.57055125223E-01	-8.17407701985E-05	3.37719955966E-05	-1.02083413353E-04	9.67715738825E-05	-3.80085787621E-02	-1.38764766173E-01
7.69178356713E+10	-4.09872517568E-02	-1.58246116858E-01	1.23093705670E-05	5.81319845887E-05	-4.48675388731E-05	7.12802655921E-05	-3.68144084147E-02	-1.37654536952E-01
7.69238476954E+10	-4.32507745480E-02	-1.55750974956E-01	1.54229362905E-05	1.00143146452E-05	6.68999809182E-06	1.20753108983E-04	-4.43419531544E-02	-1.37172806350E-01
7.69298597194E+10	-5.15782810333E-02	-1.56004807024E-01	4.68369555295E-05	4.90987972640E-05	6.07064468700E-05	7.93743119344E-05	-5.19297930608E-02	-1.35120461725E-01
7.69358717435E+10	-5.18162402661E-02	-1.51189984661E-01	7.97441463178E-05	2.33443464525E-06	3.75026466204E-05	1.87192492418E-05	-5.46139941589E-02	-1.34159569047E-01
7.69418837675E+10	-5.78316057277E-02	-1.48947145257E-01	3.63360420203E-05	3.37528663705E-05	1.05501157019E-04	7.36685880009E-05	-5.84309223023E-02	-1.32063291530E-01
7.69478957916E+10	-6.41888706190E-02	-1.48697274623E-01	1.27571735586E-04	-4.90724661527E-05	7.55209853447E-05	-4.59938433249E-05	-5.89378124813E-02	-1.30832748361E-01
7.69539078156E+10	-6.39986136510E-02	-1.45781108254E-01	3.53066658239E-05	-1.08996329915E-04	1.10706306193E-04	-6.41145655548E-05	-5.85339239397E-02	-1.31759967969E-01
7.69599198397E+10	-6.39338091817E-02	-1.42657934601E-01	-5.24305348593E-05	-1.82662455921E-05	2.45952263523E-05	-7.66641410537E-05	-6.52388594348E-02	-1.29987139069E-01
7.69659318637E+10	-7.25599727045E-02	-1.40993606023E-01	7.91791320884E-05	-4.00723102842E-05	-5.98310854104E-05	-5.24855251021E-05	-7.28853005472E-02	-1.25711876715E-01
7.69719438878E+10	-7.74362432118E-02	-1.37021202123E-01	-4.86378069474E-05	3.58922603750E-05	2.64984814955E-05	-4.44189207688E-05	-7.07418674116E-02	-1.26115940383E-01
7.69779559118E+10	-7.95273053448E-02	-1.34995249367E-01	-2.92493910616E-05	-4.27677935147E-05	-1.04667207975E-04	1.49014627675E-05	-7.45854564855E-02	-1.23458223000E-01
7.69839679359E+10	-8.27040673201E-02	-1.31989199462E-01	-1.95158955014E-05	9.39253885202E-06	-9.41200651736E-06	1.65495828979E-05	-8.09711142937E-02	-1.20631234616E-01
7.69899799599E+10	-8.33454456971E-02	-1.30379368900E-01	-2.16305084050E-05	7.11711588175E-05	3.18268992873E-05	1.46060036187E-05	-8.29658828471E-02	-1.19476001679E-01
7.69959919840E+10	-8.41916422294E-02	-1.28009455596E-01	-2.00719809847E-05	2.94802144718E-05	-3.76635279033E-05	-2.31114493043E-05	-8.51285393719E-02	-1.17998072352E-01
7.70020040080E+10	-8.97784563745E-02	-1.25245616966E-01	-8.83124414603E-06	4.51758529345E-05	8.92990927638E-06	-4.13192508054E-05	-9.47939906938E-02	-1.14206458902E-01
7.70080160321E+10	-9.76387143891E-02	-1.21819093455E-01	3.89654062148E-05	1.02961267464E-04	-4.49730648166E-05	-5.30103731055E-05	-9.42067848518E-02	-1.13247226211E-01
7.70140280561E+10	-1.02243174777E-01	-1.19443396118E-01	5.89713818925E-05	4.00230593857E-05	3.11805996838E-05	6.03286973153E-05	-9.46825251993E-02	-1.11389075168E-01
7.70200400802E+10	-9.86247229724E-02	-1.18486061577E-01	8.18825348880E-05	1.63133552444E-05	4.89360878372E-05	4.79976396026E-06	-1.01614639628E-01	-1.07289959553E-01
7.70260521042E+10	-1.04259672514E-01	-1.12177863884E-01	3.44633445414E-05	-6.66972479833E-05	1.66405828868E-05	-9.14710664701E-05	-1.04599087296E-01	-1.03537016838E-01
7.70320641283E+10	-1.09720073738E-01	-1.07821112690E-01	5.10961405872E-05	-4.51070421334E-05	-5.34334666346E-05	-5.63775087530E-05	-1.07802732316E-01	-1.00420749277E-01
7.70380761523E+10	-1.10755050414E-01	-1.06501670469E-01	9.22991100898E-07	-3.95200783750E-05	-2.23058071412E-05	-4.31825426496E-05	-1.11294454133E-01	-9.86334589453E-02
7.70440881764E+10	-1.11093973969E-01	-1.01712107727E-01	-2.10408794127E-05	-2.77077019937E-05	3.54777045062E-06	-7.97320604645E-05	-1.15943916718E-01	-9.27292992705E-02
7.70501002004E+10	-1.12607093677E-01	-1.00484891657E-01	-4.79408901436E-06	-2.21104973523E-06	-6.07563595196E-05	-6.70680032244E-05	-1.14077923634E-01	-9.19034775309E-02
7.70561122244E+10	-1.19785581990E-01	-9.39280136677E-02	-4.13644211766E-05	2.22037217868E-05	-1.04416862549E-04	4.67681535904E-05	-1.20804892126E-01	-8.52067320825E-02
7.70621242485E+10	-1.17430687279E-01	-9.39502080169E-02	-4.24996427467E-05	-4.41976766605E-05	-3.88142762236E-05	4.82976372624E-05	-1.24133088872E-01	-7.93253953374E-02
7.70681362725E+10	-1.21318831053E-01	-8.74196303670E-02	-4.78157423038E-05	2.11637411606E-05	-9.60882743219E-05	3.77479218779E-05	-1.27153883547E-01	-7.64886690395E-02
7.70741482966E+10	-1.12620660013E-01	-9.35581027214E-02	-1.54802865821E-05	-8.78207189434E-06	7.71776512629E-06	2.55995808274E-05	-1.26565617007E-01	-7.39614851074E-02
7.70801603206E+10	-1.21074278947E-01	-8.40954428147E-02	-1.06654611138E-06	-6.08277286493E-05	-2.33375729001E-05	-1.53434993269E-05	-1.25755210610E-01	-7.17047202589E-02
7.70861723447E+10	-1.26168915763E-01	-7.75781605462E-02	3.40163907292E-05	1.41217319913E-05	1.97114543818E-05	1.25957502287E-04	-1.28633342823E-01	-6.57648218255E-02
7.70921843687E+10	-1.27514651481E-01	-7.36058549101E-02	2.66155318060E-05	2.42567732888E-05	-4.34689608954E-05	7.48843079290E-05	-1.32570457907E-01	-5.84597118859E-02
7.70981963928E+10	-1.30242349372E-01	-7.32799245661E-02	4.49389234314E-05	1.12613122689E-05	-8.10684670600E-05	1.25142882740E-04	-1.33542977706E-01	-5.36732672775E-02
7.71042084168E+10	-1.30656345949E-01	-7.20786478829E-02	2.46634706451E-05	-2.27273087411E-05	-9.23897206575E-06	1.71223239340E-04	-1.28582141041E-01	-5.61610032344E-02
7.71102204409E+10	-1.37337494333E-01	-6.25263411283E-02	5.52170307925E-05	-2.12979388646E-05	6.74854539752E-05	4.76045599128E-05	-1.29865468228E-01	-5.06763279160E-02
7.71162324649E+10	-1.36035706799E-01	-5.91744255557E-02	1.20424835651E-05	1.06100460898E-05	6.07064070282E-05	4.38137788257E-05	-1.32852639352E-01	-4.43821818137E-02
7.71222444890E+10	-1.28888434875E-01	-6.58225192814E-02	6.54323180554E-05	4.48397929818E-06	3.70750107117E-05	1.74777105471E-05	-1.32456567386E-01	-4.07902248489E-02
7.71282565130E+10	-1.35466776370E-01	-5.54633236173E-02	-4.85856626698E-05	-1.27314091828E-04	9.73126618810E-05	4.93747656120E-05	-1.33678575233E-01	-3.62562169150E-02
7.71342685371E+10	-1.37932360007E-01	-4.88305880787E-02	-4.81251502033E-05	3.82088793909E-05	3.64099582401E-05	5.99789519045E-05	-1.29542403947E-01	-3.65979750437E-02
7.71402805611E+10	-1.40570276583E-01	-4.69879612753E-02	-3.51932148953E-05	5.16047359726E-05	7.04431178066E-05	6.82306996890E-05	-1.32210376443E-01	-3.11476715971E-02
7.71462925852E+10	-1.39435502358E-01	-3.86740721526E-02	-4.12577387505E-05	-4.07324884100E-06	8.20113256624E-05	9.29153146647E-06	-1.34904181437E-01	-2.54508891329E-02
7.71523046092E+10	-1.37072026241E-01	-4.29346129265E-02	-4.38893766547E-05	7.47410142029E-05	2.07115305956E-04	-2.25930492764E-05	-1.33221498274E-01	-2.36394632637E-02
7.71583166333E+10	-1.41927220448E-01	-3.35955178854E-02	1.07195557263E-05	1.52547397222E-05	8.40662876334E-05	2.41448312189E-05	-1.32574853180E-01	-2.31155877045E-02
7.71643286573E+10	-1.42065466000E-01	-2.82520768554E-02	6.41945721890E-05	7.60751552757E-05	1.13088692051E-04	-2.23682580298E-06	-1.33101255264E-01	-1.96936390245E-02
7.71703406814E+10	-1.42027362848E-01	-2.31289451864E-02	7.55674730883E-05	2.76534573226E-06	1.05893152419E-04	-1.51887824442E-05	-1.29812294674E-01	-2.16218988383E-02
7.71763527054E+10	-1.40872844086E-01	-2.46709188879E-02	-1.22259331071E-07	2.39962478955E-05	1.20233677007E-04	-3.04622651626E-05	-1.34478510015E-01	-1.52456556399E-02
7.71823647295E+10	-1.40238615360E-01	-2.59405517724E-02	-3.18665373953E-06	4.04417511956E-06	1.20352748710E-04	-1.07639980326E-04	-1.31334498760E-01	-1.89076391157E-02
7.71883767535E+10	-1.42661070185E-01	-1.69263539037E-02	6.59090445267E-06	1.43476764837E-07	1.29030895393E-04	-1.08601643682E-04	-1.32504316311E-01	-1.52359186705E-02
7.71943887776E+10	-1.42984450175E-01	-1.03106142294E-02	5.64692679858E-06	-4.73720262813E-05	5.07902036280E-05	-2.81464325331E-05	-1.36286696333E-01	-7.57271414830E-03
7.72004008016E+10	-1.41959057148E-01	-1.27285933851E-02	3.39369279409E-05	2.11026897580E-06	1.00178679503E-04	-1.76493076006E-04	-1.37494487333E-01	-4.24577225846E-03
7.72064128257E+10	-1.43891702165E-01	-4.21565548878E-03	5.29605229553E-05	-3.42622578823E-05	2.70513944205E-05	-1.43513439637E-04	-1.36334330004E-01	-5.36606936512E-03
7.72124248497E+10	-1.43658184545E-01	-3.12102070818E-03	1.03749839105E-04	-9.45912395266E-05	-6.27273618113E-06	-6.43516947843E-05	-1.35458615632E-01	-2.81189640661E-03
7.72184368737E+10	-1.44690491534E-01	3.65392267478E-03	1.39376303621E-05	-4.54951583669E-05	-5.91639835160E-05	-8.52194957667E-05	-1.37497117328E-01	-9.50153790993E-04
7.72244488978E+10	-1.44075614927E-01	6.82966771560E-03	-6.67300901075E-05	4.57282719364E-05	-1.08382723502E-04	9.57177651291E-06	-1.39680771594E-01	3.91803275050E-03
7.72304609218E+10	-1.43151789086E-01	1.32893998111E-02	-2.80381934484E-05	-4.00448920189E-05	-1.48779890525E-05	-7.23146625031E-06	-1.40639703888E-01	7.56855736716E-03
7.72364729459E+10	-1.42300935095E-01	1.77753883358E-02	-5.04149742200E-05	4.61371499707E-06	-6.32809685554E-05	-4.13748379294E-05	-1.41576163041E-01	1.13412013314E-02
7.72424849699E+10	-1.41910568700E-01	1.34744419884E-02	2.19934383087E-05	3.03248897397E-05	-2.60319036358E-05	1.95878574640E-05	-1.42605424215E-01	1.49152184252E-02
7.72484969940E+10	-1.40230377113E-01	2.58874888638E-02	1.56792152340E-05	-2.91152687348E-05	-6.02164959761E-05	4.18722413607E-05	-1.41957261743E-01	1.60372596193E-02
7.72545090180E+10	-1.39803070931E-01	2.91454238546E-02	8.76057547534E-05	-1.82399663814E-05	-8.04030630859E-05	-6.49295039818E-06	-1.43284082651E-01	2.39003956220E-02
7.72605210421E+10	-1.37793473266E-01	2.72162035800E-02	4.15522534243E-05	-4.28469012038E-05	-2.78423079298E-05	3.97979595185E-05	-1.42193613807E-01	2.93879984664E-02
7.72665330661E+10	-1.38841913370E-01	3.02957485377E-02	-1.62373302428E-05	2.67552854216E-05	-7.14287897840E-06	1.78076344538E-05	-1.42507199009E-01	3.54424243632E-02
7.72725450902E+10	-1.38028503097E-01	3.27755964926E-02	-2.25466520022E-06	2.16256001834E-05	3.99482509227E-05	9.17543670914E-05	-1.42102614786E-01	3.76641444365E-02
7.72785571142E+10	-1.37501059373E-01	4.18247173703E-02	7.75914643179E-05	-1.85481573982E-05	2.43795447163E-05	4.79262621212E-06	-1.40501308367E-01	3.59630295088E-02
7.72845691383E+10	-1.34717311546E-01	4.69692962868E-02	1.42373279929E-06	-5.44135158296E-05	-2.60511525333E-05	3.72774568273E-07	-1.39080952674E-01	4.30955003047E-02
7.72905811623E+10	-1.35208108415E-01	4.08686155941E-02	2.32532199533E-05	-5.96465703222E-05	4.02359105428E-05	-3.23035076473E-05	-1.37889408050E-01	4.62672395037E-02
7.72965931864E+10	-1.33748691370E-01	4.78605502365E-02	1.97484173098E-05	-7.27676701916E-05	-3.91256587830E-05	1.04729210295E-05	-1.35821129170E-01	5.24852132751E-02
7.73026052104E+10	-1.32687260757E-01	5.22367213616E-02	-6.00157747495E-05	3.74234235441E-06	-3.66805157480E-05	-1.53280100419E-05	-1.34175955228E-01	5.50100374881E-02
7.73086172345E+10	-1.30853261876E-01	5.68016893538E-02	-1.04504532484E-04	-2.76977798701E-05	6.55928116537E-05	-5.28191157813E-06	-1.31955831331E-01	5.72467359520E-02
7.73146292585E+10	-1.29616070372E-01	6.07529486024E-02	1.28121348433E-06	-1.50665987697E-06	4.78122458645E-05	2.62405467845E-05	-1.30612089855E-01	5.95914266613E-02
7.73206412826E+10	-1.29846960500E-01	5.82790243640E-02	-5.97505271837E-06	1.13644592076E-05	-1.34912930768E-05	3.30911471544E-05	-1.28344114169E-01	6.60436553430E-02
7.73266533066E+10	-1.24350999790E-01	6.90702409588E-02	-4.60138264649E-05	-3.49343520227E-05	4.10791063683E-05	7.07862208000E-05	-1.27714539954E-01	6.34840440507E-02
7.73326653307E+10	-1.22213009370E-01	7.50373882939E-02	9.08631747538E-05	3.57127924193E-05	2.15945552479E-05	-2.11519634530E-05	-1.25865063085E-01	6.95136445575E-02
7.73386773547E+10	-1.20434558369E-01	7.72024067679E-02	-3.05593550998E-05	2.12236984155E-07	4.32669009527E-05	2.45818495227E-05	-1.21573555650E-01	7.48561798700E-02
7.73446893788E+10	-1.18158876119E-01	8.08020257473E-02	8.57604207695E-05	-4.45652871105E-05	3.27799357671E-05	-5.60853159893E-06	-1.21038966275E-01	7.25403110422E-02
7.73507014028E+10	-1.18444426432E-01	7.78644590482E-02	9.14757439305E-05	-2.07626418704E-05	9.90528349527E-05	-4.47830063370E-05	-1.19246737876E-01	7.75725365297E-02
7.73567134269E+10	-1.16534657850E-01	7.95806529386E-02	2.19855463013E-05	-5.42337016670E-05	-3.60983604912E-05	-6.38095599739E-05	-1.17031841782E-01	7.69892528453E-02
7.73627254509E+10	-1.14807173641E-01	8.13389739895E-02	4.21708413914E-05	-7.00448524769E-05	2.92566806676E-05	-8.64097661932E-05	-1.13504448093E-01	8.47160125154E-02
7.73687374749E+10	-1.15789944722E-01	8.18283191127E-02	-3.92879505421E-05	2.29254692848E-05	-2.45464221278E-05	-7.79126792836E-05	-1.10824828862E-01	8.91126754629E-02
7.73747494990E+10	-1.10732397321E-01	9.08016852686E-02	2.15765436048E-05	-5.30775876791E-05	-7.46623156910E-05	-1.11375824081E-04	-1.11120030152E-01	8.79432585340E-02
7.73807615230E+10	-1.06748436826E-01	9.53412490517E-02	-4.28456986220E-05	-4.84641062619E-05	-4.49302378194E-05	-1.04654205918E-04	-1.10451406542E-01	8.80998960286E-02
7.73867735471E+10	-1.06371778458E-01	9.63831504133E-02	-4.61725081393E-05	9.69638711482E-07	-1.77738041694E-04	-1.40791218145E-04	-1.07888196536E-01	9.13663417011E-02
7.73927855711E+10	-1.04616060049E-01	9.99490999867E-02	-1.22972154432E-04	-3.39187665509E-05	-1.76620442873E-04	-4.88208738922E-06	-1.04470240487E-01	9.42582562821E-02
7.73987975952E+10	-1.04640907531E-01	9.42925105594E-02	-8.61295952813E-05	1.06774721208E-04	-1.56141035766E-04	2.27293178345E-06	-1.01779054896E-01	9.73748370020E-02
7.74048096192E+10	-1.05105241979E-01	9.41228467280E-02	-4.20906284994E-05	3.46610079972E-05	-1.04020001280E-04	-4.98059508371E-07	-1.01973245423E-01	9.94483017284E-02
7.74108216433E+10	-9.58434576505E-02	1.06917747779E-01	2.40109237731E-05	6.29381378810E-05	-6.32513613669E-05	7.99784035973E-06	-9.88027449572E-02	1.02104557314E-01
7.74168336673E+10	-9.24405118842E-02	1.10852603485E-01	4.60077618295E-05	1.71549723648E-04	-3.03966849993E-05	9.26824660512E-05	-9.51231037822E-02	1.05780253315E-01
7.74228456914E+10	-9.00380844379E-02	1.14303198806E-01	1.43370577680E-04	7.53280710601E-05	3.55744360629E-05	6.95949246036E-05	-9.84296897837E-02	9.98497126940E-02
7.74288577154E+10	-8.77711846663E-02	1.14778030738E-01	8.70482488651E-05	4.22142911932E-05	6.99539022967E-06	5.85030934678E-06	-9.30266826290E-02	1.07721607419E-01
7.74348697395E+10	-8.93413587823E-02	1.11338772546E-01	1.64094197394E-04	6.97676213567E-06	-1.81173966964E-05	8.41644782693E-05	-9.23776774290E-02	1.06698033002E-01
7.74408817635E+10	-8.33086011852E-02	1.17835689274E-01	6.89470759460E-05	2.32319437369E-05	-1.70216447583E-05	-1.72543735191E-05	-8.97227610254E-02	1.10696550418E-01
7.74468937876E+10	-8.39487641399E-02	1.14565690992E-01	2.30517181822E-05	-8.43081050926E-05	6.93084882680E-05	3.78686463357E-06	-9.02363794198E-02	1.10837435772E-01
7.74529058116E+10	-7.78720165748E-02	1.21035066832E-01	1.97468665537E-05	-7.96493742870E-05	-1.05377539174E-06	1.19268048320E-05	-8.98954990994E-02	1.12695051124E-01
7.74589178357E+10	-7.92300204952E-02	1.19140697488E-01	-2.52454320632E-05	-1.01005118414E-04	-8.55076380570E-05	6.46805850147E-06	-8.75260547447E-02	1.15048268191E-01
7.74649298597E+10	-7.58526302338E-02	1.23621189223E-01	-6.51779911975E-05	-8.28723307194E-05	-8.41913321936E-05	-3.46579813340E-05	-8.35809928091E-02	1.18766810513E-01
7.74709418838E+10	-7.28611397917E-02	1.27029332725E-01	-9.16434920686E-05	-6.48739440845E-05	-9.30280070413E-05	4.03258703191E-05	-8.10944477023E-02	1.22298428785E-01
7.74769539078E+10	-6.85199194302E-02	1.31772340651E-01	-1.09485180392E-04	7.35395942784E-05	-4.74144986676E-05	7.83680761821E-05	-7.85050843872E-02	1.24411481470E-01
7.74829659319E+10	-6.80848500046E-02	1.30740767747E-01	-5.20767972735E-05	4.27481561547E-05	-1.80178611865E-05	1.09169799944E-04	-7.66629441078E-02	1.27481417807E-01
7.74889779559E+10	-6.40606443342E-02	1.33779431217E-01	-1.10225804092E-05	4.06193984555E-05	-4.35610696045E-06	1.08834157343E-04	-7.69755264055E-02	1.27248431771E-01
7.74949899800E+10	-5.79417603595E-02	1.35776052466E-01	1.18484297412E-05	6.78826792356E-05	1.84213123420E-05	1.21431263046E-04	-7.27212721852E-02	1.29585412114E-01
7.75010020040E+10	-5.76490628615E-02	1.35705755586E-01	6.64756230997E-05	6.25025712107E-05	5.45064241740E-05	1.20725341600E-04	-7.26170984191E-02	1.30745605458E-01
7.75070140281E+10	-5.50416663860E-02	1.39350286292E-01	1.53173979177E-04	-1.94265337309E-05	1.04292451186E-04	6.50683211968E-05	-6.72157011012E-02	1.35276618284E-01
7.75130260521E+10	-5.09270419372E-02	1.40447793017E-01	3.88066460474E-05	9.36048623485E-07	1.07394066970E-04	1.74086861515E-05	-6.27947839988E-02	1.38643789308E-01
7.75190380762E+10	-4.05872634621E-02	1.44478368008E-01	1.25812380715E-04	-4.39927171881E-05	8.43038562844E-05	2.14437297340E-05	-5.84177515557E-02	1.41974402213E-01
7.75250501002E+10	-4.57452928062E-02	1.43684020424E-01	2.97788002663E-05	-3.21173672804E-05	1.29420682140E-04	-2.70934269242E-05	-5.78175852380E-02	1.42399486578E-01
7.75310621242E+10	-4.28091016034E-02	1.44748621817E-01	1.92735975953E-05	-1.22200220444E-04	8.88563865370E-05	-8.64818298283E-05	-5.65870722954E-02	1.43656431449E-01
7.75370741483E+10	-3.56082332998E-02	1.47825005448E-01	5.34137022121E-05	2.88951943288E-05	5.48273946248E-05	-9.60977892248E-05	-5.52669742672E-02	1.45369530120E-01
7.75430861723E+10	-3.16164004276E-02	1.50426542236E-01	8.09134141820E-07	-1.53709093097E-05	-1.00882892957E-05	-4.22038190368E-05	-4.93121304488E-02	1.47795954307E-01
7.75490981964E+10	-2.75601450288E-02	1.52529263854E-01	-1.26373858404E-04	-3.91660020629E-05	-8.18565991294E-05	-6.76495331671E-05	-4.32815331463E-02	1.50871525545E-01
7.75551102204E+10	-3.10757868731E-02	1.51191746331E-01	-1.25940663309E-04	1.86597668996E-05	-8.63873539403E-05	-2.32640781915E-05	-4.11550575227E-02	1.51270603571E-01
7.75611222445E+10	-2.55279488413E-02	1.53638711559E-01	-7.37990241250E-05	7.56883682071E-05	-1.09269356959E-04	3.24695170646E-05	-3.77580822042E-02	1.52552988728E-01
7.75671342685E+10	-2.01841437306E-02	1.56177803105E-01	-5.16902542259E-05	4.13308435180E-05	-2.50829128562E-05	8.60737518301E-05	-3.64696428564E-02	1.53321567032E-01
7.75731462926E+10	-1.35242081256E-02	1.54870925033E-01	-3.04612959978E-05	9.40550326458E-05	9.97544435036E-06	6.45373855849E-05	-3.32711717673E-02	1.54688678475E-01
7.75791583166E+10	-8.62999715496E-03	1.57563415758E-01	1.97088456727E-05	1.28935435200E-04	9.62476682756E-05	8.30089561318E-05	-2.71395039975E-02	1.57127344534E-01
7.75851703407E+10	-3.46158738969E-03	1.59166305765E-01	1.03155406503E-04	4.06867373612E-05	7.53223382178E-05	3.28112194411E-05	-2.13850415081E-02	1.58666940422E-01
7.75911823647E+10	3.90995072215E-04	1.60975294392E-01	8.82325019224E-05	-6.52481652919E-05	6.29219613279E-05	3.58941423895E-05	-2.18263358647E-02	1.57809399848E-01
7.75971943888E+10	-4.35093530676E-03	1.58006369628E-01	1.76584759691E-04	-3.47457545247E-05	5.20290404274E-05	-5.68231746584E-05	-1.80251166376E-02	1.59637935606E-01
7.76032064128E+10	-1.11039344966E-03	1.59062361503E-01	1.47607520365E-04	-3.33948076948E-05	9.29534189993E-05	-7.01723574770E-05	-1.07668140393E-02	1.61494035986E-01
7.76092184369E+10	9.23083116428E-03	1.62121875035E-01	2.76547591575E-05	-1.57102025431E-04	3.84540089071E-05	-8.38338920334E-05	-9.75730422821E-03	1.61043183945E-01
7.76152304609E+10	1.50697374490E-02	1.63728346963E-01	6.06366739092E-06	-7.34573002199E-05	1.05356874715E-04	-1.13184737203E-04	-1.45244991083E-03	1.62382264845E-01
7.76212424850E+10	1.85046118173E-02	1.60720670781E-01	-5.77432125532E-05	-1.00667418097E-04	-1.30184727284E-05	-1.15900619474E-04	3.83962516138E-04	1.62801117082E-01
7.76272545090E+10	2.22516069271E-02	1.62940591244E-01	-2.62351845048E-05	-7.43443787189E-05	-4.04808601246E-05	-1.34412783013E-04	2.13962855174E-03	1.63100620538E-01
7.76332665331E+10	3.08579569732E-02	1.63896116643E-01	-9.79766798171E-05	-7.64389902809E-05	-1.14117893799E-04	-1.21287714525E-04	2.82698570653E-03	1.62716666628E-01
7.76392785571E+10	2.72005386976E-02	1.63086823792E-01	-1.04298917587E-04	-2.44496447739E-05	-1.29977828791E-04	-2.20963441229E-05	1.24972825502E-02	1.62503865408E-01
7.76452905812E+10	3.24882923200E-02	1.62882035124E-01	-7.37567203807E-05	-9.84803139730E-06	-1.11843397507E-04	2.68691848154E-05	1.76733968749E-02	1.63261123013E-01
7.76513026052E+10	4.50033197973E-02	1.60849539040E-01	-8.45398047972E-05	1.16340669528E-04	-9.45019213470E-05	3.44882180341E-05	1.72592616537E-02	1.63626412725E-01
7.76573146293E+10	4.60509049612E-02	1.62867805338E-01	8.46034160340E-06	1.41176060658E-04	-2.31869578259E-05	3.86689993236E-06	2.02243812964E-02	1.62859215811E-01
7.76633266533E+10	4.42281629628E-02	1.62908773888E-01	5.20912801899E-05	1.03616790250E-04	-1.52061201447E-05	1.01095659104E-04	2.64276148042E-02	1.63058202049E-01
7.76693386774E+10	5.21587673274E-02	1.61508408368E-01	7.58283093680E-05	4.27854795561E-05	-2.80325970921E-07	9.15063042992E-05	3.36431661890E-02	1.62607117584E-01
7.76753507014E+10	6.01252074702E-02	1.58525378922E-01	1.00479281525E-04	6.60171625475E-07	4.77712031905E-05	1.20191626859E-05	3.32494298831E-02	1.61779251688E-01
7.76813627255E+10	5.88533051170E-02	1.58931609064E-01	1.35295673384E-04	1.82127806139E-05	9.30453571856E-05	5.33233905783E-05	3.98443368528E-02	1.60232584329E-01
7.76873747495E+10	6.84523921056E-02	1.58968621755E-01	4.68038636625E-05	-7.37880063800E-05	6.00825484260E-05	1.84173461132E-05	4.63088650503E-02	1.60344705226E-01
7.76933867735E+10	7.33799985012E-02	1.54220083960E-01	5.79694439225E-05	-1.35749850566E-04	9.19287403816E-05	-1.92628036386E-05	4.95499142753E-02	1.59138544968E-01
7.76993987976E+10	7.88747778468E-02	1.54893056578E-01	4.94722589372E-05	-3.31864536683E-05	2.49344857673E-05	-6.44673413057E-05	5.19081136071E-02	1.57427589662E-01
7.77054108216E+10	8.17373749232E-02	1.52041386526E-01	-4.91541453551E-05	-9.06551412343E-05	-4.64379776778E-05	-9.91504371115E-05	5.17240533832E-02	1.57972765020E-01
7.77114228457E+10	8.47368876044E-02	1.52029231498E-01	-7.89240781747E-05	-4.56386449011E-05	-1.01492867237E-04	-6.38735617453E-05	5.85604250477E-02	1.55935459884E-01
7.77174348697E+10	8.71583889151E-02	1.48382787416E-01	-3.33178120719E-05	-8.00956491911E-05	-9.00050963928E-05	-5.48332084307E-05	6.45778302935E-02	1.55409431824E-01
7.77234468938E+10	9.38912149534E-02	1.44040568149E-01	-1.24295335306E-04	-9.08772981221E-06	-9.74107658292E-05	-4.26481109928E-06	6.77979428493E-02	1.53707592964E-01
7.77294589178E+10	9.94502381499E-02	1.43691118857E-01	-5.87385815076E-05	2.76044794890E-05	-8.99406485603E-05	1.15280694405E-04	6.82068324646E-02	1.54399321653E-01
7.77354709419E+10	1.00293050434E-01	1.40206227872E-01	-7.57890765792E-05	7.58524520445E-05	-8.46199233200E-05	1.09078157344E-04	7.22891915045E-02	1.52027917819E-01
7.77414829659E+10	1.07188643075E-01	1.35901154658E-01	-2.85642897220E-05	7.62981116028E-05	-2.39570911451E-05	1.55676678183E-04	7.59613322372E-02	1.51425360823E-01
7.77474949900E+10	1.11510458327E-01	1.32821811818E-01	5.07188613559E-05	8.05875387170E-05	2.35751809987E-05	9.42111525252E-05	8.34700142581E-02	1.48395568341E-01
7.77535070140E+10	1.12521043341E-01	1.32347105581E-01	9.28476232927E-05	6.36644077016E-05	1.02910411084E-04	1.16703058162E-04	8.96752309738E-02	1.45298899587E-01
7.77595190381E+10	1.19664261445E-01	1.25717342195E-01	9.45822990332E-05	4.48992292393E-05	1.15533870856E-04	9.12749943575E-05	9.14104528180E-02	1.43643200783E-01
7.77655310621E+10	1.20205362499E-01	1.23802817759E-01	6.95222908423E-05	-5.45271766350E-05	1.61532892527E-04	-3.12899128637E-05	9.54022533042E-02	1.42371294390E-01
7.77715430862E+10	1.20842575879E-01	1.24232617679E-01	6.91104572264E-05	1.22828524037E-05	4.92105519474E-05	-6.96828387381E-05	9.65812679433E-02	1.41122216723E-01
7.77775551102E+10	1.28748748817E-01	1.18459919793E-01	-9.31418462314E-06	-2.65203034725E-05	6.89976652602E-05	-1.11094031240E-04	1.01687464783E-01	1.37021390132E-01
7.77835671343E+10	1.30697519672E-01	1.15852595604E-01	-4.16134081228E-05	-6.08015729514E-05	-4.54633650275E-05	-5.29704474719E-05	1.08483950215E-01	1.34495568010E-01
7.77895791583E+10	1.33742203225E-01	1.10180908596E-01	-9.82268806151E-05	-1.64663711465E-06	-4.26727809943E-05	-6.43055179880E-05	1.08152937570E-01	1.34996611245E-01
7.77955911824E+10	1.40360362633E-01	1.04013205695E-01	-2.23623748392E-05	-4.70337848330E-05	5.19176581793E-06	-8.70785903071E-06	1.12616461361E-01	1.29386290450E-01
7.78016032064E+10	1.34662134277E-01	1.07439424606E-01	-4.17248765678E-05	5.71166840385E-06	-3.17107543830E-05	2.32376626558E-05	1.17978948902E-01	1.24400803497E-01
7.78076152305E+10	1.34194615942E-01	1.08299976221E-01	-2.28481372626E-05	2.67091420860E-05	-2.19465988269E-05	4.80814718890E-05	1.20419681112E-01	1.23374886726E-01
7.78136272545E+10	1.45324737594E-01	9.52375401641E-02	-8.78580061562E-06	2.06241804550E-05	-1.23127483882E-05	5.34704825085E-05	1.22885463647E-01	1.21842329804E-01
7.78196392786E+10	1.46304857066E-01	9.27207063875E-02	3.71881844056E-05	6.30473183174E-05	1.84685832245E-05	4.50755107863E-05	1.24808904648E-01	1.17752212603E-01
7.78256513026E+10	1.48506156425E-01	8.93819425297E-02	4.96260207444E-05	7.42041670509E-05	9.17676763192E-05	5.89726161032E-05	1.29732170723E-01	1.11287425664E-01
7.78316633267E+10	1.51069060373E-01	8.04815044789E-02	5.08546156284E-05	-4.12862342197E-06	8.01152993988E-05	8.70362990325E-05	1.36027134227E-01	1.04952790564E-01
7.78376753507E+10	1.52563359003E-01	7.96692608016E-02	7.94950484364E-05	-7.48430639420E-05	1.07349238635E-04	9.25216478050E-06	1.34121882444E-01	1.06842368061E-01
7.78436873747E+10	1.52007862785E-01	8.07283270181E-02	7.20177337027E-05	-6.03113741151E-05	2.84274619609E-05	-8.76620535879E-05	1.39363941418E-01	9.92391374099E-02
7.78496993988E+10	1.54515285415E-01	7.68550285519E-02	4.33884866002E-05	-6.01979848896E-05	8.91287117168E-05	-7.09232567421E-05	1.37206028316E-01	1.01406312775E-01
7.78557114228E+10	1.52125049353E-01	7.59352345692E-02	-1.43969150309E-05	-1.02296513444E-04	5.03715816286E-05	-1.21126047110E-04	1.42567474270E-01	9.15002480612E-02
7.78617234469E+10	1.57448440640E-01	6.49008141093E-02	-2.91955060421E-05	-8.01470115427E-05	2.94845657686E-05	-1.26039613401E-04	1.46430462725E-01	8.59057845524E-02
7.78677354709E+10	1.58005592464E-01	6.12246588134E-02	-9.89138142715E-05	-9.53956077083E-05	-8.86468147027E-05	-1.07214649480E-04	1.47271461968E-01	8.18530899365E-02
7.78737474950E+10	1.58000379894E-01	6.42654510490E-02	-8.74054104221E-05	1.55871532384E-05	-6.41203269773E-05	-5.07732669032E-05	1.46629829952E-01	8.09177488456E-02
7.78797595190E+10	1.59730098479E-01	5.83361499637E-02	-1.38997260515E-05	3.41491974362E-05	-1.73038904036E-04	-1.27020162163E-05	1.47149094106E-01	7.73592043337E-02
7.78857715431E+10	1.61527955452E-01	4.54244183764E-02	-3.72694447641E-05	5.04134656743E-05	-6.19230159737E-05	-6.54545212665E-06	1.49717490357E-01	7.08236057390E-02
7.78917835671E+10	1.63813993016E-01	4.37388101484E-02	-5.26954934281E-05	5.74200430312E-06	-4.04966965660E-05	-3.26984576711E-06	1.50884533076E-01	6.66161184361E-02
7.78977955912E+10	1.63914740790E-01	4.03476711580E-02	-1.89951344502E-06	5.39101427793E-05	1.04758960704E-06	-2.90326730897E-05	1.51915983575E-01	6.53003766044E-02
7.79038076152E+10	1.62978212460E-01	3.95068504173E-02	2.37240940739E-05	-1.35584058748E-05	7.08131657569E-06	3.48737608735E-05	1.51492566908E-01	6.14094051196E-02
7.79098196393E+10	1.63198548552E-01	4.02775372082E-02	-9.00520512623E-06	-1.50507041560E-05	-1.38191609820E-05	9.38244515872E-06	1.52709207198E-01	5.15137381007E-02
7.79158316633E+10	1.63573066315E-01	3.28384152330E-02	6.77793529583E-05	4.22624689716E-06	-1.75458387390E-05	1.55743704900E-05	1.53108630538E-01	4.90426028957E-02
7.79218436874E+10	1.64390223573E-01	2.60019553562E-02	-7.10811619983E-06	2.45349078142E-06	5.95720555657E-05	-5.69641688822E-05	1.51240282590E-01	5.08166238975E-02
7.79278557114E+10	1.64241053173E-01	2.65218447548E-02	-4.14315853369E-05	-5.55886324510E-05	9.39652256801E-06	-5.05365705327E-05	1.51997174694E-01	4.69370963513E-02
7.79338677355E+10	1.68395500154E-01	2.22366831352E-02	-5.84589026623E-05	-5.18908870337E-05	-4.73183786193E-05	-4.29966524613E-05	1.53262135057E-01	3.54886290869E-02
7.79398797595E+10	1.65285238063E-01	1.78289169171E-02	-4.27919968766E-05	-6.83322986619E-05	-8.37273901432E-05	-1.61135745882E-05	1.51155047878E-01	3.67550739085E-02
7.79458917836E+10	1.64137476387E-01	2.15995786109E-02	-4.48540985658E-05	-1.99442176933E-05	-1.19697124166E-04	-4.37683239394E-06	1.50109504467E-01	3.50463795726E-02
7.79519038076E+10	1.63262694008E-01	1.12877838653E-02	1.92440854633E-05	5.22479526006E-05	-7.51288037970E-05	3.71806179030E-05	1.50008307348E-01	3.00152396217E-02
7.79579158317E+10	1.66322638401E-01	8.54753058971E-03	-4.64695033914E-05	-3.12628546628E-06	-1.58008971267E-05	3.36357672483E-05	1.51667851950E-01	2.53162519324E-02
7.79639278557E+10	1.67056531469E-01	3.09245748763E-03	-5.68383633117E-05	8.36749225310E-05	-3.71796904722E-05	4.38568256039E-05	1.49187279682E-01	2.70506741411E-02
7.79699398798E+10	1.63813968287E-01	-2.40956635136E-03	-4.91210863626E-05	3.19388053048E-05	1.57253933938E-05	6.66260145660E-05	1.50510966833E-01	1.72312316894E-02
7.79759519038E+10	1.63548792927E-01	1.93813984663E-04	3.88733129267E-05	2.17943837494E-05	2.39994301453E-05	2.60948912809E-05	1.50214341034E-01	1.56209700091E-02
7.79819639279E+10	1.65238187238E-01	-6.86032446360E-03	3.52175109896E-05	3.42367526423E-05	5.37048606146E-05	-3.98457439700E-06	1.49958692767E-01	1.49126979174E-02
7.79879759519E+10	1.63130025457E-01	-5.61961796571E-03	6.85226182782E-05	6.22147095449E-05	3.44274501705E-05	-8.95417690834E-06	1.49837262447E-01	1.12110857911E-02
7.79939879760E+10	1.65023689258E-01	-7.72275356433E-03	5.71545825796E-05	-3.91922318240E-05	2.08129710961E-05	-2.66445951061E-05	1.47159519713E-01	1.31292753005E-02
7.80000000000E+10	1.62755743331E-01	-1.64496382694E-02	-3.93677792115E-05	-7.54372800089E-06	-6.31766963057E-05	-1.52249237387E-05	1.47358129124E-01	9.26788961055E-03
