# Hz S RI R 50
! CMT, C4420, 21421029, 25.1.2/3
! Date: 8/5/2025 2:30:38 PM
! Data: Format (Calibration Info)
! Freq	S33:Re/Im(F2)	S43:Re/Im(F2)	S34:Re/Im(F2)	S44:Re/Im(F2)
7.50000000000E+10	1.63669079293E-01	2.07248037630E-01	-6.08987375978E-06	-2.42690083249E-05	1.94085010962E-05	1.66511044779E-05	1.90167013487E-01	1.92918907897E-01
7.50060120240E+10	1.62247724900E-01	2.08360093349E-01	4.42485790105E-05	-2.81678753014E-05	-2.31712852742E-05	-2.79974255819E-05	1.90309482678E-01	1.91721183479E-01
7.50120240481E+10	1.77641415611E-01	2.00840101414E-01	-4.51761124658E-05	3.66590528016E-05	-2.26003421288E-05	6.24346571005E-06	1.97250450552E-01	1.88510404752E-01
7.50180360721E+10	1.81642146450E-01	1.92399919135E-01	-1.72658490442E-05	-3.80264807355E-05	-2.51550344915E-05	1.36107117633E-05	1.98522138656E-01	1.86864019447E-01
7.50240480962E+10	1.84015409838E-01	1.89231361992E-01	-4.17175197222E-05	3.10732789193E-05	-4.59193517404E-05	-2.42695997939E-05	1.95567130981E-01	1.86684948608E-01
7.50300601202E+10	1.84956554644E-01	1.88088908042E-01	-1.08117755568E-05	-6.78117556720E-05	-4.06845431212E-06	-1.12868084544E-07	1.98117869204E-01	1.86661289507E-01
7.50360721443E+10	1.94393474947E-01	1.81799453944E-01	1.67445043662E-05	3.48968746100E-05	2.10759259259E-05	-1.00337075400E-05	1.98709845236E-01	1.86753071761E-01
7.50420841683E+10	1.97755357956E-01	1.77456280070E-01	-2.93170751257E-06	3.85561049883E-05	-1.19206743560E-05	6.19999750269E-05	1.98187790885E-01	1.85573887983E-01
7.50480961924E+10	1.98752091613E-01	1.69396275628E-01	-5.58463570354E-06	-6.35200540655E-06	-4.51137572511E-06	1.09912817321E-07	2.01785615837E-01	1.77570393590E-01
7.50541082164E+10	1.98822014419E-01	1.66085300670E-01	-5.82163745572E-06	1.68952018956E-05	-2.28725367832E-05	-2.39066394818E-05	2.01319766369E-01	1.83371888927E-01
7.50601202405E+10	2.02706184961E-01	1.68904854612E-01	-2.45816268893E-05	-3.56519554715E-05	3.08952755167E-05	3.26197512224E-05	2.07123112908E-01	1.82301017212E-01
7.50661322645E+10	2.13055015273E-01	1.61280936432E-01	1.71309860522E-05	-1.23407238743E-05	-1.64299674310E-05	-1.86180134233E-05	2.09120834073E-01	1.77020782899E-01
7.50721442886E+10	2.12076315720E-01	1.55057866770E-01	-2.17917473438E-05	-3.87501545179E-05	4.40527750320E-05	-1.11107859602E-05	2.10674816989E-01	1.74209051025E-01
7.50781563126E+10	2.19806092428E-01	1.44642525550E-01	1.40715867864E-05	-7.48920590767E-07	2.66746376076E-05	1.09329149587E-05	2.09989200811E-01	1.77182729705E-01
7.50841683367E+10	2.17667619118E-01	1.42509524533E-01	-1.08800069491E-05	-1.64417466775E-05	-3.46981328825E-05	-3.05595537331E-05	2.13694364201E-01	1.77729627242E-01
7.50901803607E+10	2.23059146084E-01	1.39963949123E-01	-1.90885016470E-05	-7.61336019506E-06	-7.78001776068E-07	-2.00004489606E-07	2.13178058708E-01	1.80001911919E-01
7.50961923848E+10	2.25496318875E-01	1.40261822357E-01	-6.93264220219E-06	-3.15817968623E-05	6.51814204816E-07	1.59132746960E-06	2.14783505602E-01	1.71683557659E-01
7.51022044088E+10	2.22710451608E-01	1.36563228214E-01	1.54787894907E-05	1.43014214164E-06	2.02639028600E-05	-2.18814211310E-05	2.16812721179E-01	1.73434140797E-01
7.51082164329E+10	2.23854135950E-01	1.30776127457E-01	-3.36267318261E-05	-6.39187748748E-05	-2.15591223341E-05	8.81045644059E-07	2.14350852372E-01	1.77584475852E-01
7.51142284569E+10	2.27062294502E-01	1.24388764353E-01	-2.90085530002E-05	-4.24821576047E-05	4.72377451976E-05	-3.56950936683E-05	2.20539972483E-01	1.70533173909E-01
7.51202404810E+10	2.37370013808E-01	1.13427158620E-01	-2.25397180167E-05	-1.03285975974E-06	-1.64263624652E-05	1.48593963803E-06	2.22796835169E-01	1.67091365663E-01
7.51262525050E+10	2.38857023759E-01	1.05107653517E-01	-3.68758419690E-05	-3.37392140665E-05	7.72532897319E-06	-1.68666530743E-05	2.16794465599E-01	1.69435806628E-01
7.51322645291E+10	2.41007830192E-01	1.03088049219E-01	7.27163042690E-05	1.78854184966E-05	-3.83384981864E-05	-2.95962100804E-06	2.24089460215E-01	1.67409571764E-01
7.51382765531E+10	2.39969788247E-01	1.02330233466E-01	-4.44166704563E-06	4.35956699412E-05	2.94861665483E-05	7.36480520389E-07	2.28125562636E-01	1.60248915811E-01
7.51442885772E+10	2.40350433053E-01	9.87308356048E-02	1.95910504079E-05	2.24762717870E-05	-4.58370975677E-05	-6.31952633305E-05	2.23718761101E-01	1.70555783649E-01
7.51503006012E+10	2.38723535684E-01	9.77367440880E-02	3.51225668501E-05	-2.17899122909E-05	1.79455853493E-05	-6.29635836413E-05	2.25197973401E-01	1.62626486574E-01
7.51563126253E+10	2.42187567123E-01	8.46296143380E-02	1.44339085636E-05	6.27821958687E-05	4.77945114850E-06	-3.10404047040E-05	2.25212162275E-01	1.63502849976E-01
7.51623246493E+10	2.53184146872E-01	7.52485851746E-02	4.76600043615E-05	4.80902383209E-05	-6.42983947291E-06	4.31850771239E-05	2.26046628396E-01	1.65253882353E-01
7.51683366733E+10	2.47810480589E-01	7.47673623878E-02	-4.27108449892E-05	-6.96106137330E-05	-5.36513491723E-06	4.18335332260E-05	2.32173862885E-01	1.65269633579E-01
7.51743486974E+10	2.57669709560E-01	6.64604092935E-02	-2.18326891884E-05	-4.35635297513E-05	2.23044230003E-06	4.20840433414E-05	2.33981475396E-01	1.57730198592E-01
7.51803607214E+10	2.53426662061E-01	6.80075987245E-02	1.48237460009E-05	1.15001832835E-05	1.80033557852E-05	-4.19081988348E-06	2.28244656942E-01	1.59105208626E-01
7.51863727455E+10	2.57458167505E-01	6.03342014536E-02	-5.12854219706E-05	4.69929486361E-07	-1.35559113465E-05	-2.05030027515E-05	2.33544534790E-01	1.57466818472E-01
7.51923847695E+10	2.54024911142E-01	5.40169447930E-02	-3.06025047976E-05	3.41053207068E-05	-2.54536163489E-05	1.53751483222E-05	2.41633034236E-01	1.56254780759E-01
7.51983967936E+10	2.55402354377E-01	5.40314281463E-02	1.43316606988E-05	4.52571172203E-05	-1.11918577886E-05	3.92103318797E-05	2.38807177587E-01	1.56529313414E-01
7.52044088176E+10	2.63022486788E-01	4.39220214501E-02	-3.90428128183E-05	2.17834376714E-05	2.71840232012E-05	-4.14041039794E-06	2.39327097953E-01	1.53807993211E-01
7.52104208417E+10	2.61730945724E-01	3.36587301821E-02	-3.67824460201E-06	2.56251498445E-05	-1.90366507065E-05	1.79195115234E-05	2.35739766164E-01	1.53956497587E-01
7.52164328657E+10	2.65658589077E-01	2.51713090050E-02	-3.60869167051E-05	-6.93823185007E-06	-2.25292692490E-05	1.94155037399E-05	2.42705637547E-01	1.50257833464E-01
7.52224448898E+10	2.62369449104E-01	2.40104324817E-02	-2.58121506838E-05	-5.37106296816E-05	-3.45073734253E-05	-9.18359415458E-06	2.39441963035E-01	1.52047593521E-01
7.52284569138E+10	2.67646878992E-01	2.01961683072E-02	-4.99210554252E-05	-1.67101776062E-06	3.01785811941E-05	2.21180347051E-05	2.41777783110E-01	1.46480121861E-01
7.52344689379E+10	2.62561647824E-01	1.55158575241E-02	3.04451900515E-05	-3.76135357240E-06	-2.35496852168E-05	1.78554479262E-05	2.47972554414E-01	1.43411504994E-01
7.52404809619E+10	2.68162020396E-01	1.03225131748E-02	-5.82843124507E-05	1.81876266732E-05	5.07847777982E-06	-4.16924787543E-05	2.45538304823E-01	1.45668558907E-01
7.52464929860E+10	2.67033617266E-01	3.01242211107E-03	-2.36527916269E-05	-5.12139544884E-06	9.32315925072E-06	-1.35861681777E-05	2.44216715445E-01	1.46983174103E-01
7.52525050100E+10	2.63341660845E-01	-5.69462368783E-03	1.10291801518E-05	1.97740387832E-05	2.54300420138E-05	-1.15525558296E-05	2.47350982193E-01	1.41518018111E-01
7.52585170341E+10	2.65415967108E-01	-1.07395216844E-02	3.63320837195E-05	2.28024344535E-05	2.44050777600E-06	-1.86153613376E-05	2.51988608569E-01	1.38424728557E-01
7.52645290581E+10	2.70056997105E-01	-2.23000454818E-02	-2.03786965076E-05	6.82403133048E-05	4.36397178125E-05	6.44167161212E-05	2.50732287136E-01	1.42385289665E-01
7.52705410822E+10	2.65550156483E-01	-1.72165692315E-02	4.79820480291E-05	-1.58031632653E-05	2.12176069796E-05	-1.96247027983E-07	2.49044903161E-01	1.40410703323E-01
7.52765531062E+10	2.63602590388E-01	-2.11302219747E-02	2.84706163825E-05	-5.50558593103E-06	1.61737395638E-05	5.34143289915E-06	2.47900978855E-01	1.36390008504E-01
7.52825651303E+10	2.62955484271E-01	-3.55515293573E-02	1.13225298664E-05	-7.85934867048E-06	-2.38173806728E-05	2.43333490994E-05	2.49917392336E-01	1.35264342719E-01
7.52885771543E+10	2.66859078801E-01	-4.44703769301E-02	3.27584336520E-05	-9.62720778313E-06	1.52756964015E-05	-7.91361097872E-06	2.52153173670E-01	1.39040466611E-01
7.52945891784E+10	2.69671034322E-01	-5.21136555261E-02	4.57520400777E-05	1.44160915016E-06	-3.11154157213E-05	-3.50244168612E-05	2.58399850721E-01	1.33348164336E-01
7.53006012024E+10	2.67346673829E-01	-5.70916700409E-02	2.47714472236E-05	-6.86502521432E-06	-3.62690672716E-05	-2.00670698789E-05	2.57267065020E-01	1.30439549160E-01
7.53066132265E+10	2.60314034453E-01	-4.96503591696E-02	2.00544164286E-05	4.50842354217E-05	-5.00900673611E-05	5.51082188699E-05	2.54145079672E-01	1.31637441863E-01
7.53126252505E+10	2.60552462126E-01	-6.71252120890E-02	2.85187250406E-05	-1.36843094131E-06	-1.90303974823E-05	1.42712962926E-05	2.53612217033E-01	1.27792952123E-01
7.53186372745E+10	2.64459940256E-01	-8.11685086433E-02	3.22045278273E-05	1.05829909677E-05	9.25682893865E-06	3.27921543484E-06	2.57322291498E-01	1.27043504000E-01
7.53246492986E+10	2.61455858326E-01	-7.34209033063E-02	8.66438290147E-05	-2.21276007242E-05	5.31415625728E-06	-1.97650039017E-05	2.60439180927E-01	1.27826664170E-01
7.53306613226E+10	2.58942222977E-01	-6.62951901289E-02	-5.86703927684E-05	-7.24566365358E-05	3.79251632091E-05	2.87055566194E-05	2.64083002526E-01	1.26492233949E-01
7.53366733467E+10	2.55160479093E-01	-9.23627774122E-02	1.28412373465E-05	1.08879327565E-05	8.85400180572E-06	-9.48860494211E-06	2.62537741081E-01	1.17075997441E-01
7.53426853707E+10	2.55923675583E-01	-9.68618460693E-02	-7.50468951152E-05	-2.27385883501E-05	2.54726928264E-05	-2.21766575466E-05	2.56503983877E-01	1.28228313316E-01
7.53486973948E+10	2.59598732167E-01	-1.06909678220E-01	4.45948342032E-05	1.65777909990E-05	-8.01878324300E-06	-7.52450333118E-06	2.60629214187E-01	1.22851463883E-01
7.53547094188E+10	2.53744768759E-01	-9.99726943681E-02	2.55057532295E-05	-1.47823699904E-05	-2.01593132490E-05	-1.78932903738E-05	2.62468170518E-01	1.21819815010E-01
7.53607214429E+10	2.51571854498E-01	-1.12365720094E-01	5.06137155644E-06	1.35835008130E-05	3.60542112729E-05	-2.70662848826E-05	2.68336977205E-01	1.12650797498E-01
7.53667334669E+10	2.49234342180E-01	-1.18387967724E-01	3.86351169772E-06	-3.72802503425E-05	-5.74565118461E-07	-5.80749969745E-06	2.60590434468E-01	1.18602969006E-01
7.53727454910E+10	2.48771375969E-01	-1.30989725697E-01	1.30539215730E-05	-3.21563854581E-05	-1.39278869970E-06	2.34021459910E-05	2.61622871575E-01	1.19077978824E-01
7.53787575150E+10	2.43039714847E-01	-1.36352852354E-01	-5.53441671795E-05	-5.93538522348E-05	5.20275602682E-05	-2.93072530028E-05	2.64646553135E-01	1.13758795772E-01
7.53847695391E+10	2.42603477496E-01	-1.41264311452E-01	-6.97445784410E-06	-7.85082724288E-05	-8.77091690046E-06	5.28846880873E-05	2.64291428761E-01	1.15331303075E-01
7.53907815631E+10	2.40144962477E-01	-1.38491161983E-01	-5.67504435366E-05	2.11475237900E-05	1.97935684779E-05	1.37579181408E-05	2.67845076985E-01	1.07452929926E-01
7.53967935872E+10	2.36362590676E-01	-1.59125831188E-01	-1.63374270145E-05	7.42465298124E-05	-1.95919503196E-05	1.34103724277E-05	2.71987561186E-01	1.08242918273E-01
7.54028056112E+10	2.31249556504E-01	-1.74304280267E-01	6.86931863191E-05	6.30804778950E-05	-1.30585726714E-05	3.66794591499E-05	2.66671508943E-01	1.14704714686E-01
7.54088176353E+10	2.26402292602E-01	-1.73420899521E-01	4.35250494406E-05	4.01157434893E-05	-5.58609951499E-06	2.45596876330E-05	2.70002887285E-01	1.05914536737E-01
7.54148296593E+10	2.26586717815E-01	-1.70403381221E-01	-8.64900491238E-06	-7.10010376994E-05	-3.76555916617E-06	1.42999218433E-05	2.63582000129E-01	1.05352829126E-01
7.54208416834E+10	2.23970511531E-01	-1.88076830088E-01	6.14167372162E-06	-3.70538600724E-05	-3.51536540479E-05	1.60099218071E-05	2.69211693569E-01	1.06821813084E-01
7.54268537074E+10	2.19139619739E-01	-1.85959023519E-01	-2.27009452744E-05	-4.69663356351E-05	-3.87710921301E-05	5.72826575504E-07	2.76828802591E-01	1.00341276039E-01
7.54328657315E+10	2.10095097516E-01	-1.98440846584E-01	-4.60249457025E-05	-1.16309946737E-05	1.04697078869E-05	7.28021018852E-06	2.72614685654E-01	9.98104057782E-02
7.54388777555E+10	2.09007792923E-01	-1.91018111818E-01	2.18799700358E-05	-2.10564370933E-05	-1.60113636111E-06	4.90085152359E-05	2.67143908612E-01	1.01191720103E-01
7.54448897796E+10	1.99583969512E-01	-2.07409247703E-01	-1.57432587637E-05	4.87599179536E-05	7.86975117560E-06	2.70776384918E-05	2.74419859751E-01	9.35405979052E-02
7.54509018036E+10	1.96278486419E-01	-2.26850530984E-01	8.58149152711E-05	-1.60533866216E-05	3.88848795851E-05	-3.28603937627E-05	2.75566680998E-01	9.17815672251E-02
7.54569138277E+10	1.92487371296E-01	-2.23813501325E-01	2.07210709295E-05	-1.72845839733E-05	-3.79468352757E-05	-6.59150017560E-05	2.71894023023E-01	9.43570312130E-02
7.54629258517E+10	1.87006441401E-01	-2.35275287541E-01	-6.16170059117E-07	-1.15720632375E-05	-2.12835353331E-05	2.90496222217E-05	2.78238412671E-01	8.94299866692E-02
7.54689378758E+10	1.77993418289E-01	-2.39285280655E-01	2.80106840454E-06	-2.45736865042E-06	5.28520434438E-06	-1.59544062700E-06	2.79603279576E-01	8.90305131017E-02
7.54749498998E+10	1.75382239483E-01	-2.44763483391E-01	-3.28279403433E-05	-4.71175160596E-06	3.61962144255E-05	1.65259966232E-05	2.75087391943E-01	9.37004330349E-02
7.54809619238E+10	1.68103227707E-01	-2.50280432109E-01	1.11701678577E-04	-3.36794630238E-05	1.40669524292E-05	2.08257427646E-05	2.75243963953E-01	9.07473238275E-02
7.54869739479E+10	1.67947570412E-01	-2.48279542334E-01	-1.62049052425E-05	3.42204469443E-05	-1.45637404317E-05	-1.93597273698E-05	2.76038943864E-01	8.48956178903E-02
7.54929859719E+10	1.55079719395E-01	-2.61259120122E-01	1.47995886631E-05	3.53124487907E-06	8.78952458393E-06	-5.33953782011E-05	2.81316980785E-01	8.17525973018E-02
7.54989979960E+10	1.45043547595E-01	-2.65397068723E-01	-2.95821188731E-05	3.17945858524E-05	-8.31038587769E-06	3.67086308097E-05	2.81529067374E-01	8.12149442712E-02
7.55050100200E+10	1.41756324038E-01	-2.68183038037E-01	1.34353726215E-05	3.74340322781E-05	-1.61700177365E-05	-1.68268503798E-05	2.82938658494E-01	8.10762534080E-02
7.55110220441E+10	1.30599781507E-01	-2.82611197664E-01	-1.00388497460E-05	5.89789230441E-05	3.54068121441E-06	3.02001993576E-06	2.80919194860E-01	7.81616715894E-02
7.55170340681E+10	1.25318040541E-01	-2.77869890032E-01	2.04224032352E-05	-5.04800825757E-05	-4.80925092156E-05	2.26440726073E-05	2.79461879607E-01	8.06179634703E-02
7.55230460922E+10	1.13777697326E-01	-2.86482798453E-01	3.57925448127E-05	-6.42834004145E-05	-1.83605953413E-05	-2.08497348145E-05	2.81701796179E-01	7.66149426380E-02
7.55290581162E+10	1.04844621365E-01	-2.89781896963E-01	-1.73079988595E-05	-1.13315161269E-04	3.89028230949E-05	1.32621072724E-05	2.81091063250E-01	7.59516196101E-02
7.55350701403E+10	9.03724915385E-02	-3.04403408394E-01	1.80643326445E-05	-4.27535556693E-05	5.09686947721E-06	-4.42472092726E-06	2.76684659079E-01	7.75217506427E-02
7.55410821643E+10	8.29109691016E-02	-3.05203561600E-01	-7.09204588630E-05	-5.44764135521E-05	-1.02452201573E-06	-3.05292216903E-06	2.82822437101E-01	7.31579800878E-02
7.55470941884E+10	8.40225077628E-02	-2.99688620823E-01	-6.12212460279E-05	1.32133767065E-05	-1.91548860232E-05	1.48761700743E-06	2.84084315645E-01	6.76303004363E-02
7.55531062124E+10	7.62118448181E-02	-3.02264561284E-01	-2.38745584366E-05	1.17797160616E-05	1.44787909858E-05	1.98693138289E-05	2.83295175022E-01	7.37230981589E-02
7.55591182365E+10	5.40426773565E-02	-3.13071835592E-01	5.41498485900E-05	1.48501350860E-06	4.18058063747E-05	-4.66980458632E-06	2.79797457635E-01	6.75685919172E-02
7.55651302605E+10	5.58626209741E-02	-3.07685291494E-01	6.04053141212E-05	-4.05980130649E-05	5.44188726516E-05	4.96977057194E-05	2.81285848067E-01	6.75652567276E-02
7.55711422846E+10	4.02262753390E-02	-3.18410950385E-01	7.86076576741E-05	-1.73735739016E-05	-6.31245309989E-06	1.94504737285E-05	2.86897493873E-01	6.44427119942E-02
7.55771543086E+10	3.00583558248E-02	-3.17505517567E-01	2.41273293766E-05	-4.43261190500E-05	1.42791840133E-05	-4.44649112398E-06	2.87167880277E-01	6.12749535013E-02
7.55831663327E+10	1.10455441644E-02	-3.20101641283E-01	-1.57040354600E-05	-1.38352440909E-05	-1.99595852193E-05	-1.49402927453E-05	2.84022375054E-01	6.07375373852E-02
7.55891783567E+10	-8.32698654839E-04	-3.25563477118E-01	3.64072739462E-05	-1.22238025474E-05	4.04182124531E-05	2.71085963592E-05	2.82681482678E-01	6.22763670239E-02
7.55951903808E+10	-1.91794596206E-02	-3.28094268116E-01	-4.80881802720E-05	-4.11648794386E-05	1.14605113879E-05	1.94180449288E-05	2.88725864881E-01	5.62786272335E-02
7.56012024048E+10	-3.56995795648E-02	-3.32792433103E-01	-2.53461320559E-05	1.32224205459E-05	-5.93552533305E-05	-1.68579427276E-05	2.88166859119E-01	5.63549337844E-02
7.56072144289E+10	-3.64831484560E-02	-3.25528085785E-01	3.51637406237E-05	-5.23353130940E-05	-9.86110931188E-06	-7.00371855588E-07	2.83971090657E-01	5.19518644166E-02
7.56132264529E+10	-4.39044991105E-02	-3.23535108761E-01	-2.92359786698E-07	-2.37983053672E-05	-2.22226921756E-05	2.04182290835E-05	2.86988468250E-01	5.38055656143E-02
7.56192384770E+10	-5.63338882765E-02	-3.19338727529E-01	1.31622656175E-05	1.93454529702E-05	-2.04810640550E-06	-2.49581361888E-05	2.87125865920E-01	5.46019758276E-02
7.56252505010E+10	-5.86470900375E-02	-3.16857199777E-01	1.29356466161E-05	3.44673428789E-05	1.40394376271E-05	-2.21418926561E-06	2.87419563561E-01	5.18263473328E-02
7.56312625251E+10	-7.70354228444E-02	-3.18424503610E-01	-4.38698262359E-06	-1.64439126058E-05	-5.22943721553E-06	1.12937307335E-05	2.84169051892E-01	4.73298557075E-02
7.56372745491E+10	-9.10595891897E-02	-3.14933049689E-01	-4.73205828398E-05	-1.06918227573E-05	2.50748453631E-05	-3.94241392540E-05	2.86614205130E-01	4.91326779820E-02
7.56432865731E+10	-9.97577445717E-02	-3.09592777995E-01	4.69506809887E-06	-4.16461935434E-05	-4.29483771011E-05	2.33522562599E-05	2.92213521984E-01	4.42464978653E-02
7.56492985972E+10	-1.03639215338E-01	-3.06892797495E-01	-2.07356999554E-05	-1.29289716675E-05	1.02216176824E-05	2.04780410339E-05	2.87368448850E-01	4.14121759348E-02
7.56553106212E+10	-1.30666827518E-01	-3.04889208220E-01	3.04850018336E-05	2.35564217315E-05	9.75471740356E-06	-2.05607357976E-05	2.85017600997E-01	4.53873490887E-02
7.56613226453E+10	-1.41129767229E-01	-3.01036593172E-01	2.76341284618E-05	5.00073147621E-05	-1.76047842610E-05	3.97930103502E-05	2.88041774280E-01	4.00785596330E-02
7.56673346693E+10	-1.43512693540E-01	-2.94518745940E-01	-8.28879279365E-06	-7.58567719671E-05	-8.64096520530E-06	-2.72566022999E-05	2.91853241409E-01	3.83032270924E-02
7.56733466934E+10	-1.49423303062E-01	-2.89037136338E-01	1.00774146503E-05	2.98278833690E-07	-4.12270575076E-05	3.47373994368E-05	2.86158926403E-01	3.98903266409E-02
7.56793587174E+10	-1.65724058024E-01	-2.81554848935E-01	1.70972142572E-06	7.91981744716E-06	-1.73455856304E-05	1.69365917625E-05	2.84848341641E-01	3.67955342487E-02
7.56853707415E+10	-1.73163466398E-01	-2.75593973481E-01	-2.80692712683E-05	3.14219855640E-05	-4.08982000781E-06	1.51436999436E-05	2.92296795695E-01	3.19507137992E-02
7.56913827655E+10	-1.95229346635E-01	-2.65317786435E-01	-3.82573530626E-05	-2.68948291048E-05	-2.00434742181E-05	5.25257890706E-05	2.86492413361E-01	3.72255523584E-02
7.56973947896E+10	-2.03284132042E-01	-2.56953710318E-01	-7.59128326707E-05	-8.76092369910E-05	-2.00734485037E-05	-1.29256475415E-06	2.83177282247E-01	3.49849710640E-02
7.57034068136E+10	-2.10177319942E-01	-2.50426143083E-01	-4.29050832373E-05	2.59412963564E-05	1.66120191993E-05	5.21977434911E-05	2.83779293521E-01	3.31313300981E-02
7.57094188377E+10	-2.26126556213E-01	-2.33755893431E-01	-9.60283435184E-06	4.10283296413E-06	1.44439622490E-06	-2.13848584833E-05	2.86380071983E-01	3.06593534699E-02
7.57154308617E+10	-2.21693334458E-01	-2.33506109245E-01	-4.14212278279E-05	-2.17863936640E-05	-1.70735772472E-05	-2.33145448245E-05	2.88755235684E-01	3.12602828387E-02
7.57214428858E+10	-2.31665282520E-01	-2.24770216878E-01	7.19554326165E-05	2.38675622471E-05	-2.62561425069E-06	-1.90302506691E-05	2.90808535144E-01	2.98777069155E-02
7.57274549098E+10	-2.38564541530E-01	-2.15700004183E-01	6.69646496711E-05	-3.67657660973E-06	8.97073189868E-06	2.64939566488E-05	2.86937764958E-01	2.23660771117E-02
7.57334669339E+10	-2.50663462234E-01	-1.98340843825E-01	2.44931088398E-05	-2.68768319157E-05	-2.95699801146E-05	-5.00786039500E-05	2.90877979748E-01	1.60031886532E-02
7.57394789579E+10	-2.51219427149E-01	-1.90898832671E-01	-5.77691745569E-05	-1.09689970678E-04	4.38194537701E-05	1.15311014639E-06	2.87853172498E-01	2.45884579099E-02
7.57454909820E+10	-2.62848023044E-01	-1.76403521263E-01	-4.16054694365E-05	-9.60655102056E-05	-4.01667635171E-05	6.59568965215E-06	2.85559863296E-01	2.25579196165E-02
7.57515030060E+10	-2.72814933999E-01	-1.62351234921E-01	9.02998821222E-06	-2.56829498006E-05	-2.51676905159E-05	3.56057769763E-05	2.92382154604E-01	1.55248414084E-02
7.57575150301E+10	-2.64883316146E-01	-1.66970549002E-01	9.66867702522E-05	4.20336220705E-05	4.99026250548E-06	4.57400291983E-05	2.87860079354E-01	1.41271039783E-02
7.57635270541E+10	-2.75723249487E-01	-1.44133460056E-01	-2.04858036461E-06	9.26165913910E-05	5.04045323034E-05	-1.07708477409E-05	2.83088522642E-01	2.00346460204E-02
7.57695390782E+10	-2.83159893443E-01	-1.28954684652E-01	3.89810181469E-05	5.36659733206E-05	5.40448581699E-06	9.48674565009E-06	2.91804650655E-01	1.40070730179E-02
7.57755511022E+10	-2.91861897944E-01	-1.08926504075E-01	-3.30206798030E-06	-1.72856593596E-05	1.80640427587E-05	-4.40971654543E-06	2.87374695917E-01	1.95968553202E-02
7.57815631263E+10	-2.83273984640E-01	-1.15849376500E-01	3.40340024172E-05	-5.68242780929E-05	-6.63359778396E-06	-1.83291734752E-05	2.85683808345E-01	1.29984132348E-02
7.57875751503E+10	-2.86126412087E-01	-9.99118557809E-02	7.31547563126E-06	-7.64043809686E-05	1.43965763573E-05	-1.22319491441E-05	2.85686839545E-01	5.37520977174E-03
7.57935871743E+10	-2.92554719089E-01	-8.80801570199E-02	2.82287375438E-05	-7.69693131665E-05	1.03810861417E-05	-2.92514194934E-06	2.87969016785E-01	7.56883352059E-03
7.57995991984E+10	-2.89531243723E-01	-7.36330012963E-02	5.16120196938E-05	-7.42997852075E-05	4.12259042108E-05	-1.30227390585E-06	2.88518735751E-01	6.70833378257E-03
7.58056112224E+10	-2.92252901674E-01	-6.46510432830E-02	-8.38946534352E-06	-4.69106558903E-05	-1.66576727725E-05	-5.35120097275E-05	2.85299031816E-01	5.98316398822E-03
7.58116232465E+10	-2.94497259327E-01	-4.52068376806E-02	7.57863071621E-05	-4.32237358748E-05	2.18748113009E-05	-5.01960370262E-05	2.83855403324E-01	7.01634487893E-03
7.58176352705E+10	-2.90616927214E-01	-3.77228081980E-02	8.87992239714E-05	-6.00274588121E-05	-3.18497434576E-05	-4.50880837725E-05	2.83075088279E-01	3.91021335686E-03
7.58236472946E+10	-2.91789061582E-01	-1.55605089330E-02	-2.02183821350E-05	1.93498306815E-06	-1.29187832149E-05	-1.22645243124E-05	2.85361332875E-01	1.77262734808E-03
7.58296593186E+10	-2.88692143630E-01	-1.49669440793E-02	-1.09658632673E-05	3.85818806323E-05	-3.37824109269E-05	-5.34609665291E-05	2.88715991872E-01	-1.54458336826E-03
7.58356713427E+10	-2.86998242990E-01	-1.70406136513E-02	-1.05849116636E-04	3.42484401150E-05	4.45845433821E-06	-2.14282752188E-05	2.83284950347E-01	3.83100979926E-03
7.58416833667E+10	-2.85393457883E-01	4.84657837934E-03	-4.15357151868E-05	3.36683355040E-05	2.01116127587E-05	2.39339440498E-05	2.81389974774E-01	1.21871313392E-03
7.58476953908E+10	-2.80402097523E-01	2.67462286492E-02	-8.41841628463E-08	4.32347924662E-05	-2.10464769516E-05	-1.57718063028E-05	2.80066186308E-01	-3.43632532462E-03
7.58537074148E+10	-2.81066955311E-01	2.81238114894E-02	3.90774058228E-05	2.37529789647E-05	-1.33016260047E-05	2.27446864863E-05	2.86379076600E-01	-6.96094003801E-03
7.58597194389E+10	-2.78849069701E-01	2.24944590178E-02	7.43373783790E-05	-4.82470742182E-05	4.27282138042E-06	-1.43722823613E-05	2.81864234470E-01	-5.61346012141E-03
7.58657314629E+10	-2.75867066626E-01	2.69880455012E-02	3.53044593974E-05	1.21517963763E-05	-4.05951545655E-06	4.32063161502E-05	2.84848707651E-01	-4.49034942130E-03
7.58717434870E+10	-2.68244364733E-01	5.03586885205E-02	-9.40369200840E-05	5.99059667851E-05	3.77696733648E-05	-1.12739810733E-05	2.83515686530E-01	-5.58033163218E-03
7.58777555110E+10	-2.67182590349E-01	5.07738595706E-02	3.66437121041E-05	-4.41901804903E-05	3.55658990117E-05	-5.89290128980E-07	2.86587781606E-01	-1.17324189309E-02
7.58837675351E+10	-2.56620274140E-01	7.61921048231E-02	3.35363768910E-05	1.08265738331E-05	-3.10260201713E-05	-1.08337479960E-05	2.82179494755E-01	-1.62709376089E-02
7.58897795591E+10	-2.52681386857E-01	8.27793648671E-02	-2.31710981766E-05	6.15366240412E-05	-2.11332639069E-05	1.32360664950E-05	2.81546126079E-01	-1.44980313614E-02
7.58957915832E+10	-2.49727861482E-01	8.60413008617E-02	-8.18524659780E-05	2.34672298536E-05	1.71256654595E-07	-1.24333807220E-05	2.77617811700E-01	-8.40115767564E-03
7.59018036072E+10	-2.41206851290E-01	1.02566799710E-01	3.31095191200E-05	3.31054279145E-05	-2.43379443723E-05	2.26732389719E-06	2.80812637426E-01	-1.55691528565E-02
7.59078156313E+10	-2.36212885485E-01	1.05999481293E-01	-8.11407471164E-05	-4.87393019477E-06	-2.93944794115E-05	4.00081374111E-05	2.82022491120E-01	-1.62918338865E-02
7.59138276553E+10	-2.26315743484E-01	1.18916067336E-01	-5.79117472008E-05	-2.04152681840E-05	-2.44780327966E-05	-2.43196410328E-05	2.80455021435E-01	-2.09092586545E-02
7.59198396794E+10	-2.26562526836E-01	1.19926583821E-01	5.05906105360E-05	4.06613716139E-05	-2.68569853856E-06	4.30941698927E-05	2.79309896970E-01	-1.44383823943E-02
7.59258517034E+10	-2.21403050520E-01	1.22369646660E-01	1.30343907774E-05	-1.91841978067E-05	4.66677041019E-05	5.89149029563E-06	2.81358294716E-01	-1.92764005595E-02
7.59318637275E+10	-2.15364665905E-01	1.27244420535E-01	-1.55393048880E-05	4.04305975287E-05	-2.07889026011E-06	7.72794590817E-06	2.82637746887E-01	-2.09544513165E-02
7.59378757515E+10	-2.08541401236E-01	1.29769971560E-01	3.44721493947E-05	3.70035579752E-05	-4.17563631845E-06	2.76561166000E-05	2.80215416385E-01	-2.39990985225E-02
7.59438877756E+10	-2.01602802270E-01	1.41498848181E-01	8.79675175888E-06	4.35359171114E-07	3.87905355273E-05	-1.61682267024E-05	2.81359132030E-01	-2.08686494134E-02
7.59498997996E+10	-2.01939223228E-01	1.39421609810E-01	7.05708558160E-06	8.79328598554E-06	-2.68493817374E-05	-2.20927785779E-05	2.78864955420E-01	-2.26931823706E-02
7.59559118236E+10	-1.88657390130E-01	1.53297638953E-01	6.61999491803E-05	2.68316520440E-05	1.87413092212E-05	4.21470130455E-05	2.79327549384E-01	-2.54527811715E-02
7.59619238477E+10	-1.74468764973E-01	1.62995033347E-01	8.39509356574E-05	4.33279882723E-05	6.81828895313E-05	-1.83157550616E-05	2.77232195375E-01	-2.36292395123E-02
7.59679358717E+10	-1.77825288898E-01	1.57926364248E-01	1.53627503696E-06	1.76203078156E-06	8.69854287954E-05	-3.83305856799E-05	2.75532838590E-01	-2.40516308199E-02
7.59739478958E+10	-1.74199302516E-01	1.61946355973E-01	7.05250079291E-05	1.59274069684E-06	1.56574767022E-05	-3.84131592364E-05	2.77115544760E-01	-2.49257105945E-02
7.59799599198E+10	-1.63844517704E-01	1.69075489846E-01	-1.04391762905E-05	-9.54793797179E-05	-1.84344347235E-05	-5.70453669097E-05	2.80112956252E-01	-3.12597731655E-02
7.59859719439E+10	-1.52338195699E-01	1.71584935612E-01	-6.50906687670E-05	6.77937668002E-05	-4.88394966875E-05	-2.82546113386E-05	2.75684291962E-01	-2.43609157301E-02
7.59919839679E+10	-1.48784849297E-01	1.75992986801E-01	-2.01242720740E-05	-1.66551689166E-05	-1.97729006769E-05	4.35406856057E-05	2.78244312734E-01	-3.21893771914E-02
7.59979959920E+10	-1.53446066045E-01	1.70723982955E-01	2.57675250921E-05	-1.06350485889E-05	-8.92381825507E-06	6.81885074349E-05	2.74028570644E-01	-3.23996394297E-02
7.60040080160E+10	-1.37771996070E-01	1.78051438060E-01	2.64588986060E-05	7.19621635548E-05	-2.09926906405E-05	6.54943623125E-05	2.78776577425E-01	-3.68063190586E-02
7.60100200401E+10	-1.21864279394E-01	1.87474712023E-01	-3.17137815095E-05	-2.83038308015E-06	4.80486718357E-05	-7.43146840060E-07	2.73303485435E-01	-2.70924712465E-02
7.60160320641E+10	-1.23001120806E-01	1.83393384751E-01	1.79280884472E-05	4.69471662194E-05	-2.13333084458E-06	-4.14994427871E-05	2.79270732153E-01	-3.63297264481E-02
7.60220440882E+10	-1.16686660153E-01	1.86329308678E-01	-1.59396505437E-05	3.25150024376E-05	-1.02964934168E-05	-8.64220400125E-05	2.78077511066E-01	-3.79959183023E-02
7.60280561122E+10	-1.07034652610E-01	1.89967303782E-01	-2.65885045793E-06	1.99056960148E-05	-2.22987777192E-05	-2.60392356566E-05	2.71835250642E-01	-3.09134400809E-02
7.60340681363E+10	-1.06379535112E-01	1.90525620034E-01	-3.45089563837E-05	-6.72236799364E-05	-1.62156941857E-05	-1.96549954846E-05	2.72036745596E-01	-3.82226144286E-02
7.60400801603E+10	-9.94593691221E-02	1.91985710542E-01	-2.21802150511E-05	-7.64452297233E-05	-1.38046978766E-05	3.97165820280E-06	2.74381330578E-01	-3.69205208089E-02
7.60460921844E+10	-9.21226163189E-02	1.93236951565E-01	-1.16656159660E-05	3.50265441438E-05	-4.16209152859E-05	2.64173386342E-05	2.75167706736E-01	-4.03050635724E-02
7.60521042084E+10	-8.03568362753E-02	1.95531820884E-01	3.09319821379E-05	1.28288481732E-05	-3.19083566017E-05	-2.16477298850E-05	2.74943911690E-01	-4.18056340342E-02
7.60581162325E+10	-7.64223463573E-02	1.95493544933E-01	6.24318989607E-06	-3.27529078849E-05	-1.49542423324E-06	6.41355630165E-06	2.76947423251E-01	-4.53247161335E-02
7.60641282565E+10	-7.73663841879E-02	1.96481481906E-01	-9.23871503866E-05	-1.02699875158E-05	1.75129559453E-05	-4.39300101622E-05	2.72199961519E-01	-3.82807395925E-02
7.60701402806E+10	-7.26983936670E-02	1.94797199545E-01	-4.33308218153E-05	5.39633840531E-05	-1.53183005834E-05	-4.39662279771E-06	2.73810960729E-01	-4.20389903655E-02
7.60761523046E+10	-5.24580851439E-02	1.99941391482E-01	-3.71888093750E-05	-6.48245057541E-06	1.19105555229E-07	-3.40615546024E-05	2.72854519016E-01	-3.47833714550E-02
7.60821643287E+10	-5.08417289216E-02	2.01298560305E-01	-3.05119246977E-05	1.50414254419E-06	3.89714270852E-06	-2.09267640739E-05	2.73789859509E-01	-4.50266796829E-02
7.60881763527E+10	-5.19485447433E-02	1.97698609055E-01	-5.71772090294E-05	3.02718962201E-05	-2.87715502279E-05	-2.68467000869E-05	2.74881935191E-01	-5.26016006815E-02
7.60941883768E+10	-4.06529443533E-02	1.96253702881E-01	-7.07434732733E-05	2.00575658446E-05	-5.02964390999E-05	-3.73236516172E-05	2.72449737266E-01	-4.63731734300E-02
7.61002004008E+10	-3.59689938440E-02	1.99315870011E-01	2.88551119184E-05	1.65238475456E-05	2.52627552902E-05	5.26403360341E-05	2.72120655099E-01	-3.97982006666E-02
7.61062124248E+10	-2.76562296672E-02	2.01189763030E-01	-5.32371603894E-06	6.17151066030E-05	1.57601382631E-05	1.97463182362E-05	2.72406764284E-01	-4.14735231475E-02
7.61122244489E+10	-2.05623043377E-02	1.95563687147E-01	2.78093222344E-05	-1.77740859004E-05	-2.24289821039E-05	-4.91662708830E-07	2.71813247221E-01	-4.52006174468E-02
7.61182364729E+10	-1.51227704746E-02	1.98422065603E-01	2.58579299524E-05	-6.08619541245E-05	-4.53692295555E-05	2.87624418432E-05	2.73758255396E-01	-4.99900540589E-02
7.61242484970E+10	-1.62445093142E-02	1.96073188933E-01	2.91519350110E-05	4.40530317218E-05	-6.36647356249E-05	1.56577081173E-05	2.74996178400E-01	-5.49107918024E-02
7.61302605210E+10	-2.17040168631E-02	1.93011823780E-01	-1.58220533698E-05	1.04878409589E-04	1.09595327446E-05	2.56763999076E-06	2.73816601652E-01	-4.98003513548E-02
7.61362725451E+10	-1.09726688460E-03	1.93623239675E-01	3.34299372462E-05	5.67966899923E-05	-1.40848235560E-05	7.46543763377E-06	2.70631801795E-01	-4.79727987926E-02
7.61422845691E+10	8.42370392480E-03	1.95040246181E-01	3.57606783728E-06	4.87970784472E-05	-1.05831424202E-05	4.63757397502E-05	2.72028499109E-01	-5.52181567768E-02
7.61482965932E+10	7.29700273234E-03	1.91460520585E-01	4.19294213109E-05	-6.40009836351E-05	-1.33732071244E-05	2.46391581715E-05	2.76040481500E-01	-6.02655757033E-02
7.61543086172E+10	1.70166737970E-02	1.94507629184E-01	1.97951311128E-05	2.19141034184E-05	-2.16666550082E-05	8.12031867866E-06	2.74294898813E-01	-5.55360458072E-02
7.61603206413E+10	1.94064956119E-02	1.91193862604E-01	-5.86771345574E-05	5.84226355259E-05	-1.20985866400E-05	4.49978661777E-05	2.76005996399E-01	-5.76498367903E-02
7.61663326653E+10	1.76842555944E-02	1.88844539839E-01	1.57513695480E-05	-8.48728171611E-06	3.98804592665E-05	3.57552581499E-05	2.73784996081E-01	-5.66462704627E-02
7.61723446894E+10	3.41858158884E-02	1.87829088792E-01	-1.04373781227E-06	3.55412639307E-05	-2.71883104890E-05	1.74158619425E-05	2.73286232117E-01	-6.23482341524E-02
7.61783567134E+10	3.73675675904E-02	1.85718683171E-01	2.32559238174E-05	2.18564571948E-05	1.57737343577E-05	1.37838462096E-05	2.74209003739E-01	-6.57343881559E-02
7.61843687375E+10	4.24367161881E-02	1.84002334587E-01	-4.48807073120E-05	-3.55168295032E-05	-8.88326803190E-06	-1.52899341822E-05	2.72811184977E-01	-6.88150429896E-02
7.61903807615E+10	4.48430329077E-02	1.80406010613E-01	-2.81092873895E-05	5.26187273604E-05	-2.05797553990E-05	-1.77386171397E-05	2.72657958760E-01	-6.51940806673E-02
7.61963927856E+10	4.55860363479E-02	1.80772868939E-01	1.11494843011E-05	8.31975717249E-06	-3.46922804263E-05	-8.52292576925E-06	2.72389179123E-01	-5.92858323292E-02
7.62024048096E+10	5.42084206877E-02	1.74512799688E-01	2.06010711779E-05	5.87207606185E-05	1.91056039179E-06	1.63592276226E-05	2.73188841166E-01	-6.67235462772E-02
7.62084168337E+10	5.50455323272E-02	1.74675188798E-01	4.62388041440E-06	6.36850974265E-05	-1.79080713963E-07	1.09393501002E-05	2.72515253427E-01	-6.91864966533E-02
7.62144288577E+10	6.25261828962E-02	1.73773255601E-01	5.67180938361E-05	-4.48732382511E-05	4.36013483451E-05	3.13922414299E-05	2.73421444723E-01	-6.60748609512E-02
7.62204408818E+10	6.94956553889E-02	1.69467531883E-01	1.09410960983E-04	-1.08311224120E-04	4.62778450708E-05	-6.43631938500E-05	2.72824576311E-01	-7.41618122226E-02
7.62264529058E+10	7.53747522609E-02	1.68081639318E-01	1.32216258137E-05	-1.06054978330E-04	1.38956946202E-05	-4.54547049541E-05	2.71252019401E-01	-7.44070839477E-02
7.62324649299E+10	7.24821061838E-02	1.64737683139E-01	-9.26932638586E-05	7.61968920293E-06	-3.67693851537E-05	-5.79618064126E-05	2.71068604904E-01	-7.12825275453E-02
7.62384769539E+10	7.66724790282E-02	1.63000600510E-01	-3.33013331528E-05	-1.09705318822E-05	-6.04868755781E-05	-4.67717570140E-05	2.69459892506E-01	-7.12850657592E-02
7.62444889780E+10	8.24727500984E-02	1.61796695747E-01	-3.79770016672E-05	-4.26854521723E-05	2.90484419340E-05	-2.24757073818E-05	2.71114527589E-01	-7.49857940209E-02
7.62505010020E+10	8.68399750827E-02	1.58855059810E-01	-2.33430005093E-05	2.43058650840E-06	-5.42766770772E-05	-1.84385398147E-05	2.72232042887E-01	-7.77651778798E-02
7.62565130261E+10	8.61988062756E-02	1.58487782306E-01	7.15394285940E-05	5.51595542881E-05	-7.29233544010E-06	7.31228285483E-05	2.70372727418E-01	-7.98497698778E-02
7.62625250501E+10	9.67708647710E-02	1.50687939468E-01	2.21078498725E-05	-1.70821644104E-05	2.19108550029E-06	-9.53904430222E-06	2.73417913420E-01	-7.81519472493E-02
7.62685370741E+10	9.92224020964E-02	1.47458806756E-01	8.80749172599E-05	2.03162809072E-05	-1.19337944568E-05	-4.99872265767E-06	2.69905906884E-01	-7.80664014349E-02
7.62745490982E+10	1.03315447582E-01	1.44869167772E-01	8.07713906087E-06	-4.78612426195E-06	-2.34233073440E-05	-1.75002453177E-05	2.73260743417E-01	-8.53338083251E-02
7.62805611222E+10	1.06369172613E-01	1.44551226635E-01	-4.27063326125E-05	7.41643936475E-06	5.05305853510E-05	1.89048176915E-05	2.68617702775E-01	-8.87585003862E-02
7.62865731463E+10	1.07829781428E-01	1.40579032686E-01	-1.72203241608E-05	2.27863754325E-05	-1.20889928305E-05	1.72618603540E-05	2.67745231777E-01	-8.71835174137E-02
7.62925851703E+10	1.10438379504E-01	1.37056837115E-01	5.32503304239E-05	5.62315652234E-05	6.08513336133E-06	-1.76139017642E-05	2.67962863207E-01	-8.62338155188E-02
7.62985971944E+10	1.14027422692E-01	1.33323272329E-01	3.95166092014E-05	3.89601360436E-05	-5.23316964884E-05	-2.37727588315E-05	2.68260093930E-01	-8.50597027430E-02
7.63046092184E+10	1.18065521426E-01	1.26631318082E-01	-3.69846512557E-05	1.47091864136E-05	9.73575970672E-06	-3.44380975174E-05	2.68422707950E-01	-8.69204077556E-02
7.63106212425E+10	1.19418160806E-01	1.27560367036E-01	3.35711775687E-05	-5.29558038708E-05	1.09669577166E-06	4.84860110950E-05	2.67792147588E-01	-9.41379059051E-02
7.63166332665E+10	1.22935631621E-01	1.21951189421E-01	1.81678405860E-06	-2.04630047621E-05	2.17488105257E-05	-2.90741270352E-06	2.65339243462E-01	-9.62486637316E-02
7.63226452906E+10	1.26966905973E-01	1.23542530769E-01	2.08034216285E-05	-3.21040110401E-05	-8.74834061881E-06	-5.70612638458E-05	2.64311682693E-01	-9.52677119034E-02
7.63286573146E+10	1.24871342327E-01	1.19635422903E-01	-1.38150082085E-05	6.89725130620E-06	-2.34466478867E-05	-1.25634703243E-06	2.63701884041E-01	-9.03718285564E-02
7.63346693387E+10	1.28916370832E-01	1.13577219259E-01	-4.89166321546E-05	-3.01426330118E-06	-1.32277301599E-05	-1.71526643980E-05	2.66189446419E-01	-9.97049699453E-02
7.63406813627E+10	1.32042359316E-01	1.10455310959E-01	2.95249707726E-05	3.68926089956E-05	-4.55726369919E-05	2.16389188505E-05	2.61700211129E-01	-1.01653974375E-01
7.63466933868E+10	1.38153516502E-01	1.07514347544E-01	4.18046030859E-05	7.56321217933E-06	1.20026528245E-05	3.12801079633E-05	2.61429489761E-01	-1.03994702238E-01
7.63527054108E+10	1.34928121331E-01	1.07171314370E-01	7.25806227390E-05	4.05921904829E-05	4.00880118605E-05	-1.18222900983E-05	2.63493360896E-01	-1.08372007704E-01
7.63587174349E+10	1.37221191299E-01	1.03424508699E-01	2.28267976707E-05	-1.57996095034E-05	6.75688546121E-06	2.77228141614E-05	2.62627282095E-01	-1.00524350636E-01
7.63647294589E+10	1.43467690887E-01	9.63948624200E-02	4.33652661323E-05	-2.04776087156E-05	3.52531539044E-05	-6.31631278553E-06	2.60273301729E-01	-1.02222325636E-01
7.63707414830E+10	1.45566813449E-01	9.28895432469E-02	7.05963419963E-05	-2.21686274407E-05	3.61141011701E-05	1.90736543433E-05	2.56995495404E-01	-1.07706055043E-01
7.63767535070E+10	1.46392227164E-01	9.02842092192E-02	-2.83632025743E-05	-6.48735416521E-05	4.27114564068E-05	-2.72505229208E-05	2.57925615845E-01	-1.11808235895E-01
7.63827655311E+10	1.48685366476E-01	8.43862920214E-02	5.73314406988E-05	3.09528261639E-05	-3.49597032474E-06	2.39451717817E-05	2.57104906646E-01	-1.11137691205E-01
7.63887775551E+10	1.48840677056E-01	8.54658621627E-02	2.09500608221E-05	1.90585613491E-06	-4.83014277165E-05	-2.34813120620E-05	2.55438929198E-01	-1.10154894761E-01
7.63947895792E+10	1.52190778263E-01	7.76729245501E-02	1.11836892058E-05	-3.84371276103E-05	3.96061734074E-05	-2.06452260250E-05	2.54449871699E-01	-1.08092826207E-01
7.64008016032E+10	1.52098070016E-01	7.21318587174E-02	8.99320749474E-06	-6.03391063932E-05	1.35830823861E-05	-4.28817758132E-05	2.50931409350E-01	-1.09209485797E-01
7.64068136273E+10	1.57247684555E-01	7.16722629588E-02	-7.85271645709E-07	3.83775473088E-05	-2.34807260196E-05	-9.25498123817E-06	2.49474651800E-01	-1.16309267893E-01
7.64128256513E+10	1.59300662775E-01	6.32026227454E-02	-2.88736088939E-05	-2.68511126229E-05	-8.86804806894E-06	8.95410282839E-06	2.49687958262E-01	-1.22681971308E-01
7.64188376754E+10	1.58572526638E-01	6.29775030763E-02	3.02637626559E-05	-4.50208036861E-05	-1.47064485161E-05	-2.18199912413E-05	2.50435688053E-01	-1.10401833004E-01
7.64248496994E+10	1.57931883697E-01	6.29815918617E-02	-5.08254915967E-05	4.00294675726E-05	5.42980384429E-06	-2.64277262640E-06	2.46077199949E-01	-1.14793860939E-01
7.64308617234E+10	1.60985709151E-01	5.98372241205E-02	-1.40809170834E-05	5.57196802651E-05	-3.04705928196E-05	8.76963300448E-06	2.45420809151E-01	-1.19647405590E-01
7.64368737475E+10	1.62868640255E-01	5.43583001089E-02	-3.22132949639E-05	4.78698566246E-05	1.48232466379E-05	1.68691349448E-05	2.47066315794E-01	-1.23298835255E-01
7.64428857715E+10	1.65114014530E-01	4.77088290475E-02	6.69250009891E-06	3.22648625766E-06	4.48915550269E-05	3.99541238380E-05	2.45613323188E-01	-1.21581320020E-01
7.64488977956E+10	1.65301684359E-01	4.05100651319E-02	3.74415763270E-05	3.57161750428E-05	6.03675013377E-05	6.39379898636E-05	2.44280221916E-01	-1.18788179286E-01
7.64549098196E+10	1.64676047485E-01	3.71861421155E-02	1.62824564572E-05	-7.88100605919E-07	4.25117126895E-05	-5.73772701076E-05	2.43238207199E-01	-1.17022382058E-01
7.64609218437E+10	1.65482755949E-01	3.40488676216E-02	1.85004899878E-05	5.00265763288E-05	-2.13785948099E-06	-4.74244837889E-05	2.40716439672E-01	-1.18995613687E-01
7.64669338677E+10	1.66173091192E-01	3.14446394622E-02	3.85609205296E-06	1.55021049759E-05	5.76460418655E-05	-3.16240578335E-05	2.38362218037E-01	-1.27458511485E-01
7.64729458918E+10	1.68878374347E-01	2.67597618174E-02	1.60615844428E-05	2.87275126092E-05	-3.03338833138E-05	-4.54194540129E-05	2.38992066307E-01	-1.25763075898E-01
7.64789579158E+10	1.70268917470E-01	2.34425965887E-02	3.29032504386E-05	-3.29172895460E-05	-2.62346232195E-05	4.78292209226E-05	2.37552718652E-01	-1.23319896326E-01
7.64849699399E+10	1.71010069573E-01	1.89614125181E-02	-1.22568862898E-06	7.77439717056E-05	-3.28841813779E-05	2.68419345081E-05	2.37284828763E-01	-1.23484401572E-01
7.64909819639E+10	1.68939103603E-01	1.94108801626E-02	-3.68068269956E-05	1.44077422750E-05	3.46854340058E-05	4.60170344357E-06	2.34559123942E-01	-1.25617588103E-01
7.64969939880E+10	1.70558223063E-01	6.57692135808E-03	-3.27037146638E-05	-1.94575842587E-06	-1.94795270299E-05	-3.14898277700E-05	2.32057772800E-01	-1.25394961913E-01
7.65030060120E+10	1.70054010147E-01	2.86031844094E-04	9.62918021819E-06	2.83443981212E-05	1.88499411810E-05	1.12456718207E-05	2.31601741706E-01	-1.26692321927E-01
7.65090180361E+10	1.72050436018E-01	3.11632063942E-03	-1.81765468268E-05	-6.51566217947E-06	-2.76005368488E-05	-8.29013941641E-06	2.30281720718E-01	-1.26631752280E-01
7.65150300601E+10	1.72218292169E-01	-6.45239071867E-03	-3.37775239792E-05	2.71409398239E-05	-1.77904176005E-07	-5.26731463302E-06	2.28512039037E-01	-1.24467754816E-01
7.65210420842E+10	1.69597449613E-01	-7.66253585153E-03	-1.68220558883E-05	3.78845035296E-05	1.24951952460E-06	1.75786249455E-05	2.29230538087E-01	-1.25854645767E-01
7.65270541082E+10	1.68964101638E-01	-1.13122072093E-02	-3.54419181840E-05	9.28628916839E-06	-5.76805285622E-05	2.06258714905E-05	2.28389880664E-01	-1.28491174968E-01
7.65330661323E+10	1.71110158515E-01	-1.90097404585E-02	-2.86502400850E-05	-1.30171362717E-05	4.62906043720E-05	-1.88722035283E-06	2.27282884617E-01	-1.26104934527E-01
7.65390781563E+10	1.70595077364E-01	-2.41705034285E-02	-4.70205658080E-05	-9.55122129582E-05	-5.73032590848E-05	1.71803820051E-05	2.24211047588E-01	-1.25941670716E-01
7.65450901804E+10	1.71412684575E-01	-3.00435711452E-02	3.80635094383E-06	5.28594128221E-05	1.47702855240E-05	4.92231039685E-06	2.23476931717E-01	-1.23960520015E-01
7.65511022044E+10	1.68618152334E-01	-3.10697489626E-02	2.27308095001E-05	-9.41766721457E-07	-7.08548472901E-05	2.54825329875E-05	2.21762614166E-01	-1.26884879194E-01
7.65571142285E+10	1.67138496294E-01	-2.97078556045E-02	1.32017235988E-05	4.60418047134E-05	-3.13032536895E-05	7.50185003282E-06	2.23231104811E-01	-1.27208640370E-01
7.65631262525E+10	1.66453671435E-01	-3.91180486756E-02	-4.31998812744E-05	-3.77916608369E-05	4.00233820283E-05	-1.06261974488E-05	2.22532566835E-01	-1.26393805011E-01
7.65691382766E+10	1.64927826773E-01	-4.59754841786E-02	-4.43413349080E-05	-2.16537977381E-05	-4.94035878823E-05	-3.66846850919E-05	2.18524787680E-01	-1.25385693981E-01
7.65751503006E+10	1.64054153354E-01	-4.74908385491E-02	-9.27500012741E-06	1.53895298841E-05	-4.11009136005E-05	-6.16870316915E-06	2.20419497518E-01	-1.22383238408E-01
7.65811623246E+10	1.62816249483E-01	-5.10465136332E-02	-1.58692753099E-05	2.99334218031E-05	-8.82703098959E-06	4.81299711414E-05	2.20585351273E-01	-1.25123066836E-01
7.65871743487E+10	1.61162225004E-01	-5.31436229093E-02	6.91513597387E-05	-1.06036167452E-05	1.16209981974E-05	3.18582678114E-05	2.18219003777E-01	-1.30554294027E-01
7.65931863727E+10	1.59512873347E-01	-6.06761171852E-02	-2.21997439020E-05	-3.49306414143E-05	1.03166221137E-06	-9.97034936151E-06	2.17040170657E-01	-1.27179604948E-01
7.65991983968E+10	1.59685898605E-01	-6.29592959861E-02	-4.64379515049E-06	6.13714558438E-05	-3.91780752508E-05	-1.51315062315E-05	2.17753205683E-01	-1.24215726398E-01
7.66052104208E+10	1.57005320329E-01	-6.83879935242E-02	-6.87508202718E-05	-7.57278150916E-06	-1.14136513997E-05	-3.22070124594E-05	2.15447066293E-01	-1.25573713034E-01
7.66112224449E+10	1.54146070709E-01	-6.70034788384E-02	3.84071066500E-05	-3.28141865634E-05	-7.35924485418E-05	5.92403890196E-05	2.15385459788E-01	-1.31846722545E-01
7.66172344689E+10	1.52675943245E-01	-7.74270668446E-02	9.27811467581E-06	1.01603466247E-05	8.18941649108E-05	-5.32467325368E-05	2.14869990057E-01	-1.33511246920E-01
7.66232464930E+10	1.50437554078E-01	-8.27289202082E-02	5.56630218430E-05	3.41337372078E-05	-1.62397239194E-06	-1.74878443549E-05	2.14293925923E-01	-1.31379144770E-01
7.66292585170E+10	1.48586127748E-01	-8.71154346372E-02	2.78382381881E-06	-4.34515983246E-06	-2.40413338332E-05	5.97809815313E-06	2.12683241450E-01	-1.28316381687E-01
7.66352705411E+10	1.45837589390E-01	-8.85475417727E-02	1.40360864001E-05	-3.62372604579E-05	5.85622881121E-05	-1.19750156733E-05	2.12572496767E-01	-1.24983632360E-01
7.66412825651E+10	1.44115743633E-01	-9.01300831096E-02	4.65275578380E-05	-1.37615035254E-05	-1.60139542253E-05	-5.61532817649E-05	2.12043993793E-01	-1.25920885357E-01
7.66472945892E+10	1.39285848320E-01	-9.91848330902E-02	1.87433266206E-05	2.08365995371E-05	2.66331185030E-05	3.54111242493E-05	2.12916874956E-01	-1.27821658065E-01
7.66533066132E+10	1.37486671250E-01	-1.02194078280E-01	9.58125426169E-06	4.95574212417E-05	-2.72053020251E-05	1.46475884782E-05	2.13306259652E-01	-1.25608105131E-01
7.66593186373E+10	1.35018654505E-01	-9.79542272405E-02	1.35194904209E-05	-3.78878570982E-06	8.82967184368E-06	2.23640017761E-05	2.09333537830E-01	-1.31747506642E-01
7.66653306613E+10	1.32278406752E-01	-1.07688305725E-01	4.37578223784E-05	4.91791519002E-05	2.12570137365E-05	-4.49032601546E-06	2.10010219383E-01	-1.33034018772E-01
7.66713426854E+10	1.29801148894E-01	-1.12037530822E-01	8.04720925684E-05	6.43020475064E-05	2.65652525006E-05	-4.66651273312E-05	2.11136563692E-01	-1.25892939046E-01
7.66773547094E+10	1.27550425690E-01	-1.14912077573E-01	1.60936935690E-05	4.76767430497E-05	-2.50221110065E-05	-3.47457050140E-05	2.07395880934E-01	-1.27283900896E-01
7.66833667335E+10	1.23940851918E-01	-1.17149996855E-01	6.09230682461E-05	-1.65450798190E-05	2.74747611650E-05	-1.41103622274E-05	2.11539857963E-01	-1.29268236361E-01
7.66893787575E+10	1.20611441625E-01	-1.17345925473E-01	-7.26886510314E-05	-1.56269473926E-06	6.91904320966E-06	1.64841885270E-06	2.08645810960E-01	-1.31181549955E-01
7.66953907816E+10	1.17384542636E-01	-1.24079240569E-01	-1.54255296081E-05	3.50972128694E-05	-1.00770143902E-04	-1.28731295749E-06	2.08666486737E-01	-1.29830384589E-01
7.67014028056E+10	1.13730000779E-01	-1.29180138217E-01	5.49879756642E-05	3.75641594757E-05	-1.58960161878E-05	2.41772901502E-06	2.07546563287E-01	-1.27562858564E-01
7.67074148297E+10	1.12850386817E-01	-1.24528897361E-01	-5.97105406426E-06	2.82937178828E-05	1.78148018146E-06	-1.42025996421E-05	2.06872056907E-01	-1.31504089879E-01
7.67134268537E+10	1.08484491797E-01	-1.27287271553E-01	1.39061364903E-05	-2.94815056242E-05	-1.20638125858E-05	4.69930823153E-05	2.06568169059E-01	-1.25465973289E-01
7.67194388778E+10	1.00509351330E-01	-1.40042604867E-01	-1.49814696830E-05	-7.36878678440E-06	1.10851133605E-05	3.80296554436E-05	2.06526858781E-01	-1.27582528333E-01
7.67254509018E+10	9.57827457992E-02	-1.43742753220E-01	-1.36287649546E-05	3.49372030756E-05	-3.09852384362E-05	7.23840743636E-05	2.07907708899E-01	-1.32108158424E-01
7.67314629259E+10	9.27163047791E-02	-1.42571581932E-01	1.29646741484E-05	2.13381790276E-05	5.93648556328E-05	3.28426886635E-05	2.08934987943E-01	-1.27400154672E-01
7.67374749499E+10	9.16462207182E-02	-1.44080936862E-01	2.72479825767E-05	-1.03148719065E-06	-1.36002609395E-05	4.14382241547E-05	2.05757267552E-01	-1.26379386264E-01
7.67434869739E+10	9.06144050014E-02	-1.43548194403E-01	2.45303306194E-05	-1.00204918610E-05	-1.40428536075E-05	2.26588590027E-05	2.04614737395E-01	-1.29089791349E-01
7.67494989980E+10	8.58266144042E-02	-1.44225000351E-01	9.00406669328E-05	-6.44103375142E-06	-8.51850694723E-06	3.07580308438E-06	2.03744624078E-01	-1.27804821941E-01
7.67555110220E+10	7.88997471098E-02	-1.46042990776E-01	-3.73698128711E-05	-1.17403892590E-05	-7.35557593312E-05	4.45907719789E-05	2.04742199928E-01	-1.30203002393E-01
7.67615230461E+10	7.39894961226E-02	-1.50997155398E-01	-1.05300089911E-06	8.71108722925E-06	-9.58502106045E-06	-8.11981745752E-06	2.03606179586E-01	-1.32566058631E-01
7.67675350701E+10	6.88732107769E-02	-1.54399392074E-01	1.67651788988E-05	-6.07531019419E-05	2.32322132491E-05	1.17345843096E-05	2.02957354769E-01	-1.28516575194E-01
7.67735470942E+10	7.10121578040E-02	-1.50293311919E-01	1.19044602134E-05	4.60044089542E-05	3.16146967277E-05	2.83871840308E-05	2.04525178542E-01	-1.26680328790E-01
7.67795591182E+10	6.23640122701E-02	-1.58285983462E-01	-1.68336347088E-05	-1.67230536465E-05	4.77128695012E-05	-1.49016983801E-06	2.03502917061E-01	-1.28734877146E-01
7.67855711423E+10	6.03158642450E-02	-1.57755525419E-01	-8.43638425625E-06	-5.54333810884E-05	4.91536412040E-06	-2.55096857686E-05	2.01360585966E-01	-1.31820156453E-01
7.67915831663E+10	5.38783049849E-02	-1.56465706179E-01	-3.66969574858E-05	2.95207077368E-06	-5.67749795373E-06	2.13092983372E-05	2.02902203766E-01	-1.31407928579E-01
7.67975951904E+10	4.85170437477E-02	-1.61704267602E-01	-8.70839976785E-06	4.80120590761E-05	-5.44914075353E-05	-2.15674096639E-05	2.02610946146E-01	-1.30439571763E-01
7.68036072144E+10	4.23062892961E-02	-1.60177838803E-01	-2.36942830037E-05	1.03166305766E-05	-2.03804181392E-06	1.90032662659E-06	2.03980513740E-01	-1.31000335376E-01
7.68096192385E+10	3.71776746796E-02	-1.64541918919E-01	-3.05003654278E-05	4.05457799659E-05	4.31422836786E-05	-6.46075297405E-06	2.03673569100E-01	-1.32991619138E-01
7.68156312625E+10	3.67145996896E-02	-1.62192717025E-01	1.84651307721E-06	5.15931082889E-05	-5.95371185936E-06	1.50370302545E-05	2.02946143760E-01	-1.27651669005E-01
7.68216432866E+10	3.33383076261E-02	-1.61895332846E-01	-2.97779932121E-05	-6.54701279881E-06	-5.11029443305E-05	-2.30536891979E-06	1.99647965504E-01	-1.31789084590E-01
7.68276553106E+10	2.95265125531E-02	-1.60644829614E-01	-2.00321193587E-05	4.01396219450E-05	4.85622590968E-05	-3.94021042489E-06	2.03747346896E-01	-1.25139770040E-01
7.68336673347E+10	2.43113550998E-02	-1.62786911805E-01	-1.02112385259E-05	-5.98618390195E-05	-1.66423157780E-05	-3.35788372061E-05	2.02759540267E-01	-1.32382727904E-01
7.68396793587E+10	1.83622377517E-02	-1.65733527431E-01	-7.47016992112E-05	-2.40609744989E-06	-7.76350830033E-07	-6.14895488353E-05	1.99359813877E-01	-1.35326268439E-01
7.68456913828E+10	1.14181606589E-02	-1.66820515293E-01	-5.25564320847E-05	-5.67082884161E-05	-6.04791920834E-05	-5.50343587688E-05	2.03057692789E-01	-1.29989147983E-01
7.68517034068E+10	6.89908213931E-03	-1.66839562119E-01	1.03906663527E-05	-1.66712862915E-05	-7.02404299752E-06	1.55165422845E-05	2.02041270616E-01	-1.30968774763E-01
7.68577154309E+10	8.70517398602E-05	-1.64102224151E-01	-1.14334643678E-05	1.76063010938E-05	-2.59388878049E-05	4.48246162325E-06	2.03413272988E-01	-1.30130796446E-01
7.68637274549E+10	-5.54073004583E-03	-1.67492237289E-01	2.23202616030E-05	-1.01430531815E-05	1.37044203068E-05	6.91225315295E-06	2.03864935642E-01	-1.30083155584E-01
7.68697394790E+10	-3.21981729107E-03	-1.62897792747E-01	1.88601728382E-05	-2.48307489925E-05	-4.72854797647E-06	-4.94137688998E-06	2.03496232345E-01	-1.32596109184E-01
7.68757515030E+10	-5.67331907981E-03	-1.62909266486E-01	-4.35328430336E-06	9.72006046038E-05	-4.84824799594E-05	-1.56796974954E-05	2.01698723528E-01	-1.30338254103E-01
7.68817635271E+10	-1.37623209117E-02	-1.64601728507E-01	-5.57895062603E-05	3.16179608126E-07	8.40664634036E-07	3.60751147112E-05	2.00822522808E-01	-1.28665203833E-01
7.68877755511E+10	-1.52570021988E-02	-1.61118958340E-01	1.19396877276E-05	2.95893480610E-05	4.71511482421E-05	-1.72114240772E-06	2.00864536646E-01	-1.33797324644E-01
7.68937875752E+10	-2.40587914566E-02	-1.62803855187E-01	5.46518062519E-05	1.75215517087E-06	4.09548165713E-05	-1.95569044829E-05	2.03973147101E-01	-1.28590182190E-01
7.68997995992E+10	-2.75406040506E-02	-1.59788564670E-01	8.71299825891E-05	1.44432291869E-05	2.78652025669E-05	-3.12922664579E-06	2.01373831823E-01	-1.35180298884E-01
7.69058116232E+10	-3.61267030243E-02	-1.60203605846E-01	-2.01161582904E-05	-3.06713135231E-05	5.54378488757E-05	-6.75531709583E-05	2.00628205426E-01	-1.37345587694E-01
7.69118236473E+10	-3.97824932109E-02	-1.57216507359E-01	1.24860343377E-05	4.82749881092E-05	-1.47944196499E-05	2.07898275731E-05	2.04341312273E-01	-1.29874704573E-01
7.69178356713E+10	-3.59906782847E-02	-1.56238397973E-01	-4.01946270868E-05	-7.35334409041E-05	-6.19144472148E-05	1.06774076273E-05	2.01244471298E-01	-1.34963126048E-01
7.69238476954E+10	-4.63165505912E-02	-1.55437814061E-01	5.45896451246E-05	-1.99064104233E-05	4.17819137871E-06	-2.24646343996E-05	2.01654603745E-01	-1.39035659962E-01
7.69298597194E+10	-5.64807906140E-02	-1.55760177889E-01	7.55452978054E-06	-6.17500317053E-05	7.12060866180E-06	-3.97820384240E-07	2.02837935116E-01	-1.34619182472E-01
7.69358717435E+10	-5.33783457575E-02	-1.50678087065E-01	-7.47819364595E-05	-4.45428152782E-06	-4.43791373827E-06	7.86251553054E-06	2.02987258730E-01	-1.39069571791E-01
7.69418837675E+10	-5.62625649259E-02	-1.48465439288E-01	-4.89791385404E-05	3.56288358518E-05	-7.26912642181E-06	2.18204548128E-05	2.01906156227E-01	-1.35046078071E-01
7.69478957916E+10	-6.10853401058E-02	-1.48453862075E-01	-4.23265561921E-05	8.79811750071E-05	-8.96324561039E-06	5.24868930109E-06	2.01632540929E-01	-1.33883286812E-01
7.69539078156E+10	-6.41888748772E-02	-1.45657604127E-01	8.00262381460E-05	1.83555785730E-06	1.38379006207E-05	1.47075803328E-05	2.04269581368E-01	-1.36706393597E-01
7.69599198397E+10	-6.49612688865E-02	-1.42268300249E-01	6.16936186525E-05	-6.20001580387E-06	-1.61183769351E-05	-9.62180716427E-06	2.03853854792E-01	-1.39740538293E-01
7.69659318637E+10	-7.40670849643E-02	-1.40611358536E-01	2.07309236410E-05	1.10137412497E-05	1.65266318308E-06	7.41934883579E-06	2.00042406598E-01	-1.40762087072E-01
7.69719438878E+10	-7.83536383670E-02	-1.36571374604E-01	5.48487555206E-05	1.40431179298E-05	4.35801580007E-05	2.45927967127E-05	2.04185966789E-01	-1.33630734844E-01
7.69779559118E+10	-8.15270992048E-02	-1.34231693140E-01	2.62557679727E-05	-5.67472340462E-05	1.73259592268E-06	4.32437256052E-05	2.00459183075E-01	-1.37385668538E-01
7.69839679359E+10	-8.46275625786E-02	-1.31272179147E-01	-2.00329939059E-05	-2.02747046367E-05	5.04814546571E-05	-3.16408578758E-05	2.01629392388E-01	-1.37007616790E-01
7.69899799599E+10	-8.60247813627E-02	-1.28977582962E-01	1.04739454782E-04	2.62852424128E-05	6.11554345724E-05	-1.78104500296E-05	2.02771097886E-01	-1.35475103394E-01
7.69959919840E+10	-8.47315525921E-02	-1.27332570030E-01	1.23148140430E-05	4.17719959058E-06	3.80048670622E-05	-1.79948692470E-05	2.02143943791E-01	-1.40254576505E-01
7.70020040080E+10	-9.25405040937E-02	-1.23811677082E-01	5.50047508399E-05	3.14747526301E-05	-1.87695523843E-05	-2.62816186244E-05	2.02262301674E-01	-1.45190301141E-01
7.70080160321E+10	-9.88070735665E-02	-1.20623933740E-01	-1.97114607186E-05	1.60691933356E-05	-3.43090429678E-05	-2.32741042825E-05	2.04719638237E-01	-1.37282492940E-01
7.70140280561E+10	-9.78604147937E-02	-1.20482208736E-01	-1.05780337121E-04	-4.22634929080E-06	-2.83359825988E-05	1.29445790239E-06	2.04120374414E-01	-1.37945695397E-01
7.70200400802E+10	-1.02897435024E-01	-1.16097163827E-01	-2.07977614031E-05	1.79519503582E-05	-6.97239028925E-05	4.58863055917E-05	2.03799921166E-01	-1.40435182090E-01
7.70260521042E+10	-1.06214466641E-01	-1.10921621552E-01	-4.69540995865E-05	5.13957370562E-05	-8.15671100467E-05	2.84228965576E-06	2.01724026571E-01	-1.39768414239E-01
7.70320641283E+10	-1.07972057764E-01	-1.08666574040E-01	-6.69531824587E-05	5.95529821775E-05	-2.92627021880E-05	3.93453862535E-05	2.03074111090E-01	-1.37686431821E-01
7.70380761523E+10	-1.12548261825E-01	-1.05336921604E-01	3.56071384109E-05	-1.38751919180E-05	-1.06991674255E-06	4.28076126636E-06	2.03443537425E-01	-1.47844186655E-01
7.70440881764E+10	-1.11376759189E-01	-1.01904122359E-01	-2.26645127904E-05	-4.45521634616E-06	-2.83899300127E-05	2.84689675613E-05	2.02883945650E-01	-1.46609526796E-01
7.70501002004E+10	-1.15876468777E-01	-9.83940477406E-02	6.05382445659E-05	1.74701485586E-05	2.24041265784E-05	-1.43936230146E-05	2.01885774724E-01	-1.45768290057E-01
7.70561122244E+10	-1.21257489380E-01	-9.33685510156E-02	-2.92162904657E-05	3.14124578510E-06	4.24303607817E-05	8.42692673652E-06	2.03876616687E-01	-1.41278787062E-01
7.70621242485E+10	-1.18724281856E-01	-9.31009371672E-02	4.10481196975E-06	4.51594967141E-05	-2.23685085520E-05	2.89780430606E-05	2.02680285451E-01	-1.41481049046E-01
7.70681362725E+10	-1.23255479158E-01	-8.59781176034E-02	-6.27053697541E-06	1.68718319102E-05	4.27490145835E-06	4.93288610426E-05	2.06343213875E-01	-1.43493586493E-01
7.70741482966E+10	-1.23969762495E-01	-8.38497362390E-02	2.64912958746E-05	5.20159470853E-05	-3.97304133511E-05	4.20635156579E-06	2.06136605199E-01	-1.48360763592E-01
7.70801603206E+10	-1.24438693979E-01	-8.04859599640E-02	8.24240638996E-05	-7.58474496284E-05	4.21882817934E-05	-2.30840171335E-06	2.05822597555E-01	-1.47208629602E-01
7.70861723447E+10	-1.27588601646E-01	-7.53313148137E-02	2.44195328749E-05	-4.12447915313E-05	1.96367392435E-05	3.71157452642E-06	2.03552194977E-01	-1.52924601818E-01
7.70921843687E+10	-1.25929861705E-01	-7.48841695334E-02	-5.86603879418E-05	-5.89142570991E-05	-3.66884596468E-06	-5.23826630729E-05	2.05142658245E-01	-1.47172133151E-01
7.70981963928E+10	-1.30002392427E-01	-7.26686061932E-02	-3.45137233680E-05	-1.15743864763E-05	1.63833731480E-06	-6.29491191521E-05	2.05538727103E-01	-1.48452439397E-01
7.71042084168E+10	-1.32370899524E-01	-6.88158682610E-02	4.57592935213E-05	-3.56954180318E-05	-1.60533235979E-05	-6.92118817099E-06	2.05938239045E-01	-1.47405427339E-01
7.71102204409E+10	-1.35976743499E-01	-6.36294084301E-02	-7.56912134664E-05	4.20915369477E-05	-2.72073801429E-05	4.26232900739E-05	2.07966837366E-01	-1.44274978735E-01
7.71162324649E+10	-1.35064611375E-01	-5.95069498493E-02	-1.59065184747E-05	2.29458746237E-06	-9.21790132106E-05	1.25471904417E-05	2.03209311289E-01	-1.52933250547E-01
7.71222444890E+10	-1.36214426469E-01	-5.31472287561E-02	6.12096050114E-06	6.61989579286E-05	-2.85334187321E-05	4.11366313897E-05	2.06865014359E-01	-1.51907867997E-01
7.71282565130E+10	-1.37701098293E-01	-5.11734366600E-02	-8.74465153420E-05	-3.18700756060E-07	8.91138628186E-06	4.64000966527E-06	2.05507576650E-01	-1.49374733438E-01
7.71342685371E+10	-1.39082300775E-01	-4.76626048784E-02	-5.27783768274E-05	-1.41736755633E-05	2.14652861549E-05	3.42087893185E-05	2.03211887616E-01	-1.52856225606E-01
7.71402805611E+10	-1.44427856862E-01	-3.94847587866E-02	3.44665480035E-05	8.29260290764E-06	-9.91679367854E-06	-2.54995946635E-05	2.04103117550E-01	-1.57312922928E-01
7.71462925852E+10	-1.40095323884E-01	-3.69596078743E-02	5.20881897803E-05	4.85100725736E-06	2.77751692677E-05	-1.50932748796E-06	2.06179524738E-01	-1.57618313825E-01
7.71523046092E+10	-1.38242210511E-01	-4.09047491505E-02	4.48828099849E-05	-2.28063008520E-06	6.13131296973E-05	-2.50017156365E-05	2.05044230412E-01	-1.52201329622E-01
7.71583166333E+10	-1.41907408487E-01	-3.40196229371E-02	5.44102105305E-06	1.75658456615E-06	1.32791593510E-05	-3.60326565235E-05	2.08340648594E-01	-1.53531663074E-01
7.71643286573E+10	-1.42517497515E-01	-2.62134729154E-02	1.88018798032E-05	-1.04825277709E-04	3.04638864165E-05	-2.11176557460E-07	2.06550083881E-01	-1.61184963269E-01
7.71703406814E+10	-1.40685518928E-01	-2.59567460630E-02	4.22709693684E-05	6.34122287362E-05	-1.45762046812E-05	-2.51346850286E-05	2.03012881385E-01	-1.60355811176E-01
7.71763527054E+10	-1.41094411631E-01	-2.30537072252E-02	-4.12006720302E-05	-4.61272506705E-05	1.41815203992E-06	-2.83306076454E-05	2.08865503262E-01	-1.62918820848E-01
7.71823647295E+10	-1.40791774942E-01	-2.25324370290E-02	-7.35417109764E-05	-1.67376986677E-05	5.74413076537E-05	-2.69364900752E-05	2.09180782235E-01	-1.52967936695E-01
7.71883767535E+10	-1.41300935140E-01	-1.87838360649E-02	-4.28806842403E-06	-4.60119976044E-05	-4.04006852657E-05	-4.41800097850E-06	2.05942610249E-01	-1.58827141956E-01
7.71943887776E+10	-1.41827984473E-01	-1.35744343250E-02	-8.27488409033E-05	3.21790228975E-06	1.57696344893E-05	-5.73014989523E-06	2.05905974421E-01	-1.62063963354E-01
7.72004008016E+10	-1.41218526201E-01	-1.52879109592E-02	3.61228125646E-05	-4.06758781967E-05	5.46005674075E-05	3.07435008596E-05	2.05396570436E-01	-1.66231207404E-01
7.72064128257E+10	-1.43709085148E-01	-3.21723014727E-03	-8.96684607548E-05	2.31627601226E-05	8.99587355261E-07	-1.27487106307E-06	2.06265619071E-01	-1.62689585477E-01
7.72124248497E+10	-1.43913680325E-01	3.31247328550E-03	2.83507396326E-06	1.56255911774E-05	-7.30820005644E-06	3.71693886522E-05	2.06595945409E-01	-1.59667592726E-01
7.72184368737E+10	-1.45121295203E-01	1.03586081303E-02	5.84808218925E-05	9.97887069071E-05	-4.23358535035E-05	-1.09955108075E-06	2.06176039768E-01	-1.59377436650E-01
7.72244488978E+10	-1.44163674037E-01	1.11925709930E-02	5.81552055420E-05	2.55993528409E-05	4.89718220730E-05	-9.16187632838E-06	2.09737231845E-01	-1.66456082506E-01
7.72304609218E+10	-1.42728114298E-01	1.04458108947E-02	3.45769233213E-05	-7.50479867358E-05	-7.68211484943E-06	-2.94918873247E-05	2.08677250091E-01	-1.66549800161E-01
7.72364729459E+10	-1.42521471395E-01	1.25569295480E-02	-3.67013313017E-05	-3.24636542442E-05	4.77549412788E-05	1.44210049187E-05	2.07633093574E-01	-1.66126020978E-01
7.72424849699E+10	-1.42414855272E-01	1.94868275103E-02	-8.48184216555E-06	2.47813813953E-05	4.38178369923E-05	-6.24376369345E-05	2.10969141792E-01	-1.68535049165E-01
7.72484969940E+10	-1.40710029355E-01	2.64395542711E-02	-2.35211293531E-05	-6.91265683201E-05	-4.85928524007E-05	-1.17816475668E-05	2.10006864587E-01	-1.65114364231E-01
7.72545090180E+10	-1.39670513073E-01	3.03200049253E-02	-4.98098928097E-06	-7.01872908003E-06	-3.49710813009E-05	8.13663474763E-06	2.08580972936E-01	-1.71004988099E-01
7.72605210421E+10	-1.37753244706E-01	3.23835986490E-02	-2.49011951115E-05	5.32053835193E-05	3.10607724273E-06	1.58458182481E-05	2.06410154717E-01	-1.72758316188E-01
7.72665330661E+10	-1.38320962383E-01	3.39847570101E-02	3.34867452982E-05	4.82831321689E-05	-1.03322249446E-05	-6.80380538392E-06	2.08486820727E-01	-1.76470083663E-01
7.72725450902E+10	-1.37752646969E-01	3.23383177127E-02	2.56431674966E-05	-8.77374407615E-06	2.32672559314E-05	9.01601174274E-06	2.10065937689E-01	-1.73583446233E-01
7.72785571142E+10	-1.37501256589E-01	4.03258214985E-02	4.34553504923E-05	5.89830061387E-05	3.64411512409E-05	6.63311334293E-05	2.10788257254E-01	-1.70305874562E-01
7.72845691383E+10	-1.34695259941E-01	4.61429456111E-02	1.28458038545E-05	5.50068587733E-05	1.99322801479E-05	-5.34304204895E-06	2.09487370053E-01	-1.69308884701E-01
7.72905811623E+10	-1.33661165373E-01	4.92117317666E-02	2.96634360466E-05	4.40397296834E-05	1.46927050817E-05	-6.10250896145E-06	2.08169316991E-01	-1.79983484614E-01
7.72965931864E+10	-1.32710616458E-01	5.18788806157E-02	8.27338057070E-05	-1.44513686497E-06	2.08682794989E-05	-2.44557248909E-05	2.06817269287E-01	-1.79115647227E-01
7.73026052104E+10	-1.32112874537E-01	5.35283915817E-02	1.13081452958E-04	3.48001077827E-05	-1.60251913526E-05	-1.64983228220E-05	2.07698159426E-01	-1.79056841718E-01
7.73086172345E+10	-1.30728028794E-01	5.68171274565E-02	-2.30804528567E-05	-6.08687608461E-05	2.36654641286E-05	-7.03740393464E-05	2.11754612350E-01	-1.71752553434E-01
7.73146292585E+10	-1.30965865411E-01	5.48443785135E-02	-2.84896560775E-05	-3.22837099606E-05	-4.62018592563E-06	-4.53321628548E-05	2.11242079375E-01	-1.74816147519E-01
7.73206412826E+10	-1.29080458780E-01	6.20192919909E-02	-3.76516365306E-05	-1.84172555456E-05	2.04832268522E-06	-2.52869399736E-06	2.08543863970E-01	-1.83566088240E-01
7.73266533066E+10	-1.24268152211E-01	6.94564256185E-02	9.91198714810E-05	-4.27419476964E-05	-2.21085026104E-05	1.83129070918E-07	2.09607798748E-01	-1.81605523153E-01
7.73326653307E+10	-1.22203249083E-01	7.51422058859E-02	-6.69656357246E-05	-4.73937155720E-05	1.88239238381E-06	1.76773768100E-06	2.12662127328E-01	-1.75125053751E-01
7.73386773547E+10	-1.20259488476E-01	7.75258266066E-02	-1.94784893841E-06	2.17615059656E-05	5.94702903700E-06	-8.02348690216E-06	2.09505719246E-01	-1.76999379781E-01
7.73446893788E+10	-1.18164183016E-01	7.91840425428E-02	3.67021501428E-05	-3.07992417603E-05	-6.74695944774E-06	4.47241248684E-05	2.07393417879E-01	-1.81177999532E-01
7.73507014028E+10	-1.17905506391E-01	7.89435588514E-02	-1.64264521513E-05	1.90335281017E-06	-1.80972419560E-06	1.07539063562E-05	2.10483722325E-01	-1.90481881302E-01
7.73567134269E+10	-1.15751810223E-01	8.10276279901E-02	2.64083894240E-06	1.00149592926E-05	-3.38077699151E-05	-4.18186800753E-05	2.09750595479E-01	-1.85152857421E-01
7.73627254509E+10	-1.13837102287E-01	8.28228856656E-02	-2.62054325155E-05	-5.29009689974E-05	3.47425300379E-05	-2.06020366848E-05	2.09742786841E-01	-1.87543589387E-01
7.73687374749E+10	-1.11337393936E-01	9.06979016157E-02	2.14326697066E-05	-5.60161429800E-05	1.05707617027E-05	8.64183550984E-07	2.10658631769E-01	-1.89897114233E-01
7.73747494990E+10	-1.09479031172E-01	9.25600653836E-02	-6.85657144121E-05	-2.13023980926E-05	-7.22037341232E-06	-1.30176565808E-05	2.09900167051E-01	-1.89758721969E-01
7.73807615230E+10	-1.05225758619E-01	9.59866008425E-02	-3.27695261262E-05	4.06959101596E-05	-2.55042912477E-05	-2.80619055871E-07	2.10283720691E-01	-1.94004722697E-01
7.73867735471E+10	-1.05598129808E-01	9.77593615872E-02	4.52476839571E-05	-3.09217460183E-05	-8.35483816291E-06	-1.19149487748E-05	2.07673652075E-01	-1.96232650090E-01
7.73927855711E+10	-1.03757653357E-01	9.92836899049E-02	-1.32283708622E-05	-1.55674863295E-05	-2.30889391753E-05	-3.89401549744E-05	2.05895061258E-01	-1.94734439782E-01
7.73987975952E+10	-1.01437856616E-01	9.94885648741E-02	-2.57363389664E-05	-2.87923942326E-05	2.06827729485E-05	8.03117210566E-06	2.06120834796E-01	-1.96792531897E-01
7.74048096192E+10	-1.01795967001E-01	9.96911029258E-02	-1.62167546415E-05	-7.98230353134E-05	-7.44372042418E-06	1.99629529449E-05	2.10374910500E-01	-1.90544797688E-01
7.74108216433E+10	-9.72666590986E-02	1.04569281474E-01	5.20814602298E-05	-3.30454380921E-05	-1.99837484624E-05	-1.64270457083E-05	2.08724633209E-01	-1.99931912784E-01
7.74168336673E+10	-9.57108223916E-02	1.05454099912E-01	5.21639311441E-06	7.32260389154E-05	-1.56903353354E-05	5.63301933470E-05	2.10688359665E-01	-1.96144714605E-01
7.74228456914E+10	-9.12480562534E-02	1.13034423585E-01	5.60463132887E-05	8.92238507058E-05	-3.61255861904E-05	1.64999894462E-05	2.08440479958E-01	-1.98999866393E-01
7.74288577154E+10	-8.76612418546E-02	1.14437238673E-01	-2.62024131983E-05	2.69046459084E-05	3.69186042916E-05	4.98807258629E-05	2.05581032348E-01	-2.03575947798E-01
7.74348697395E+10	-8.51418257554E-02	1.15987845029E-01	-3.53767840592E-05	-2.80524003483E-05	4.44563749997E-05	1.00394513142E-05	2.07477203025E-01	-2.07428219554E-01
7.74408817635E+10	-8.22784057374E-02	1.18903334132E-01	-2.96991316695E-05	-3.13423179535E-05	-1.02677800350E-05	7.05015308463E-06	2.09533156980E-01	-2.01325449968E-01
7.74468937876E+10	-7.78206880118E-02	1.21395423771E-01	-6.81244042191E-05	1.29269960440E-05	1.19461981749E-05	-1.06235202969E-05	2.11139973350E-01	-1.98637617996E-01
7.74529058116E+10	-8.09873673987E-02	1.17006582795E-01	6.72837905873E-05	3.64305167900E-05	-2.51125040863E-05	1.99024949378E-05	2.10594683802E-01	-2.03208342667E-01
7.74589178357E+10	-7.34500586954E-02	1.24525524916E-01	8.49972593597E-07	2.07282316032E-05	1.87891429752E-05	1.37481651490E-05	2.08840936963E-01	-2.07129414123E-01
7.74649298597E+10	-7.17162540686E-02	1.27730284015E-01	2.38237261869E-05	1.87263221749E-05	-1.23862038953E-05	-2.10105826027E-05	2.07332939094E-01	-2.13415058836E-01
7.74709418838E+10	-6.85869030228E-02	1.29954765805E-01	1.04940146919E-04	3.99399343816E-05	-1.73565383938E-05	-2.46855656561E-05	2.04774311836E-01	-2.11519128537E-01
7.74769539078E+10	-6.69593289497E-02	1.32452938203E-01	-2.52063581487E-05	8.02019446034E-06	1.91262391049E-05	-9.76963761857E-06	2.09257919520E-01	-2.06254424595E-01
7.74829659319E+10	-6.74080069645E-02	1.30578222677E-01	-1.29657744209E-05	5.52659545953E-05	-9.55274313166E-06	1.04292465290E-05	2.09596973707E-01	-2.15969560082E-01
7.74889779559E+10	-6.38321096995E-02	1.33171274165E-01	4.58285389257E-06	-1.08028055784E-05	-2.31183325098E-05	5.29081728759E-06	2.08487058140E-01	-2.17205812378E-01
7.74949899800E+10	-5.82028296815E-02	1.34926459011E-01	-1.14140409798E-05	-1.81883255174E-06	-1.33299045007E-06	-5.20013267846E-05	2.03783560321E-01	-2.16538678470E-01
7.75010020040E+10	-5.27502169956E-02	1.39136856106E-01	5.75459738305E-05	2.56461787838E-05	-1.05454842055E-05	-2.49469197439E-05	2.06406271890E-01	-2.15384545234E-01
7.75070140281E+10	-4.91698017992E-02	1.43425004889E-01	-1.13123398584E-05	3.41886661308E-05	6.54826115196E-05	-3.02340789998E-05	2.07479720927E-01	-2.14453962260E-01
7.75130260521E+10	-4.57955559002E-02	1.42732352089E-01	3.77098116665E-06	-5.40550056612E-06	3.08538975593E-05	-5.61610354319E-05	2.03601950345E-01	-2.22285559668E-01
7.75190380762E+10	-4.46508907101E-02	1.40709668322E-01	-1.57202158699E-05	-1.18928563936E-04	5.12903653003E-06	-6.35865815989E-06	2.03146568713E-01	-2.26771481903E-01
7.75250501002E+10	-4.25553576124E-02	1.44817603703E-01	-1.83084553168E-05	-3.34909613383E-05	-4.93869754148E-05	1.26714623382E-05	2.06790839081E-01	-2.16238604492E-01
7.75310621242E+10	-4.02184481198E-02	1.45652266563E-01	-4.59015559298E-05	2.28377805010E-05	1.51137827252E-05	4.24743688029E-05	2.07271925496E-01	-2.23424228116E-01
7.75370741483E+10	-3.36919987337E-02	1.47700978367E-01	-9.35738524642E-06	1.03908106779E-05	4.07588006196E-05	2.51962096204E-05	2.10309840629E-01	-2.23053813788E-01
7.75430861723E+10	-3.06931109503E-02	1.49987265631E-01	2.77234226218E-05	1.65859000676E-05	2.46458330680E-05	-4.71712393723E-05	2.04651692312E-01	-2.25844365114E-01
7.75490981964E+10	-2.62435652867E-02	1.52411438460E-01	4.64748184378E-05	-1.37859527157E-05	9.26036445506E-06	5.14048290991E-07	2.07973682447E-01	-2.24833515410E-01
7.75551102204E+10	-2.74419061165E-02	1.51865119992E-01	-3.94536620206E-05	-7.33415419920E-05	1.83154402652E-05	-6.92176134058E-05	2.02264172990E-01	-2.33089225123E-01
7.75611222445E+10	-2.38955697753E-02	1.53510964026E-01	-4.02182262314E-05	4.41758080267E-06	-3.50459886900E-05	-6.61828438893E-06	2.05578861818E-01	-2.28431741817E-01
7.75671342685E+10	-2.01228992984E-02	1.55316393286E-01	-3.31199128376E-05	-6.35147802372E-05	-1.21415549914E-05	-3.15427839429E-05	2.04113455400E-01	-2.33135510238E-01
7.75731462926E+10	-1.45811021977E-02	1.53741317757E-01	-6.69363783207E-05	-1.39812240913E-05	-2.85794045201E-05	-1.15005612776E-05	2.03331950146E-01	-2.35879798450E-01
7.75791583166E+10	-1.03382259624E-02	1.56080669182E-01	2.44160857387E-05	-4.72037369124E-06	-2.00177283860E-05	-3.56604116095E-05	2.01428602726E-01	-2.40844043491E-01
7.75851703407E+10	-4.39443496013E-03	1.58238333597E-01	3.60453135333E-05	7.86118405110E-05	-2.04966012539E-05	1.87985119704E-05	2.02132020403E-01	-2.37701904213E-01
7.75911823647E+10	1.56778203571E-03	1.60204944227E-01	-2.33309065707E-05	-3.39741914225E-05	-1.64527733430E-05	-1.02180378993E-05	2.01547400072E-01	-2.33346819756E-01
7.75971943888E+10	3.88524772803E-03	1.59727893367E-01	2.39880600039E-06	-3.63221895964E-05	1.43770542188E-05	-4.68368474606E-05	2.02295431215E-01	-2.40169808711E-01
7.76032064128E+10	3.46580135264E-04	1.58562620550E-01	-2.03893080101E-06	-3.74854240624E-05	-2.59978823698E-05	-2.28891676133E-05	2.00232279690E-01	-2.46456753726E-01
7.76092184369E+10	8.14870444328E-03	1.60916133523E-01	-2.59385287532E-05	3.26127293099E-05	5.81568573451E-06	-4.56001286675E-05	2.01312523639E-01	-2.40876839421E-01
7.76152304609E+10	1.36297153997E-02	1.62719322394E-01	-2.68773729698E-05	4.86675401532E-05	-1.42669240001E-05	2.50827265793E-05	1.98626783704E-01	-2.46252098102E-01
7.76212424850E+10	1.85996342644E-02	1.59842582579E-01	3.98377201255E-05	1.28697183259E-05	4.61287625732E-06	-2.95526893497E-05	1.98257674994E-01	-2.49973667942E-01
7.76272545090E+10	2.30960541144E-02	1.61831178069E-01	-5.04517192579E-06	-4.59054945803E-06	1.16926170123E-06	-8.40578213352E-06	2.03347677611E-01	-2.43789066097E-01
7.76332665331E+10	2.96836041619E-02	1.62616984389E-01	-1.06380146819E-05	4.13552235619E-05	-7.18633646814E-06	2.12005097605E-05	1.99035048334E-01	-2.50299590085E-01
7.76392785571E+10	2.98648887365E-02	1.62247762389E-01	-1.20986566521E-05	8.19051814207E-06	-2.63198528461E-06	3.75175728723E-05	1.99110780442E-01	-2.45413899902E-01
7.76452905812E+10	3.27382438750E-02	1.62063311485E-01	-2.86471388138E-05	7.99595000052E-07	1.06887832745E-06	-8.00208474494E-06	1.96149772267E-01	-2.53195407352E-01
7.76513026052E+10	4.56341218911E-02	1.59565398014E-01	-6.13591654075E-05	3.52477233550E-05	4.58610944958E-06	-2.79708013898E-05	1.97590746596E-01	-2.53510893811E-01
7.76573146293E+10	4.96040155500E-02	1.62464746021E-01	-6.41507854838E-05	2.03637619818E-05	-4.32941339276E-05	3.61062777600E-05	1.95329459397E-01	-2.55269464885E-01
7.76633266533E+10	4.70060615593E-02	1.61824309227E-01	6.62518508347E-06	4.31744789988E-05	1.46508784246E-05	4.41190667487E-05	1.93940620453E-01	-2.60782399443E-01
7.76693386774E+10	5.31695729287E-02	1.60742886738E-01	1.32203212403E-05	1.02109054250E-04	-3.15051348285E-05	4.39306292249E-05	1.94350980082E-01	-2.62326584830E-01
7.76753507014E+10	6.12144196130E-02	1.57864057724E-01	-2.24229332629E-05	7.43295323959E-05	-3.85611969790E-06	4.06748817861E-05	1.91681422035E-01	-2.58697463601E-01
7.76813627255E+10	5.92208456378E-02	1.58521798741E-01	5.88782155062E-05	1.92115622902E-05	4.59431910962E-05	5.21723935615E-05	1.92481243319E-01	-2.56892180409E-01
7.76873747495E+10	7.37452184977E-02	1.57072438059E-01	4.33892966061E-05	2.61136480583E-05	6.48561862519E-06	-9.60672352809E-06	1.95255328462E-01	-2.61444686144E-01
7.76933867735E+10	7.62694293511E-02	1.51903427501E-01	4.68462343110E-05	-2.87900287645E-05	2.19652243483E-05	1.38602581472E-05	1.89978834059E-01	-2.67149381462E-01
7.76993987976E+10	7.79266767464E-02	1.54518709609E-01	5.25070681092E-06	-2.89220374215E-07	2.06604806109E-05	-3.17286691211E-05	1.90665721922E-01	-2.63471337158E-01
7.77054108216E+10	7.78414673951E-02	1.52940722341E-01	-2.60907763176E-05	-2.06738506772E-05	3.01745229661E-05	2.71406312393E-05	1.89556528621E-01	-2.63992871751E-01
7.77114228457E+10	9.07538344731E-02	1.48685745009E-01	7.25259089357E-05	-9.27834298157E-06	-1.02199836517E-05	2.15471706915E-06	1.89850351646E-01	-2.64312315702E-01
7.77174348697E+10	8.84229648880E-02	1.46839463020E-01	-1.60980299479E-05	4.56893771402E-05	-9.83654490471E-07	4.78707108704E-05	1.87962170193E-01	-2.75405751952E-01
7.77234468938E+10	9.15730452343E-02	1.44799920569E-01	-1.06736210797E-05	8.94430727438E-06	4.37227127530E-05	2.89708346536E-05	1.90389005909E-01	-2.69671396778E-01
7.77294589178E+10	1.02732178498E-01	1.41317775641E-01	5.26657052228E-05	-3.28665539118E-05	2.18184803281E-05	4.95214033781E-05	1.88107572047E-01	-2.71330480948E-01
7.77354709419E+10	1.06074678698E-01	1.35934276844E-01	2.94549876127E-05	-1.12408353732E-05	4.73501161856E-06	2.32971704493E-05	1.81967763773E-01	-2.74974312137E-01
7.77414829659E+10	9.78208065435E-02	1.41975039152E-01	2.56853424076E-05	-1.07676502169E-05	1.51485390936E-05	-4.05263463535E-06	1.82496881717E-01	-2.75061272085E-01
7.77474949900E+10	1.12052112027E-01	1.32241804209E-01	7.29095191974E-05	-4.45938330043E-07	1.91114487876E-05	-4.09410796542E-05	1.86308768519E-01	-2.76223288177E-01
7.77535070140E+10	1.17383601933E-01	1.28315815536E-01	1.06211155576E-04	-1.95667341123E-05	5.22331550754E-05	1.43968589435E-05	1.81929695885E-01	-2.80383078805E-01
7.77595190381E+10	1.20899806311E-01	1.24741294952E-01	-3.11154456919E-05	-2.23390834547E-05	2.25319562369E-05	-4.57369281559E-05	1.82557906723E-01	-2.76975236722E-01
7.77655310621E+10	1.21799472236E-01	1.21765843854E-01	-2.01706703405E-05	2.72856004543E-06	3.06436079077E-05	-1.74671482429E-05	1.79257907098E-01	-2.80367109767E-01
7.77715430862E+10	1.20687351592E-01	1.24239049264E-01	-7.30378656160E-06	-3.92674971698E-06	1.40189987362E-05	-2.68461543584E-05	1.75630933951E-01	-2.83103891997E-01
7.77775551102E+10	1.24202008678E-01	1.23094430363E-01	3.78076771386E-06	-6.59463131503E-05	1.15661861231E-05	-6.91855717905E-05	1.74907775386E-01	-2.85960959837E-01
7.77835671343E+10	1.32530088457E-01	1.13332786033E-01	-1.81562025823E-05	-7.47842105950E-05	2.71435085252E-05	-3.00464278670E-06	1.75729683715E-01	-2.91995429843E-01
7.77895791583E+10	1.33122094653E-01	1.10657329431E-01	-3.30835627248E-05	-2.61291076571E-05	4.27481129450E-06	2.25262768149E-06	1.79155756073E-01	-2.87083752407E-01
7.77955911824E+10	1.39648356468E-01	1.04250767784E-01	-1.24501713546E-05	1.82193738735E-05	5.23400272105E-05	-2.91507289423E-05	1.73676452835E-01	-2.86067619157E-01
7.78016032064E+10	1.37752418572E-01	1.02801344390E-01	-6.63241066551E-05	1.52810523661E-05	-4.88550870007E-05	-3.02711953284E-05	1.71718125202E-01	-2.90540581753E-01
7.78076152305E+10	1.38329258581E-01	1.01889477732E-01	1.35814583615E-05	2.15554956352E-05	-3.63450562687E-05	-1.93797115747E-06	1.75545415852E-01	-2.88491109905E-01
7.78136272545E+10	1.46174422760E-01	9.30795709320E-02	-5.64965265932E-06	6.81736590537E-05	-1.47962360458E-05	8.41209001124E-06	1.72950885954E-01	-2.97928476946E-01
7.78196392786E+10	1.45618667519E-01	9.34511452614E-02	-1.27161790145E-07	-8.10101198931E-05	3.01022576801E-06	-1.76068500413E-05	1.69120177915E-01	-2.96026675180E-01
7.78256513026E+10	1.46777316944E-01	9.20944197591E-02	2.27821836796E-05	5.02024274691E-05	-5.09973667917E-06	-1.04205196333E-05	1.67269552193E-01	-2.94150581090E-01
7.78316633267E+10	1.50514282720E-01	8.17618988722E-02	-1.56003506760E-05	-1.04920109375E-04	1.97918301515E-05	-2.24944461667E-05	1.65754773072E-01	-3.00729464252E-01
7.78376753507E+10	1.52646210348E-01	8.02966497759E-02	-7.45819948146E-06	3.50862199263E-05	-2.51697129873E-05	2.09557104800E-05	1.67988981890E-01	-2.99443887586E-01
7.78436873747E+10	1.52718186966E-01	7.88588440356E-02	1.11554996406E-05	-5.17522904075E-05	-2.06107831892E-05	-1.05643476707E-06	1.67486609162E-01	-3.01048418198E-01
7.78496993988E+10	1.55530175530E-01	7.48173980562E-02	9.92169144939E-06	-5.75245804509E-05	-2.43649092691E-05	-3.09121670711E-05	1.68157816643E-01	-3.00132028759E-01
7.78557114228E+10	1.55822161188E-01	6.58279172315E-02	-1.83331973367E-05	-1.42173423139E-05	-1.24819214865E-05	5.48495238124E-06	1.64754982092E-01	-3.00517343668E-01
7.78617234469E+10	1.58206662635E-01	6.25095640927E-02	3.86286428482E-05	4.85226762548E-05	-1.61102897969E-05	3.37150452793E-05	1.62290541474E-01	-3.07017369015E-01
7.78677354709E+10	1.58451710540E-01	6.01886273667E-02	-1.72613410182E-05	2.84620248721E-05	-1.59498663153E-05	1.70893211577E-05	1.58850139935E-01	-3.07143260376E-01
7.78737474950E+10	1.58144636237E-01	6.43959974041E-02	1.94740304494E-05	-1.60374161182E-05	4.31719977965E-05	1.40878313179E-05	1.56900893145E-01	-3.09054630060E-01
7.78797595190E+10	1.60600713718E-01	5.55956922189E-02	1.36629603127E-06	3.91967980165E-05	2.59220564879E-05	2.51563520032E-05	1.59596599004E-01	-3.03778200499E-01
7.78857715431E+10	1.61404696450E-01	4.68165001394E-02	5.09905565136E-06	4.30170934525E-05	-7.03569504921E-06	6.21332686844E-06	1.54517831968E-01	-3.10115161846E-01
7.78917835671E+10	1.63074658125E-01	4.81845144878E-02	2.04019002981E-05	5.05726427327E-05	-1.11831788573E-05	-5.70405039798E-06	1.53385227134E-01	-3.12388074953E-01
7.78977955912E+10	1.64037382848E-01	3.91526326861E-02	1.62959127366E-05	-3.99717022014E-05	1.48724597894E-05	3.40441088037E-05	1.57197797700E-01	-3.13999977162E-01
7.79038076152E+10	1.64016859978E-01	3.39419367957E-02	4.56430700938E-06	9.17031643349E-06	-7.36440167624E-06	2.68872916263E-05	1.52893453344E-01	-3.16708749736E-01
7.79098196393E+10	1.63192148931E-01	4.06852537139E-02	-8.21854584357E-07	1.18179539237E-05	-5.31987890804E-06	1.87116850406E-06	1.45931896174E-01	-3.17017698710E-01
7.79158316633E+10	1.63440710400E-01	3.34265794579E-02	3.26173431791E-06	1.17895249329E-05	7.72276210439E-06	-6.49078207232E-06	1.47300028628E-01	-3.19542065109E-01
7.79218436874E+10	1.65256605316E-01	2.47828921192E-02	1.49227312098E-05	-1.10389823506E-05	6.51013141583E-06	4.13146314459E-05	1.48376031447E-01	-3.21026626602E-01
7.79278557114E+10	1.64773378076E-01	2.09120387572E-02	-3.34413935879E-06	-2.69344407676E-05	6.13151621030E-05	-7.22679041837E-06	1.51646896068E-01	-3.20280020055E-01
7.79338677355E+10	1.68685210400E-01	1.83241741500E-02	2.24406015786E-07	-2.24921653592E-05	-1.06715853114E-05	3.44257218046E-05	1.41995196842E-01	-3.23438825580E-01
7.79398797595E+10	1.64907193327E-01	2.08030388629E-02	1.47360026850E-05	-8.09345850520E-06	5.57925428998E-05	-1.41913011934E-05	1.42194375365E-01	-3.23619618103E-01
7.79458917836E+10	1.64524566479E-01	1.84943844386E-02	-6.48458792627E-05	4.32118518933E-05	-7.68995105070E-06	-4.23586706633E-05	1.40785987237E-01	-3.24099207368E-01
7.79519038076E+10	1.63176398417E-01	1.17724229732E-02	-2.61067446588E-05	-6.98651788083E-06	-2.97456128266E-05	1.58422831142E-05	1.39327070566E-01	-3.23070610511E-01
7.79579158317E+10	1.66348568847E-01	6.04540876316E-03	1.50646900435E-05	3.81234745483E-05	-1.80183869175E-05	1.85197398105E-05	1.40543762353E-01	-3.27554270579E-01
7.79639278557E+10	1.67051736944E-01	8.71488776150E-03	-2.27542454933E-06	-4.35341141528E-05	2.37115365066E-05	-1.96480642752E-05	1.36325588325E-01	-3.31189580782E-01
7.79699398798E+10	1.64028802087E-01	-1.13705616720E-03	-4.42230949614E-05	1.09163212324E-05	-2.98189262415E-05	8.90760044448E-06	1.31776158909E-01	-3.32495148474E-01
7.79759519038E+10	1.63120839872E-01	-3.66847964310E-03	2.90074097052E-06	-1.72077252869E-06	-1.19457939869E-05	-7.47793321422E-06	1.30835575278E-01	-3.35520734260E-01
7.79819639279E+10	1.65318072042E-01	-9.09324869482E-03	-1.10423006919E-05	-4.08838820277E-05	1.95909312129E-05	6.28428124461E-06	1.35910196679E-01	-3.31018174202E-01
7.79879759519E+10	1.63491076819E-01	-3.07173858519E-03	1.26686513620E-05	-1.89779156357E-05	-5.71411659810E-05	-2.51302599919E-05	1.30501661540E-01	-3.35626940124E-01
7.79939879760E+10	1.64890965434E-01	-1.43177866147E-02	-9.89710778517E-06	1.35363650612E-05	-9.64875742761E-06	6.03568410571E-06	1.25983443770E-01	-3.35974485382E-01
7.80000000000E+10	1.62664120335E-01	-2.01463239156E-02	-1.69869480034E-05	2.81802993771E-05	4.54113534550E-05	1.25913729112E-05	1.23393454584E-01	-3.37879262005E-01
