# Hz S MA R 50
! CMT, C4420, 21421029, 25.1.2/3
! Date: 8/7/2025 5:55:13 PM
! Data: Format (Calibration Info)
! Freq	S33:Mag/Ang(F2)	S43:Mag/Ang(F2)	S34:Mag/Ang(F2)	S44:Mag/Ang(F2)
7.50000000000E+10	1.98590525834E-01	-1.33676862576E+01	5.55586559984E-05	-3.18492705540E+01	1.00650309681E-04	-3.93837208111E+01	8.22355914257E-02	-7.69386091640E+01
7.50060120240E+10	1.99182221376E-01	-1.37159181140E+01	4.56681009484E-05	-6.45964188909E+01	4.02566879333E-05	-1.58785407724E+02	8.10593410959E-02	-7.72832908730E+01
7.50120240481E+10	2.01834829614E-01	-1.45295605588E+01	6.89953211344E-05	-8.28216715252E+01	8.80936950080E-05	-1.05393620086E+02	8.07052233412E-02	-7.96142673515E+01
7.50180360721E+10	1.99537885630E-01	-1.40805079223E+01	1.01634045148E-04	-6.17143340922E+01	1.15297280006E-04	-1.17434042820E+02	7.99944359208E-02	-8.08133601055E+01
7.50240480962E+10	2.00652917263E-01	-1.63483662869E+01	4.19665872474E-05	-1.50281424635E+02	1.30687105391E-04	-1.45898852246E+02	7.88406334641E-02	-8.06567537918E+01
7.50300601202E+10	1.99372157957E-01	-1.54804609280E+01	3.45765796554E-05	1.26054644565E+02	1.23472858619E-04	1.55940207668E+02	7.73141312070E-02	-8.07252544042E+01
7.50360721443E+10	2.00510440506E-01	-1.55853298809E+01	1.53592440475E-04	-1.65194926896E+02	1.08723469898E-04	1.70726598822E+02	7.53074581378E-02	-8.09312712426E+01
7.50420841683E+10	2.00018685417E-01	-1.57426216331E+01	9.18550058207E-05	-1.47111680649E+02	8.11020887268E-05	1.49665426607E+02	7.58064957007E-02	-8.17351984806E+01
7.50480961924E+10	1.98428183755E-01	-1.69398519457E+01	5.16716713330E-05	1.15783446171E+02	6.07747856550E-05	1.36562343274E+02	7.37507922801E-02	-8.38756821991E+01
7.50541082164E+10	1.95763644989E-01	-1.50170109323E+01	4.46393195176E-05	1.75743142750E+02	1.10858064274E-04	1.33866918730E+02	7.11157419611E-02	-8.25249591380E+01
7.50601202405E+10	1.99393893967E-01	-1.49416582362E+01	4.18542940225E-05	1.41880616852E+02	3.87641057473E-05	7.01299230592E+01	7.12933009284E-02	-8.41022178755E+01
7.50661322645E+10	2.02442573372E-01	-1.72300182840E+01	3.95800809325E-05	7.12175181182E+01	4.15207197230E-05	-1.45721462530E+02	7.10155129028E-02	-8.55311597008E+01
7.50721442886E+10	1.98778348207E-01	-1.65347270134E+01	7.02502619950E-05	1.64053109270E+02	5.83424523286E-05	1.72828667687E+02	7.04086076224E-02	-8.56121252646E+01
7.50781563126E+10	1.99754707522E-01	-1.80815410175E+01	7.88557694559E-05	-7.91170946859E+01	8.42571764919E-05	-8.41167379793E+01	6.76638738137E-02	-8.46232758060E+01
7.50841683367E+10	1.96228645835E-01	-1.67574420930E+01	5.16736986369E-05	1.68714083863E+02	7.24566231676E-05	1.72391045809E+02	6.79091891289E-02	-8.64146665138E+01
7.50901803607E+10	1.98155104145E-01	-1.66358761504E+01	3.00806984602E-05	1.62313978550E+02	1.35091534803E-04	1.72813327724E+02	6.91359577084E-02	-8.76094526380E+01
7.50961923848E+10	1.98941258446E-01	-1.63707238975E+01	1.32709565584E-05	2.68975626830E+01	1.28655007881E-04	-1.67586404707E+02	6.72381247001E-02	-8.99233083502E+01
7.51022044088E+10	1.96538479138E-01	-1.72089336661E+01	1.23275014823E-04	-1.71364325095E+02	4.23428178713E-05	-1.73783373401E+02	6.43393156761E-02	-8.84498619917E+01
7.51082164329E+10	1.93646237712E-01	-1.56685037386E+01	9.36897869234E-05	1.35611019561E+02	9.48436096908E-05	1.01377989427E+02	6.22711707104E-02	-8.87705293336E+01
7.51142284569E+10	1.93848263505E-01	-1.64196985407E+01	1.05432799473E-04	1.46769995590E+02	5.12657059730E-05	1.29397267277E+02	6.29839383472E-02	-9.16767488721E+01
7.51202404810E+10	1.98133166044E-01	-1.94220659603E+01	8.45947052980E-05	1.18391588888E+02	1.17014650785E-04	6.99753114248E+01	6.40953548813E-02	-9.22003232783E+01
7.51262525050E+10	1.94810003349E-01	-1.78363481863E+01	1.37075870103E-05	1.58720737472E+02	1.07900078043E-04	9.74361040307E+01	6.10269149990E-02	-9.30824111502E+01
7.51322645291E+10	1.95728604903E-01	-1.76951945724E+01	7.62407315557E-05	9.57044535851E+01	4.72511336271E-05	5.86075311117E+01	5.93163504355E-02	-9.10339113949E+01
7.51382765531E+10	1.95058276886E-01	-1.73741538807E+01	6.66655956017E-05	5.09649687836E+01	5.70458271378E-05	5.38285392285E+01	5.88660701483E-02	-9.41141345139E+01
7.51442885772E+10	1.93311065618E-01	-1.62510118133E+01	9.86631711980E-05	4.83732205239E+01	6.65553625150E-05	7.77916934317E+01	5.90897608229E-02	-9.41254652197E+01
7.51503006012E+10	1.93736666821E-01	-1.75546186465E+01	3.22076292545E-05	-9.73294476975E+01	1.42357783017E-05	-1.00254815923E+02	5.79544902965E-02	-9.57269239162E+01
7.51563126253E+10	1.92401793675E-01	-1.83636156647E+01	7.54283728428E-05	-1.63514156413E+02	8.94012819141E-05	5.51576698973E+01	5.69186527345E-02	-9.51583411569E+01
7.51623246493E+10	1.97411196420E-01	-2.03661246152E+01	6.46861922351E-05	6.28955543139E+01	8.78345653602E-05	7.94787578455E+01	5.52280872111E-02	-9.54227799874E+01
7.51683366733E+10	1.93125409126E-01	-1.91586464302E+01	1.78064918730E-05	1.33502758262E+02	5.85534846875E-05	-2.31687958524E+01	5.38219886427E-02	-9.68039216800E+01
7.51743486974E+10	1.97716172924E-01	-2.10331083880E+01	5.88823127308E-05	-1.92604352475E+01	4.19048734298E-05	1.64234180495E+02	5.40248594150E-02	-9.79163915476E+01
7.51803607214E+10	1.95470213951E-01	-2.03526714576E+01	4.28861950833E-05	3.67706651156E+01	1.33403124763E-05	1.59844968720E+02	5.27792208712E-02	-9.88587068422E+01
7.51863727455E+10	1.96276232256E-01	-2.04946273211E+01	3.80368191157E-05	1.45271598561E+01	3.47590814446E-05	-6.15647448021E+01	5.19242066379E-02	-9.92145086319E+01
7.51923847695E+10	1.92323130517E-01	-2.01287236360E+01	1.06378426878E-04	9.73951500115E+01	6.50716310925E-05	8.67193309397E+01	4.96984851425E-02	-1.00206734158E+02
7.51983967936E+10	1.92447320965E-01	-1.90810734743E+01	8.50755840609E-05	7.29582289901E+01	6.22874795482E-05	3.74149628845E+01	5.02761539879E-02	-1.00951060081E+02
7.52044088176E+10	1.95800042113E-01	-1.96750587295E+01	7.84374473422E-05	2.69528182963E+00	1.06697704019E-04	4.10036294743E+01	4.93415205365E-02	-1.01770422696E+02
7.52104208417E+10	1.94765110715E-01	-2.10652248278E+01	7.80526175941E-05	2.81119296870E+01	2.79322474657E-05	2.66799578772E+01	4.68474338372E-02	-1.01963159206E+02
7.52164328657E+10	1.95879470563E-01	-2.19608951803E+01	1.01139110810E-04	2.42667920309E+00	6.14079054991E-05	-3.56490410208E+00	4.68195827821E-02	-1.04431479733E+02
7.52224448898E+10	1.94880348672E-01	-2.23787961599E+01	6.00207524240E-05	1.52745970914E+01	7.43758686914E-05	7.04919768516E+01	4.53804456831E-02	-1.04458160842E+02
7.52284569138E+10	1.97732789834E-01	-2.20909791485E+01	2.84488865399E-05	-5.81198761381E+01	7.03427675376E-05	-1.45601625748E+01	4.46928929357E-02	-1.05636926982E+02
7.52344689379E+10	1.91909450659E-01	-2.01331071193E+01	5.56526934140E-05	-3.05558698110E+01	1.22717491626E-04	-4.27185657547E+01	4.35631887124E-02	-1.07291264360E+02
7.52404809619E+10	1.96329876780E-01	-2.17758094731E+01	4.20151497371E-05	-7.22316085271E+01	2.25487334893E-05	-8.74659515113E+01	4.34628656160E-02	-1.05791836719E+02
7.52464929860E+10	1.95080888794E-01	-2.21727551183E+01	3.10990203643E-05	-1.45774162923E+02	2.87856885597E-05	1.52937070403E+02	4.26320287885E-02	-1.07242480622E+02
7.52525050100E+10	1.90961359948E-01	-2.16496426338E+01	4.47717000943E-05	1.64528061172E+02	3.41725806863E-05	1.10296149122E+02	4.18354969974E-02	-1.10196672611E+02
7.52585170341E+10	1.90920242280E-01	-2.05209257633E+01	3.40027549609E-05	-1.85316166134E+00	3.39080878691E-05	6.90270976839E+01	4.10581163089E-02	-1.09958394657E+02
7.52645290581E+10	1.93902398821E-01	-2.15987201452E+01	2.53104736562E-05	-6.60127907985E+01	7.36154369541E-05	4.13843483913E+01	3.97547927524E-02	-1.11052239457E+02
7.52705410822E+10	1.93637698593E-01	-2.32205810203E+01	9.82920231300E-05	-5.91674236823E+01	1.48551205838E-04	-1.85336091753E+00	3.87627999905E-02	-1.12965870137E+02
7.52765531062E+10	1.92148685228E-01	-2.34454102214E+01	2.88655922409E-05	2.85607932163E+01	8.34363186440E-05	-6.62525032039E+01	3.81227446880E-02	-1.12866603836E+02
7.52825651303E+10	1.90647633626E-01	-2.33935256902E+01	1.90515064772E-05	-8.95268580337E+01	8.22206398781E-05	-8.10300196836E+01	3.72662329275E-02	-1.13940168407E+02
7.52885771543E+10	1.92816529672E-01	-2.37345336383E+01	1.12062396066E-04	-4.20593917353E+01	1.02575529400E-04	-2.52679292687E+01	3.69535473023E-02	-1.16596400180E+02
7.52945891784E+10	1.94749523871E-01	-2.37609449173E+01	7.14543331190E-05	-8.48821233329E+01	2.29990148669E-05	-1.26156552540E+02	3.60407947314E-02	-1.16775176538E+02
7.53006012024E+10	1.91699303235E-01	-2.20714814115E+01	8.85012554806E-05	-8.87057585424E+01	5.65102665086E-05	-8.12986726205E+01	3.47237320849E-02	-1.17198531673E+02
7.53066132265E+10	1.89942455007E-01	-2.33272306035E+01	1.26996227932E-04	-5.94457914885E+01	5.00724709488E-05	6.42142695461E+00	3.39787105506E-02	-1.18375155467E+02
7.53126252505E+10	1.89651110782E-01	-2.37112906179E+01	1.26432324916E-05	1.30761845468E+02	8.20434738530E-05	-9.91334063411E+01	3.33164221645E-02	-1.21364827930E+02
7.53186372745E+10	1.93469305667E-01	-2.48612482256E+01	3.01950035794E-05	1.50322226910E+02	3.84395350850E-05	-1.20581156082E+02	3.29061571525E-02	-1.22959185941E+02
7.53246492986E+10	1.91352448307E-01	-2.34989513824E+01	3.16699580645E-05	-1.49124272282E+02	3.86552413431E-05	8.96792817309E+01	3.20814175495E-02	-1.22189642930E+02
7.53306613226E+10	1.91089203532E-01	-2.31587338205E+01	7.29191146806E-05	-1.73975731721E+02	6.43693399885E-05	1.23986672344E+02	3.17308137267E-02	-1.24839006587E+02
7.53366733467E+10	1.88865110683E-01	-2.40340998415E+01	2.96529246619E-05	1.58146347346E+01	1.21039012247E-04	-6.32445070411E+01	3.07630103776E-02	-1.27950222623E+02
7.53426853707E+10	1.87669197459E-01	-2.20115233879E+01	6.15549951341E-05	-4.88366293953E+00	6.19520923686E-05	5.65769631260E+01	3.02632704549E-02	-1.28650516447E+02
7.53486973948E+10	1.94200589789E-01	-2.48943153655E+01	2.21356289254E-05	-8.73062425895E+01	8.57352830059E-05	-6.71990617398E+01	2.95789773612E-02	-1.29732213009E+02
7.53547094188E+10	1.90867143694E-01	-2.43947365720E+01	6.40891581059E-05	-1.19910286223E+02	5.85790647281E-05	-8.77451443994E+01	2.90973133471E-02	-1.31832610955E+02
7.53607214429E+10	1.90869811459E-01	-2.47280590357E+01	2.93030269794E-05	-1.38034703197E+02	3.13596456703E-05	-1.58974511192E+02	2.77855827907E-02	-1.33559610502E+02
7.53667334669E+10	1.88837376563E-01	-2.37210189937E+01	3.47271998739E-05	-1.16096681208E+02	7.57119857021E-05	-1.30684877553E+02	2.73855730258E-02	-1.35016035904E+02
7.53727454910E+10	1.89820024676E-01	-2.37726738218E+01	4.26284905332E-05	8.60471363780E+01	1.03708958266E-04	-1.21144814689E+02	2.67326075749E-02	-1.35280900737E+02
7.53787575150E+10	1.90235278830E-01	-2.59712884013E+01	1.70284572402E-05	1.07782181850E+02	1.49934005602E-04	-1.37627793214E+02	2.65103562860E-02	-1.38017731302E+02
7.53847695391E+10	1.90322162707E-01	-2.55562627592E+01	2.96820505123E-05	1.79433354433E+02	9.66930672428E-06	-5.19707689543E+01	2.58454447460E-02	-1.40853832709E+02
7.53907815631E+10	1.89406485319E-01	-2.51288561732E+01	2.55319696027E-05	-1.24983911639E+02	3.09618435477E-05	-1.72766529567E+02	2.61435476222E-02	-1.43641128085E+02
7.53967935872E+10	1.91061572197E-01	-2.65825716341E+01	7.98595688463E-05	-1.41975546002E+02	6.65815396144E-05	-9.81884013836E+01	2.50705646633E-02	-1.43782820909E+02
7.54028056112E+10	1.90791848707E-01	-2.68666691015E+01	2.36478032171E-05	1.74791966541E+02	6.17969554024E-05	1.76412862699E+02	2.42378685500E-02	-1.46657091565E+02
7.54088176353E+10	1.87138358683E-01	-2.54266116814E+01	1.41575520933E-05	-1.53487341821E+02	1.49408171059E-05	5.39286051151E+01	2.40652225393E-02	-1.49235096426E+02
7.54148296593E+10	1.87355586442E-01	-2.43737250785E+01	2.82114670887E-05	1.25580534547E+02	1.29028657384E-04	1.54263166625E+02	2.43871244018E-02	-1.51280755153E+02
7.54208416834E+10	1.92943676958E-01	-2.68386855214E+01	7.46781187510E-05	1.62378240252E+02	5.32760319341E-05	-1.41813161143E+02	2.35442520567E-02	-1.52582938609E+02
7.54268537074E+10	1.90848450422E-01	-2.69375066894E+01	2.27886286984E-05	-1.66365814690E+02	1.21511362844E-04	-1.63292843305E+02	2.37905174329E-02	-1.56385753173E+02
7.54328657315E+10	1.89138206502E-01	-2.75789416418E+01	8.26823492041E-05	-1.07416758694E+02	1.67188539277E-05	4.18928986160E+01	2.32880604593E-02	-1.57944310052E+02
7.54388777555E+10	1.88569266936E-01	-2.74751802549E+01	2.08405432820E-05	-1.48943702352E+02	4.58638314709E-05	-1.71336821855E+02	2.27566617309E-02	-1.61554062852E+02
7.54448897796E+10	1.84134575899E-01	-2.55433943571E+01	7.90262885832E-05	-1.62233951060E+02	4.57381904420E-05	1.43771842973E+02	2.27462460481E-02	-1.65788178381E+02
7.54509018036E+10	1.91921484406E-01	-2.83352875456E+01	5.30785231867E-05	1.70677778940E+02	1.41972994699E-05	-1.41327494677E+02	2.24395993379E-02	-1.68168231889E+02
7.54569138277E+10	1.89421205818E-01	-2.79786827491E+01	5.29403846590E-05	1.61872696860E+02	4.89372476861E-05	1.60489757027E+02	2.24982527675E-02	-1.69957291339E+02
7.54629258517E+10	1.90802682441E-01	-2.84540205123E+01	1.66254922040E-05	2.43837534953E+01	4.84772602959E-05	8.53815241440E+01	2.26824187199E-02	-1.71288609131E+02
7.54689378758E+10	1.87142442884E-01	-2.82687467046E+01	7.21626702719E-05	1.57237561673E+02	7.38329269467E-05	1.14576193425E+02	2.19763144143E-02	-1.75029793504E+02
7.54749498998E+10	1.87084703059E-01	-2.67225228468E+01	4.49771946680E-05	1.68107713103E+02	2.79148860608E-05	1.02213436053E+02	2.21333709340E-02	-1.77911619119E+02
7.54809619238E+10	1.87423129857E-01	-2.70817452281E+01	6.64763556723E-05	1.10913814757E+02	8.13915591068E-05	1.11246859520E+02	2.24113976060E-02	1.78441470299E+02
7.54869739479E+10	1.89309776072E-01	-2.80037131614E+01	5.06539190548E-05	4.39713882098E+01	8.01709071344E-05	7.74369306373E+01	2.26389737957E-02	1.75287275979E+02
7.54929859719E+10	1.86267651800E-01	-2.71853356326E+01	5.35181159078E-06	-1.02749348770E+02	1.64585556805E-05	-1.19705853201E+02	2.27822491914E-02	1.73331479095E+02
7.54989979960E+10	1.84929197967E-01	-2.80605640550E+01	5.23190924467E-06	1.54344408685E+02	9.95689613212E-06	-5.23448325826E+01	2.28607582366E-02	1.72550232527E+02
7.55050100200E+10	1.89124065192E-01	-3.01670345380E+01	9.00898267329E-06	-1.64909360885E+02	2.93009392422E-05	-1.17237256673E+02	2.28556992199E-02	1.68073243101E+02
7.55110220441E+10	1.90360318945E-01	-2.96855826499E+01	4.11431212221E-05	1.79315277996E+02	8.61764581102E-05	7.21529339275E+01	2.32242650084E-02	1.63596197738E+02
7.55170340681E+10	1.88985658556E-01	-3.07528736773E+01	9.21712533718E-05	1.29021846677E+02	2.43060694064E-05	1.20024152745E+02	2.38390831407E-02	1.65406822401E+02
7.55230460922E+10	1.88617900052E-01	-3.11554803111E+01	4.14306356608E-05	-1.44516316400E+02	5.94594429771E-05	1.30877786543E+02	2.41024526230E-02	1.64502180325E+02
7.55290581162E+10	1.88043605316E-01	-3.12605712490E+01	5.90293205563E-05	9.92174900566E+01	8.53424915623E-05	1.56433485380E+02	2.43373788451E-02	1.59046559712E+02
7.55350701403E+10	1.86976190384E-01	-2.95406889378E+01	2.95376390761E-05	5.43607910835E+01	1.11710713063E-04	8.72750149679E+01	2.48176105908E-02	1.55183873611E+02
7.55410821643E+10	1.88638299711E-01	-3.14082001293E+01	5.26470626546E-05	-3.31121324379E+00	7.75808450229E-05	8.92872686118E+00	2.54465991935E-02	1.52486179706E+02
7.55470941884E+10	1.85936304590E-01	-2.90123527901E+01	7.31603650911E-05	5.32995269870E+01	9.12675135490E-05	3.98688228897E+01	2.55480380597E-02	1.52367462660E+02
7.55531062124E+10	1.85840939038E-01	-2.96883183798E+01	6.45319426331E-05	-7.95149810036E+01	1.91565599427E-05	1.12947430176E+02	2.62329764162E-02	1.50558078512E+02
7.55591182365E+10	1.86439328230E-01	-3.22116245676E+01	4.79463215834E-05	6.40036840086E+01	2.14309431180E-05	3.64059049752E+01	2.67402694091E-02	1.46328136245E+02
7.55651302605E+10	1.86265949717E-01	-3.19328507259E+01	2.67230458133E-05	5.41056403404E+01	3.08442965566E-05	1.16538707140E+02	2.72779116180E-02	1.45028225384E+02
7.55711422846E+10	1.88426075058E-01	-3.15216364516E+01	4.98366224881E-05	5.70650483600E+01	1.18191830843E-05	3.55803039507E+01	2.79280841893E-02	1.44041540163E+02
7.55771543086E+10	1.84597491942E-01	-3.04120667576E+01	8.02069563316E-05	3.82442077062E+01	3.99352850017E-05	6.13504900352E+01	2.90390426661E-02	1.40876795542E+02
7.55831663327E+10	1.82316606585E-01	-3.08943837041E+01	3.51143704452E-05	-1.68082766884E+01	5.89722045054E-05	-5.31730165801E+01	2.89625514276E-02	1.40799012309E+02
7.55891783567E+10	1.83516453848E-01	-3.06324038590E+01	2.82735960169E-05	-1.78247306510E+02	2.19879344410E-05	3.36179060468E+00	2.95943167846E-02	1.38988313205E+02
7.55951903808E+10	1.86530487391E-01	-3.28743916845E+01	9.50562337712E-06	1.59318402055E+02	3.27872110886E-05	-1.69635196889E+02	3.03612737534E-02	1.36702851406E+02
7.56012024048E+10	1.89268181592E-01	-3.28133260604E+01	3.14093071294E-05	1.24625660124E+02	5.40307068533E-05	1.74758878473E+02	3.21490507870E-02	1.34122176593E+02
7.56072144289E+10	1.82076807082E-01	-2.98405575881E+01	6.77460163275E-05	7.81109302461E+01	6.16789830284E-05	6.57569551768E+01	3.20192791985E-02	1.33039717201E+02
7.56132264529E+10	1.83221111634E-01	-3.10677424751E+01	4.44570653559E-05	7.58378480149E+01	9.92209742179E-05	1.31859323761E+01	3.31374933475E-02	1.31349756484E+02
7.56192384770E+10	1.84214570509E-01	-3.35303071241E+01	1.68630348315E-05	2.34299419412E+01	7.25317361486E-05	-3.05023002775E+01	3.41138270090E-02	1.30891032891E+02
7.56252505010E+10	1.85518912508E-01	-3.37377267368E+01	3.86225283501E-05	-6.41443683800E+01	3.85433955235E-05	-8.90311770076E+01	3.36363764334E-02	1.29883926039E+02
7.56312625251E+10	1.88703015972E-01	-3.45954724813E+01	2.11985906240E-05	-7.34016354349E+01	5.22064294287E-05	-7.59619588027E+00	3.39934839978E-02	1.27673779012E+02
7.56372745491E+10	1.85242718573E-01	-3.35961753082E+01	1.50584968574E-05	-8.02322937688E+01	3.49754905241E-05	-5.05023881873E+01	3.63812175144E-02	1.25884140007E+02
7.56432865731E+10	1.83057725689E-01	-3.39610250798E+01	9.54811067253E-05	-1.18366702825E+02	2.97796886569E-05	4.30920963238E+00	3.80310353014E-02	1.23857887017E+02
7.56492985972E+10	1.83928274174E-01	-3.39190087735E+01	4.14839244217E-05	-1.74775974877E+02	1.48751652224E-05	-1.57080920561E+02	3.75079596772E-02	1.22466318755E+02
7.56553106212E+10	1.84715428224E-01	-3.34151507822E+01	1.84721863304E-05	5.33379236629E+01	6.29047645389E-05	8.40554415755E+01	3.76700542415E-02	1.22278541209E+02
7.56613226453E+10	1.86867507848E-01	-3.43204313413E+01	1.19416032189E-05	6.98312721310E+00	6.71376216917E-05	9.71148699990E+01	3.91107365880E-02	1.21672648104E+02
7.56673346693E+10	1.83893490740E-01	-3.35530478025E+01	3.67189387505E-05	6.51996365009E+01	2.75948539725E-05	5.93767616674E+01	4.02290087487E-02	1.21146130705E+02
7.56733466934E+10	1.82693691069E-01	-3.42701243318E+01	2.51861517315E-05	-1.75533994744E+02	3.95758474947E-05	4.76715216095E+01	4.08111853050E-02	1.18502690432E+02
7.56793587174E+10	1.81157833350E-01	-3.36872952287E+01	1.03043136152E-05	-9.06486501543E+00	3.27306116012E-05	9.11872037559E+01	4.25066684269E-02	1.17364014874E+02
7.56853707415E+10	1.83948615712E-01	-3.56785727418E+01	4.33267472050E-05	-2.09821556552E+01	1.20579524029E-05	-1.42295948907E+01	4.40120421999E-02	1.15632917862E+02
7.56913827655E+10	1.85979963495E-01	-3.68034499778E+01	3.93573113020E-05	-2.57275817175E+01	1.76720516216E-05	1.50601982253E+02	4.36807243664E-02	1.15860736368E+02
7.56973947896E+10	1.83675184747E-01	-3.50486530115E+01	1.37867471131E-05	8.76875075105E+01	7.84072561124E-05	4.40067776808E+01	4.23435423465E-02	1.15775521094E+02
7.57034068136E+10	1.86285662760E-01	-3.57098082504E+01	2.30309439954E-05	1.18579936423E+02	1.13404639538E-04	-3.83905650187E+01	4.55272638672E-02	1.13602034349E+02
7.57094188377E+10	1.80908584703E-01	-3.48464005223E+01	8.14921268107E-05	2.74697705904E+01	9.51167587312E-05	-8.62827751754E+01	4.57242975853E-02	1.13192233099E+02
7.57154308617E+10	1.83647032976E-01	-3.66837417822E+01	4.54693824156E-05	-4.68232101936E+01	6.24627832238E-05	1.71123495665E+02	4.72505525361E-02	1.12538720613E+02
7.57214428858E+10	1.84431901508E-01	-3.57094574044E+01	2.62505921706E-05	-2.67774274512E+01	4.94394827370E-05	1.73479856745E+02	4.75149958868E-02	1.11575711608E+02
7.57274549098E+10	1.85366385227E-01	-3.64912056779E+01	3.14970382489E-05	8.06600550706E+01	4.35085930570E-05	-1.11896810194E+02	4.76426092415E-02	1.09661045233E+02
7.57334669339E+10	1.81458689508E-01	-3.59763949340E+01	5.29735654237E-05	-1.16929743951E+02	7.63965876718E-05	2.96313534279E+01	4.94213624498E-02	1.07298023438E+02
7.57394789579E+10	1.81607261638E-01	-3.70475285757E+01	5.06682380853E-05	1.21393510757E+01	2.19947731823E-05	1.04419926124E+02	5.18394825739E-02	1.07406323725E+02
7.57454909820E+10	1.82618597648E-01	-3.69834696199E+01	7.35762250905E-05	-5.49470209868E+01	6.39603647845E-06	1.35187005507E+02	5.22257071016E-02	1.07569273490E+02
7.57515030060E+10	1.85894224116E-01	-3.78445051204E+01	4.68290695910E-05	-1.09713901376E+02	4.52238597289E-05	-1.26295492912E+02	5.25698829165E-02	1.05860286623E+02
7.57575150301E+10	1.79077309028E-01	-3.39957472781E+01	4.79726883025E-05	8.85845557803E+01	3.44657410499E-05	-4.79528911112E+01	5.26113637883E-02	1.05578064142E+02
7.57635270541E+10	1.79866525138E-01	-3.65363907966E+01	4.07525825158E-05	7.86838120036E+01	3.34689057968E-05	2.66504239139E+01	5.45956381437E-02	1.05342007647E+02
7.57695390782E+10	1.81669690710E-01	-3.76493802718E+01	7.00812840369E-05	1.06888890438E+02	7.66214729895E-05	4.07145421793E+01	5.53216898541E-02	1.03307754752E+02
7.57755511022E+10	1.83756187681E-01	-3.90650326429E+01	1.82045443094E-05	-6.50232344208E+01	9.86135473885E-06	-5.30735818004E+00	5.65670705238E-02	1.03424755463E+02
7.57815631263E+10	1.82257265998E-01	-3.85103583188E+01	5.01733904498E-05	-1.09326965045E+02	3.60854747956E-05	2.68080636382E+01	5.64339627869E-02	1.02736816372E+02
7.57875751503E+10	1.81700980671E-01	-3.89231238462E+01	8.02837909774E-05	-1.74170870460E+01	1.18540514810E-04	-6.41540327713E+01	5.83157205381E-02	1.01642740440E+02
7.57935871743E+10	1.84511193681E-01	-3.93087590761E+01	9.19229953073E-06	1.53769604942E+02	3.97012799233E-05	-1.23490451296E+02	5.93149672501E-02	1.01288641276E+02
7.57995991984E+10	1.78706394240E-01	-3.88203305895E+01	2.18709469778E-05	1.63283980710E+02	3.19447510423E-05	-1.40287016302E+02	6.01672685572E-02	1.01684186424E+02
7.58056112224E+10	1.80654474894E-01	-3.79919687628E+01	7.67333136510E-05	3.13908744863E+01	4.20921676307E-05	1.50590269925E+02	5.99959487188E-02	9.91394643744E+01
7.58116232465E+10	1.83309593978E-01	-3.87640104775E+01	4.65680488678E-05	9.15119994856E+01	3.52980321184E-05	1.62445165508E+02	6.24972489505E-02	9.89859463041E+01
7.58176352705E+10	1.79032163372E-01	-3.78175864279E+01	1.57537351012E-05	4.02133234118E+01	3.98916372625E-05	-7.91231480688E+01	6.22003984853E-02	9.88370546856E+01
7.58236472946E+10	1.81599300130E-01	-4.02651857551E+01	2.05652687651E-05	-8.65088492301E+01	7.14876547681E-05	-1.25181258336E+02	6.31776562924E-02	9.74329669091E+01
7.58296593186E+10	1.81264829754E-01	-4.08501770942E+01	3.71659163038E-06	1.17977051946E+02	6.20437819508E-06	-1.69806982587E+02	6.65359644790E-02	9.67514372394E+01
7.58356713427E+10	1.78878096602E-01	-3.85480776703E+01	5.72447174079E-05	7.33071748342E+01	6.23275007907E-05	-1.54554784654E+02	6.59421377653E-02	9.61825512264E+01
7.58416833667E+10	1.79436909168E-01	-3.93960383452E+01	7.77211542149E-05	7.35554728635E+01	3.88526651301E-05	-9.16143256778E+01	6.69164920037E-02	9.60082725864E+01
7.58476953908E+10	1.79837428875E-01	-4.13683238713E+01	1.83278720343E-05	1.56241461812E+02	6.47718601537E-05	2.34252566590E+01	6.75078864631E-02	9.51763031892E+01
7.58537074148E+10	1.82241347352E-01	-4.11319902939E+01	6.63138360102E-05	4.35605269704E+01	4.89553167507E-05	3.16191230991E+01	6.95798691063E-02	9.39406417799E+01
7.58597194389E+10	1.81853428277E-01	-4.06165892441E+01	4.89458714640E-05	-9.57512024874E+01	1.34447640926E-05	-3.08538325827E+01	7.07438322288E-02	9.24975542825E+01
7.58657314629E+10	1.80104728952E-01	-4.03083565964E+01	2.30831989364E-05	-1.00940228101E+02	1.38928906745E-05	7.32999870149E+01	7.16259757640E-02	9.20516950041E+01
7.58717434870E+10	1.76800023700E-01	-4.03339174969E+01	7.70996358979E-05	-1.08248774529E+02	2.32176969672E-05	-1.17520484530E+02	7.19199947759E-02	9.18560885852E+01
7.58777555110E+10	1.77297430899E-01	-3.89580444497E+01	5.36703501909E-06	-1.28737712577E+02	5.83082389083E-05	-1.33813208647E+02	7.29929930492E-02	9.11150660026E+01
7.58837675351E+10	1.77261831865E-01	-4.16638908735E+01	3.04790787783E-05	-1.08534499934E+02	3.09106017486E-05	-1.72649038181E+02	7.33927886906E-02	9.01610960121E+01
7.58897795591E+10	1.78573058627E-01	-4.06146650252E+01	2.38596691559E-05	1.17533244355E+01	6.05015734793E-05	-1.53807112325E+02	7.51921871553E-02	9.00583430143E+01
7.58957915832E+10	1.77990566006E-01	-4.14121311935E+01	5.14562805466E-05	-1.60844368794E+02	8.54540550777E-05	1.27680476677E+02	7.50592116370E-02	9.03475797774E+01
7.59018036072E+10	1.79472235942E-01	-4.20461587267E+01	2.00926775809E-05	1.06705285342E+02	3.20359080673E-05	1.29925951626E+02	7.71177327343E-02	8.80471756488E+01
7.59078156313E+10	1.77802480561E-01	-4.16264106308E+01	5.56925655438E-05	-6.23075157354E+01	3.84351079621E-05	1.51391457530E+02	7.77871591116E-02	8.87803549486E+01
7.59138276553E+10	1.77121908603E-01	-4.28363025659E+01	2.06743269283E-05	-1.34686279268E+02	2.09025507551E-05	1.04861587811E+02	7.88720401385E-02	8.71296077645E+01
7.59198396794E+10	1.80649655193E-01	-4.29715590770E+01	5.58596784065E-05	6.70271144857E+01	7.11845822773E-05	1.58713671291E+02	7.99350750045E-02	8.65480288301E+01
7.59258517034E+10	1.78941518257E-01	-4.27465886765E+01	1.06883975750E-04	1.13318819069E+02	5.44619308567E-05	8.44608036647E+01	8.10090636468E-02	8.60207383399E+01
7.59318637275E+10	1.78253884808E-01	-4.35065068292E+01	3.38956546762E-05	-4.10165459909E+01	7.01866214643E-05	5.71776274544E+01	8.22906896362E-02	8.53254084488E+01
7.59378757515E+10	1.76153386193E-01	-4.39372032682E+01	1.52074788148E-05	-1.58021865610E+02	7.48205746015E-05	-1.62447677291E+02	8.32440540852E-02	8.56384881480E+01
7.59438877756E+10	1.79574667829E-01	-4.38761806298E+01	1.18236449933E-05	7.02258504644E+01	4.08161728838E-05	-8.10669416839E+00	8.45629406087E-02	8.36925906314E+01
7.59498997996E+10	1.79571204071E-01	-4.37838221234E+01	7.34195075099E-05	2.34073403593E+00	2.43882487483E-05	-8.44705500604E+01	8.51047155310E-02	8.21649040492E+01
7.59559118236E+10	1.78931052047E-01	-4.39143034181E+01	5.35697692961E-05	-1.34837416323E+02	5.64965150546E-05	-1.38400209488E+02	8.56678000297E-02	8.41368680012E+01
7.59619238477E+10	1.77253890007E-01	-4.45876719839E+01	8.04225248768E-05	1.15756895561E+02	5.86578313057E-05	3.36650942455E+01	8.63080534263E-02	8.40003711458E+01
7.59679358717E+10	1.76902573258E-01	-4.34686036899E+01	9.65921368777E-05	1.52693203961E+02	8.28530923162E-05	1.54639635783E+02	8.73525466051E-02	8.18884308081E+01
7.59739478958E+10	1.78378874766E-01	-4.33027388569E+01	4.02800574058E-05	3.84679281241E+01	9.46498111749E-05	8.98909285685E+01	8.88936138298E-02	8.14750186870E+01
7.59799599198E+10	1.79123125033E-01	-4.49348491039E+01	4.35637509213E-05	6.09188237196E+01	8.61254908044E-05	4.76005745355E+01	9.05642560600E-02	8.03876629432E+01
7.59859719439E+10	1.73978769886E-01	-4.48219929328E+01	4.64098480154E-05	4.36256073893E+00	3.98236579778E-05	-1.07285894255E+02	9.05419242677E-02	8.15058726557E+01
7.59919839679E+10	1.77821108119E-01	-4.59196697916E+01	4.28571682198E-05	-7.50893158530E+01	3.05918955329E-05	5.90769978769E+01	9.21309041511E-02	8.03904465210E+01
7.59979959920E+10	1.78983456703E-01	-4.61454988267E+01	4.27604139014E-05	1.83373318190E+01	3.84111053802E-05	-9.24739259968E+01	9.24245952427E-02	7.90329380782E+01
7.60040080160E+10	1.75171425743E-01	-4.39555533845E+01	5.69457790688E-05	-1.79875276898E+02	1.80847565668E-05	-1.48163259266E+02	9.45627209106E-02	7.72156652827E+01
7.60100200401E+10	1.76191131119E-01	-4.57281659748E+01	3.42369268470E-05	-1.36239208142E+02	7.80838970568E-05	-1.65053887243E+02	9.44756453713E-02	7.86075757599E+01
7.60160320641E+10	1.74598739923E-01	-4.54853529710E+01	2.56083933390E-05	1.76746778544E+02	4.82081672513E-05	-1.59416580009E+02	9.66706130567E-02	7.76132056389E+01
7.60220440882E+10	1.74391649352E-01	-4.55967686956E+01	3.02826273140E-05	1.67778096470E+02	7.32504581168E-05	1.77996120799E+02	9.73529961325E-02	7.75140415647E+01
7.60280561122E+10	1.75329852406E-01	-4.55518184330E+01	7.17842943621E-05	8.05192354315E+01	5.91295409348E-05	-2.06453688658E+01	9.69722149726E-02	7.66453441378E+01
7.60340681363E+10	1.74850913899E-01	-4.50005210298E+01	1.11219604564E-05	1.59999131358E+02	5.54034747096E-05	-7.75198903974E+00	9.78101325429E-02	7.57133960584E+01
7.60400801603E+10	1.74377666385E-01	-4.51414034515E+01	6.50824660860E-05	1.51303306842E+02	4.27449652209E-05	4.33694656266E+01	9.96749305297E-02	7.41715066144E+01
7.60460921844E+10	1.73210810573E-01	-4.40229559379E+01	5.40413266160E-05	-4.43697880982E+01	4.03588784176E-05	1.21859915222E+02	1.00888351651E-01	7.51655285168E+01
7.60521042084E+10	1.72606631455E-01	-4.65771628200E+01	5.35710778482E-06	9.81070079553E+00	3.95902863443E-05	7.04182336674E+01	1.01839993085E-01	7.50349219872E+01
7.60581162325E+10	1.73688005419E-01	-4.72607844351E+01	9.16059212595E-05	3.38355494418E+01	2.34386382421E-05	-7.72763907220E+01	1.03316602360E-01	7.37340727324E+01
7.60641282565E+10	1.75443357434E-01	-4.73105497691E+01	4.86527311138E-05	8.85653454552E+01	1.11496190286E-04	-1.41329539322E+02	1.02981616784E-01	7.32607881608E+01
7.60701402806E+10	1.72250890589E-01	-4.60439098472E+01	6.32306011796E-05	6.89097883469E+01	8.30126170396E-05	1.40585395093E+02	1.04356474783E-01	7.34307740285E+01
7.60761523046E+10	1.73023809580E-01	-4.72014387935E+01	5.37959638936E-05	1.28703162802E+02	1.23130988906E-04	1.40733314289E+02	1.05297575170E-01	7.27619268116E+01
7.60821643287E+10	1.75307802531E-01	-4.80133736766E+01	5.38085634337E-05	1.16979875223E+02	8.45391307411E-05	1.06360304654E+02	1.06460735678E-01	7.16337271743E+01
7.60881763527E+10	1.74562010194E-01	-4.80650512256E+01	7.12573281522E-05	6.83697834541E+01	7.33787225495E-05	7.57045815734E+00	1.07620615231E-01	7.17793047083E+01
7.60941883768E+10	1.71647902809E-01	-4.87922295420E+01	8.06037125344E-05	4.98181277824E+01	1.07611928714E-04	2.78001798972E+01	1.08007168195E-01	7.11760419440E+01
7.61002004008E+10	1.72376541988E-01	-4.82023240639E+01	8.60522700115E-05	6.08961453795E+01	9.58382729173E-05	3.55540969973E+00	1.08772200713E-01	7.08565588961E+01
7.61062124248E+10	1.74731526985E-01	-4.78717012955E+01	7.24683903008E-05	-8.78204467473E+01	7.70210125783E-05	-8.78403059843E+01	1.09478593004E-01	7.04887927691E+01
7.61122244489E+10	1.70821288047E-01	-4.76860890327E+01	6.57618295915E-05	-1.13156961194E+01	1.07675650802E-04	-9.07977488346E+01	1.10766032904E-01	7.04338580358E+01
7.61182364729E+10	1.74344723976E-01	-4.85248322656E+01	4.72840032309E-05	1.00582145475E+02	8.70843915420E-05	-1.24665913934E+02	1.12453789135E-01	6.86491907571E+01
7.61242484970E+10	1.69706196741E-01	-4.70248378234E+01	4.14497517412E-05	4.06534552724E+01	2.76215993888E-05	-1.70716054928E+02	1.13949483328E-01	6.77266188225E+01
7.61302605210E+10	1.70713802958E-01	-4.74025936692E+01	7.01332042352E-05	1.22019290116E+02	5.24699298467E-05	-1.71131960498E+02	1.14495542661E-01	6.77637903231E+01
7.61362725451E+10	1.71254888452E-01	-4.96302414476E+01	2.43359394777E-05	1.22499285542E+02	7.98457666875E-05	2.47875224116E+01	1.13878179440E-01	6.80223903006E+01
7.61422845691E+10	1.73914302297E-01	-5.03903831721E+01	6.75611709373E-05	3.12724100476E+01	4.03113546711E-05	1.14063173529E+01	1.15453412522E-01	6.79154144934E+01
7.61482965932E+10	1.69270267681E-01	-4.93818005000E+01	1.36739831407E-04	4.94385927791E+01	1.84273647346E-05	-2.27106014341E+01	1.18244288665E-01	6.54737956136E+01
7.61543086172E+10	1.73129433629E-01	-4.86019780136E+01	5.96735050121E-05	2.35971678599E+01	9.34234340266E-05	-3.82941662480E+01	1.17784446267E-01	6.63674524742E+01
7.61603206413E+10	1.70567326736E-01	-4.81170069124E+01	1.00865035018E-04	2.84761265658E+00	1.04105788586E-04	-3.77015722653E+00	1.19463187051E-01	6.50867537155E+01
7.61663326653E+10	1.70142493667E-01	-4.90357557591E+01	9.40502197995E-05	-1.01188080878E+01	1.05825241037E-04	-1.46480644569E+01	1.20105961148E-01	6.57816449285E+01
7.61723446894E+10	1.72317179986E-01	-5.05135693764E+01	7.67760058611E-05	-6.09625752526E+01	1.20633918110E-04	-7.51101577121E+01	1.20636027675E-01	6.49244625096E+01
7.61783567134E+10	1.72422450364E-01	-5.10420884430E+01	8.72157161470E-05	-8.54570142651E+01	9.73023708670E-05	-9.81464499835E+01	1.21773086774E-01	6.39839455419E+01
7.61843687375E+10	1.69649144458E-01	-5.05500303736E+01	7.84176386944E-06	-1.35447462903E+02	5.17860364630E-05	-1.44741680196E+02	1.22165255198E-01	6.31709776793E+01
7.61903807615E+10	1.70398339809E-01	-5.09542863464E+01	8.90585797910E-05	-8.15987766745E+01	7.70624652538E-05	-1.38883104574E+02	1.23622913190E-01	6.33331599205E+01
7.61963927856E+10	1.70566047258E-01	-4.87471579696E+01	2.44403261751E-05	-3.41222626658E+01	2.42859138303E-05	9.75978358142E+01	1.24476933304E-01	6.37197419869E+01
7.62024048096E+10	1.67737210652E-01	-5.03852229584E+01	5.94284249912E-05	-6.06865885271E+00	1.27604563084E-05	1.54954982140E+02	1.24872316767E-01	6.25453702165E+01
7.62084168337E+10	1.68236846563E-01	-5.01640850428E+01	3.79492403269E-05	-1.62125566824E+02	2.41797537784E-05	-5.92031580513E+01	1.26392101556E-01	6.16123350864E+01
7.62144288577E+10	1.69383389463E-01	-5.10175454257E+01	8.46737613620E-05	-5.50096843279E+01	5.17087972104E-05	-1.07433434116E+02	1.27536998766E-01	6.22215310103E+01
7.62204408818E+10	1.70553817985E-01	-5.18689769482E+01	5.23576726157E-05	-1.08576185556E+02	4.70160607702E-05	-7.81851321724E+01	1.28171144683E-01	6.02865531345E+01
7.62264529058E+10	1.69697194002E-01	-5.08167847813E+01	1.10293074553E-04	-5.39673664649E+01	3.09735630096E-05	-2.75935768850E+01	1.28580886451E-01	5.99022870427E+01
7.62324649299E+10	1.68606981304E-01	-5.13413479399E+01	1.08525790727E-04	-4.62977014526E+01	8.36262872430E-05	-1.10642029850E+02	1.29246914783E-01	5.99786042657E+01
7.62384769539E+10	1.66944563834E-01	-4.85005393537E+01	5.54951920228E-05	-4.09814567611E+01	1.28258774531E-04	-5.57273012684E+01	1.29938000689E-01	5.93903070443E+01
7.62444889780E+10	1.66781687549E-01	-4.95836471290E+01	5.24853062555E-05	-8.44554869369E+01	1.21226819706E-04	-1.11886603997E+02	1.31887542798E-01	5.92496053338E+01
7.62505010020E+10	1.69583495483E-01	-5.09911110809E+01	1.21383104904E-05	-1.62497000771E+02	7.75410452728E-05	-1.04129914332E+02	1.33377564078E-01	5.91053371440E+01
7.62565130261E+10	1.69197532444E-01	-5.16396791498E+01	5.09309470194E-05	-1.48715647058E+02	6.58324434164E-05	-1.49729015516E+02	1.33570306132E-01	5.83775383578E+01
7.62625250501E+10	1.68983145671E-01	-5.33810818785E+01	8.09182342774E-05	-1.50683770768E+02	9.18190717074E-05	-1.49505168809E+02	1.35598206810E-01	5.72242267904E+01
7.62685370741E+10	1.68250421864E-01	-5.27609275847E+01	6.16026582094E-05	1.29302814867E+02	8.08434068938E-05	-1.26275844885E+02	1.35741891305E-01	5.73063663695E+01
7.62745490982E+10	1.67434108606E-01	-5.27376914225E+01	1.59106815465E-05	-8.38467495368E+01	3.26000591874E-05	1.65319235034E+02	1.37825339054E-01	5.75922596419E+01
7.62805611222E+10	1.68937438302E-01	-5.20379102404E+01	2.37897383907E-05	-9.57154926138E+01	5.50095168526E-05	7.76163374477E+01	1.36808938061E-01	5.65627064472E+01
7.62865731463E+10	1.68259294338E-01	-5.10798706372E+01	4.76306938950E-05	1.57416604162E+02	3.69110155853E-05	1.21088491083E+02	1.37269418407E-01	5.61265247701E+01
7.62925851703E+10	1.65747317262E-01	-5.00102537179E+01	5.06601721869E-05	-1.73241853658E+02	4.95038881916E-05	-1.28749959625E+02	1.38722661602E-01	5.57001442690E+01
7.62985971944E+10	1.68395438838E-01	-5.32308834799E+01	7.24227929166E-05	-1.13029828221E+02	4.40695146275E-05	-1.02791006624E+02	1.39844255178E-01	5.63065149560E+01
7.63046092184E+10	1.66797196436E-01	-5.42220427152E+01	2.56222471551E-05	-3.60921604202E+00	3.81648013751E-05	1.75239037167E+02	1.41055016345E-01	5.53607191218E+01
7.63106212425E+10	1.67370131427E-01	-5.37034595919E+01	2.23922289153E-05	-6.41369711040E+01	6.63307005749E-05	-9.97385222837E+01	1.42029740676E-01	5.42002753698E+01
7.63166332665E+10	1.65249006369E-01	-5.34230659557E+01	5.32124959630E-05	-1.34431102196E+02	6.60991456759E-05	-1.04673767878E+02	1.42009430577E-01	5.39110663449E+01
7.63226452906E+10	1.69740267253E-01	-5.42260835267E+01	9.11941579454E-05	-1.48299450649E+02	4.94412783893E-05	-1.72285719874E+02	1.42566657558E-01	5.31242419305E+01
7.63286573146E+10	1.65990344412E-01	-5.36483845114E+01	7.60424274978E-05	1.75732817906E+02	4.46440070326E-05	1.68696142644E+02	1.43905796299E-01	5.32018690490E+01
7.63346693387E+10	1.65536110957E-01	-5.50094152483E+01	1.15926431635E-04	1.41886833464E+02	1.01196182236E-04	1.51290127066E+02	1.45984399643E-01	5.31251545821E+01
7.63406813627E+10	1.66015212971E-01	-5.48893700218E+01	3.30635171923E-05	1.43779847985E+02	5.08364084579E-05	6.00760258923E+01	1.45660745483E-01	5.13391434272E+01
7.63466933868E+10	1.68985174902E-01	-5.44864085776E+01	2.27438533717E-05	7.46323533842E+01	8.28985337326E-05	9.29625497304E+01	1.46127400218E-01	5.15525502840E+01
7.63527054108E+10	1.65162681059E-01	-5.31770327620E+01	7.15621894888E-05	-1.75483556937E+02	2.13335661402E-05	4.10893797413E+01	1.48700533824E-01	5.07396144539E+01
7.63587174349E+10	1.64775831281E-01	-5.32880073784E+01	4.66235413900E-05	9.26681147957E+01	3.56091326190E-05	-1.22925043160E+02	1.49364936818E-01	5.18387694413E+01
7.63647294589E+10	1.66127859255E-01	-5.33537784773E+01	5.15337992737E-05	1.49094110147E+02	6.72396993763E-05	1.66494097619E+02	1.49721010404E-01	5.15170115586E+01
7.63707414830E+10	1.66394708440E-01	-5.47176455695E+01	1.67458481918E-05	1.57876879242E+01	6.39346014240E-05	-1.20137107096E+01	1.50154332836E-01	4.93496931960E+01
7.63767535070E+10	1.65598378215E-01	-5.38743510082E+01	9.69229352721E-05	8.70208183071E+01	4.12747147105E-05	2.06388878909E+01	1.51436540097E-01	4.91795314739E+01
7.63827655311E+10	1.65876750376E-01	-5.64799183729E+01	3.54922938240E-05	-1.12126900492E+02	2.19441712434E-05	1.41101938497E+02	1.52337183611E-01	4.87370815085E+01
7.63887775551E+10	1.66110166500E-01	-5.55617215002E+01	1.90889812686E-05	1.17641749996E+01	1.88602008777E-05	-3.41103978451E+00	1.52686119702E-01	5.01009976906E+01
7.63947895792E+10	1.64030656160E-01	-5.34262841475E+01	5.62373526239E-05	-1.43324526457E+01	7.52757653110E-05	1.12042881833E+02	1.53838350497E-01	4.83428352628E+01
7.64008016032E+10	1.62878659093E-01	-5.65912442582E+01	5.30871096597E-05	1.79143782674E+02	4.89565224774E-05	-7.22211760242E+01	1.53552252297E-01	4.73656411002E+01
7.64068136273E+10	1.67243363236E-01	-5.65002257088E+01	1.19784565334E-04	1.37109878760E+02	8.25402678120E-05	-9.25486065593E+01	1.53912864083E-01	4.83449721503E+01
7.64128256513E+10	1.66891536563E-01	-5.79584421452E+01	2.21643407398E-05	-1.19762971353E+02	1.97470978936E-05	-1.16125001795E+02	1.56425565649E-01	4.56669437645E+01
7.64188376754E+10	1.64361027279E-01	-5.61797109632E+01	8.60139390764E-05	1.07181019543E+01	2.43914596909E-05	4.28765146009E+01	1.56940215011E-01	4.85320335207E+01
7.64248496994E+10	1.62694113436E-01	-5.41800020245E+01	3.16509329115E-05	-1.72325463106E+01	1.52009954916E-05	-1.20473445524E+02	1.57129228137E-01	4.55777143839E+01
7.64308617234E+10	1.65095820796E-01	-5.62865290078E+01	1.05879499099E-05	9.56227536438E+01	8.74015679264E-05	-1.12170213092E+02	1.57630197632E-01	4.68484605268E+01
7.64368737475E+10	1.65250553307E-01	-5.69978383598E+01	9.71266363351E-05	-1.64546071275E+02	3.77312513618E-05	-1.64661043936E+02	1.60692519933E-01	4.54879470350E+01
7.64428857715E+10	1.66114029582E-01	-5.76421656284E+01	4.02725150516E-05	1.26912176034E+02	2.85215771409E-05	2.42892166994E+01	1.60635145703E-01	4.54158865680E+01
7.64488977956E+10	1.64799702136E-01	-5.86820540383E+01	8.09406148209E-05	8.95408661034E+01	3.93232637814E-05	1.58312081368E+02	1.61352372229E-01	4.46541950941E+01
7.64549098196E+10	1.63123742342E-01	-5.80351438832E+01	6.18728658424E-05	1.01591823858E+02	7.37394528517E-05	7.21712557267E+01	1.62500586475E-01	4.40881903761E+01
7.64609218437E+10	1.62915707580E-01	-5.79073544981E+01	3.07167598111E-05	1.62375540479E+02	7.15889404390E-05	1.56938968204E+01	1.62204791657E-01	4.54545964265E+01
7.64669338677E+10	1.62578319875E-01	-5.65282857599E+01	6.40619678033E-05	4.61439245688E+01	4.59965909582E-05	-1.04951036365E+02	1.63539720886E-01	4.25692956820E+01
7.64729458918E+10	1.64159742826E-01	-5.71702718458E+01	6.58224299660E-05	-4.56688643538E+01	3.58430047944E-05	-4.37350142461E+01	1.65419298997E-01	4.23861763439E+01
7.64789579158E+10	1.64789600389E-01	-5.69900791775E+01	1.95166188983E-05	1.36011840102E+02	2.63959374787E-05	1.29085800071E+02	1.65457898900E-01	4.22812607736E+01
7.64849699399E+10	1.63967196639E-01	-5.60996828930E+01	8.93353447599E-05	1.74778041868E+02	7.42831920711E-05	1.74489647556E+02	1.66105706205E-01	4.29028040310E+01
7.64909819639E+10	1.63767277707E-01	-5.80468483576E+01	7.85875105908E-05	1.54893067658E+02	7.85005430266E-05	1.02002756791E+02	1.67149272932E-01	4.14674679120E+01
7.64969939880E+10	1.64173469672E-01	-5.93634017112E+01	9.63816973911E-05	1.71386907707E+02	1.39611849095E-04	1.00381584149E+02	1.66609430302E-01	4.17363573034E+01
7.65030060120E+10	1.63220268649E-01	-5.96880812705E+01	1.06069661284E-04	1.13635819849E+02	4.42548087199E-05	2.38635964503E+01	1.67870047437E-01	4.12428548706E+01
7.65090180361E+10	1.63661601179E-01	-5.76266935672E+01	1.01875752986E-04	8.72297241870E+01	9.57472512073E-05	2.14653603585E+01	1.68513413566E-01	4.10941184898E+01
7.65150300601E+10	1.64688548794E-01	-5.98048899465E+01	5.34509634916E-05	9.65333026419E+01	5.19149443607E-05	3.49278698074E+01	1.68738006765E-01	4.08854065086E+01
7.65210420842E+10	1.63304215755E-01	-6.08081881344E+01	6.14346431577E-05	6.31014492486E-01	4.27474886742E-05	-1.46415003408E+01	1.71256042515E-01	3.97194057397E+01
7.65270541082E+10	1.61901560431E-01	-5.97021345550E+01	2.82943152524E-05	8.14778061617E+01	1.19884486162E-05	1.70895001709E+02	1.71757905149E-01	3.95599008612E+01
7.65330661323E+10	1.63404396476E-01	-5.93976505555E+01	5.56775277862E-05	1.07340897561E+02	7.99720067598E-05	6.26742240495E+01	1.72915324882E-01	3.86020129653E+01
7.65390781563E+10	1.62591638653E-01	-5.87493864817E+01	6.48348263414E-06	2.12460915485E+01	5.34270523509E-05	6.56230096376E+01	1.72592348578E-01	3.78663049974E+01
7.65450901804E+10	1.64451195250E-01	-5.92709342642E+01	3.63991592557E-05	5.38823916952E+01	1.40378879548E-04	-6.84988497026E+00	1.73202343901E-01	3.78152692313E+01
7.65511022044E+10	1.62543753270E-01	-5.89987011728E+01	7.95417338397E-05	-1.45486860885E+00	1.78558723231E-05	-3.93036141743E+01	1.72830788930E-01	3.87115653684E+01
7.65571142285E+10	1.62405089782E-01	-5.97844481724E+01	4.06773971306E-05	-5.80461924609E+01	1.67019177026E-05	-1.42562574651E+02	1.75087824964E-01	3.81970015535E+01
7.65631262525E+10	1.64164682087E-01	-6.15567125440E+01	4.14728803153E-05	-1.23120032645E+02	1.68410794781E-05	-1.36089254450E+02	1.76333093327E-01	3.71831373718E+01
7.65691382766E+10	1.62773242896E-01	-6.03308068690E+01	6.56947843262E-05	1.44676547484E+02	5.92719459268E-05	-1.71538058769E+02	1.75055746701E-01	3.68115225398E+01
7.65751503006E+10	1.61893932496E-01	-5.98336404716E+01	6.41349455384E-05	6.12746816160E+01	8.13619633548E-05	8.26407644308E+01	1.77136587427E-01	3.67668561585E+01
7.65811623246E+10	1.63274595931E-01	-6.18449323710E+01	4.69796471573E-05	9.53668572979E+01	7.67383697288E-05	1.97474625040E+01	1.78904710860E-01	3.60836559950E+01
7.65871743487E+10	1.61219330638E-01	-6.01713857889E+01	1.09159833997E-04	6.27725136911E+01	1.25678746152E-04	3.51063820542E+01	1.78589631847E-01	3.59549658321E+01
7.65931863727E+10	1.61057844424E-01	-6.00202903111E+01	1.27492767416E-04	1.79955226195E+01	9.01643269482E-05	-1.26854314827E+01	1.78841931744E-01	3.58057007249E+01
7.65991983968E+10	1.62543887909E-01	-6.08802251287E+01	1.03164811555E-04	-2.72394703697E+01	6.18216979607E-05	-6.22090614549E+01	1.80709506853E-01	3.51321214026E+01
7.66052104208E+10	1.62585658870E-01	-6.21682262526E+01	8.15762031083E-05	-2.56505939282E+01	3.72552940335E-05	-4.24847632565E+01	1.80399998756E-01	3.47492907136E+01
7.66112224449E+10	1.61494597101E-01	-6.27312352885E+01	5.32631412996E-05	-1.13594951928E+02	8.73549257591E-05	-7.67780810826E+01	1.81591311019E-01	3.48528259148E+01
7.66172344689E+10	1.60394452747E-01	-6.04570188942E+01	4.69750755778E-05	-1.07032988369E+02	4.65322123496E-05	-4.61851014664E+01	1.83018103675E-01	3.36027866884E+01
7.66232464930E+10	1.62724654943E-01	-6.25808865330E+01	7.67965674538E-05	2.06884560267E+01	6.73845452329E-05	-3.82077947377E+01	1.83803197319E-01	3.29661425955E+01
7.66292585170E+10	1.62642014709E-01	-6.27494313258E+01	5.66531875475E-05	-1.14507974405E+02	6.80104403891E-05	-1.20534281328E+02	1.83040506604E-01	3.32514634343E+01
7.66352705411E+10	1.62553425857E-01	-6.32382414706E+01	2.70267959273E-05	-8.45418932573E+01	6.18238339824E-05	-6.39958441208E+01	1.84102872730E-01	3.28962971468E+01
7.66412825651E+10	1.60630122483E-01	-6.21377994467E+01	8.31969423128E-05	-2.84901828885E+01	7.41126410694E-05	-2.97803036990E+01	1.84177886362E-01	3.34108786093E+01
7.66472945892E+10	1.60541313187E-01	-6.24093682338E+01	7.25800153086E-05	1.14455027072E+01	3.56540579013E-05	-1.52193183296E+02	1.85889847386E-01	3.32079318150E+01
7.66533066132E+10	1.62558763078E-01	-6.36065882143E+01	5.94037276665E-05	1.61266237432E+01	1.39693761265E-05	9.50541214185E+01	1.88390910836E-01	3.14924200235E+01
7.66593186373E+10	1.59799182123E-01	-6.39330466752E+01	9.66592915900E-05	-6.74337886605E+01	6.82843761017E-05	-4.96157141943E+01	1.87848495527E-01	3.02431844487E+01
7.66653306613E+10	1.61585704671E-01	-6.39674757599E+01	4.45120563000E-05	-2.30562868007E+00	3.28971357778E-05	-1.39967148734E+01	1.88687764116E-01	3.07079853525E+01
7.66713426854E+10	1.61400898673E-01	-6.36887251421E+01	1.57735421932E-05	-1.31314754003E+02	5.95290693213E-05	-7.53749233524E+01	1.89265541104E-01	3.18973082147E+01
7.66773547094E+10	1.60460102524E-01	-6.26146700208E+01	5.24472061331E-05	-4.59832784024E+01	6.01355279635E-05	-1.10049899127E+02	1.88540127795E-01	3.02843570713E+01
7.66833667335E+10	1.59768370713E-01	-6.30070320119E+01	5.52767830282E-05	-1.60253126371E+02	5.04378818555E-05	1.76807023568E+02	1.92183411073E-01	3.03870875113E+01
7.66893787575E+10	1.59691650772E-01	-6.48570940494E+01	9.14649002612E-05	1.41921767207E+02	2.84934719726E-05	1.73023689352E+02	1.91870396828E-01	2.93811592528E+01
7.66953907816E+10	1.60808948076E-01	-6.47222503837E+01	3.57903198456E-05	-1.16295462472E+02	2.61078496184E-05	4.47820127740E+01	1.92852896897E-01	2.88502386988E+01
7.67014028056E+10	1.60839502307E-01	-6.44892593895E+01	4.96559054375E-05	-7.14291652871E+01	1.90014095961E-05	9.44354967658E+01	1.93160344210E-01	2.80272978715E+01
7.67074148297E+10	1.60107089502E-01	-6.45604249500E+01	3.17615543739E-05	-9.45119629535E+01	1.41865397834E-05	-1.47012203892E+01	1.93297275581E-01	2.88953872539E+01
7.67134268537E+10	1.59172305437E-01	-6.53245324659E+01	9.69841434701E-06	-1.58753850369E+02	5.00816265497E-05	-1.52856441572E+02	1.93769477737E-01	2.87479413987E+01
7.67194388778E+10	1.61244888510E-01	-6.62320583789E+01	9.83522359755E-05	-1.44056368380E+02	7.95957659753E-05	-1.71734320419E+02	1.94873679122E-01	2.86691285705E+01
7.67254509018E+10	1.62182176054E-01	-6.67973929542E+01	4.15154090573E-06	-1.39828394803E+02	5.90927012874E-05	-1.05558822789E+02	1.98508199452E-01	2.74536204734E+01
7.67314629259E+10	1.57460137577E-01	-6.44510395746E+01	4.35910900644E-05	-1.59409262191E+02	4.62297000950E-05	-1.46759663712E+02	1.99410192849E-01	2.69451424002E+01
7.67374749499E+10	1.61190142280E-01	-6.60094041244E+01	4.62428221111E-05	-1.24043385933E+02	6.72187532690E-05	1.74561137517E+02	1.96479135466E-01	2.82492521310E+01
7.67434869739E+10	1.61444426536E-01	-6.60002376171E+01	2.38491155606E-05	-1.36128172151E+02	2.82422209070E-05	1.59769102417E+02	1.97918438126E-01	2.68208108166E+01
7.67494989980E+10	1.58897486470E-01	-6.52490611439E+01	5.41220851711E-05	-1.48915969353E+02	4.44866718345E-05	1.14168948541E+02	1.98632030810E-01	2.53003376294E+01
7.67555110220E+10	1.55793396638E-01	-6.53326581850E+01	5.88866776722E-05	1.60604500373E+02	7.29249898731E-05	1.18837911095E+02	2.00561584067E-01	2.55291581651E+01
7.67615230461E+10	1.57051936453E-01	-6.56174491892E+01	5.28850873979E-05	4.77165466226E+01	3.50259522045E-05	5.46892564652E+01	2.00146613541E-01	2.61735192425E+01
7.67675350701E+10	1.59398978570E-01	-6.75436694327E+01	3.81083972477E-05	-1.79869422495E+02	7.84887564721E-05	8.13306326218E+01	2.00613143298E-01	2.49898456156E+01
7.67735470942E+10	1.59777977619E-01	-6.73126838151E+01	3.42121751607E-05	-1.39739663687E+02	1.85342319317E-05	-9.72377553989E+00	2.01295941873E-01	2.63794390800E+01
7.67795591182E+10	1.61162295475E-01	-6.78739470343E+01	3.89266026916E-05	3.73987933237E+01	4.14474323552E-05	1.63477453992E+02	2.02416416086E-01	2.46502031857E+01
7.67855711423E+10	1.60965085568E-01	-6.79355804659E+01	2.51576971870E-05	1.38633625347E+02	5.15072887290E-05	8.82961478422E+01	2.02873679925E-01	2.35812997825E+01
7.67915831663E+10	1.58236067772E-01	-6.88195205555E+01	4.61207539537E-05	-9.82681544663E+01	3.40629799458E-05	1.03724853700E+02	2.04639403271E-01	2.36240437627E+01
7.67975951904E+10	1.58313878184E-01	-6.75500666347E+01	8.08846975416E-05	9.44097021963E+01	3.16851062961E-05	1.13961744380E+02	2.04501384981E-01	2.37963901226E+01
7.68036072144E+10	1.55197495055E-01	-6.78689639890E+01	7.04302470038E-05	-2.60884418834E+01	1.43836407848E-05	-7.83885466561E+01	2.06646251062E-01	2.34411649706E+01
7.68096192385E+10	1.57866416039E-01	-6.84886715914E+01	4.99412539408E-05	6.36338350352E+01	3.95751560545E-05	-5.03132902438E+01	2.08120913491E-01	2.29061595151E+01
7.68156312625E+10	1.55864762139E-01	-6.68405843589E+01	5.83734422431E-05	1.24367295166E+02	8.41174410290E-05	1.75606914481E+02	2.07899129255E-01	2.15789867987E+01
7.68216432866E+10	1.55144016366E-01	-6.70358590587E+01	8.09798233920E-05	1.30769915142E+02	1.86415763807E-05	8.91374726434E+01	2.07090942351E-01	2.12287429682E+01
7.68276553106E+10	1.55438032124E-01	-6.81724606907E+01	2.61830269509E-05	3.62095813946E+00	7.28678644155E-05	6.66924315773E+01	2.08121947920E-01	2.30144358118E+01
7.68336673347E+10	1.56747731662E-01	-6.88493542509E+01	6.74633392518E-05	5.76987260533E+01	8.19336088814E-05	-2.42798754635E+01	2.09387358976E-01	2.23281378526E+01
7.68396793587E+10	1.58824887973E-01	-6.92336211300E+01	5.80634649304E-05	-7.46601811165E+01	2.98643961043E-05	-8.11998515364E+01	2.09312154444E-01	2.04094793141E+01
7.68456913828E+10	1.58260135352E-01	-6.92740464819E+01	9.99629647803E-06	4.58419440228E+01	2.50953058916E-05	1.55909858152E+02	2.12089968727E-01	1.98043013674E+01
7.68517034068E+10	1.58190698730E-01	-6.95906292427E+01	3.10490258219E-05	-1.05792274119E+02	2.15143866768E-05	1.62224739885E+02	2.12268042918E-01	2.02379627459E+01
7.68577154309E+10	1.55582356188E-01	-7.05480338082E+01	6.82392386196E-05	1.68859058647E+02	5.35569995152E-05	6.97806471578E+01	2.13044844629E-01	2.08898152747E+01
7.68637274549E+10	1.56356043170E-01	-6.89770306572E+01	3.50385194205E-05	-1.55484399474E+02	2.50781517062E-06	-7.30982165342E+00	2.13542843962E-01	2.05827320343E+01
7.68697394790E+10	1.55194851906E-01	-6.86588843756E+01	4.87294248203E-05	-1.00484050539E+02	6.28178710353E-05	-6.98150129108E+01	2.15241619318E-01	1.90321704425E+01
7.68757515030E+10	1.55922521913E-01	-6.91038859681E+01	9.49058471947E-05	7.52817077286E+01	1.87878559962E-05	1.20815993025E+02	2.13791347542E-01	1.92629750579E+01
7.68817635271E+10	1.59399725729E-01	-7.10127528760E+01	7.73717030515E-05	1.23809858593E+02	2.71145695064E-05	5.61804417497E+01	2.13246019480E-01	1.91632656591E+01
7.68877755511E+10	1.54683521983E-01	-6.91622286845E+01	6.56581197860E-05	7.78655748950E+01	2.06883496693E-05	5.60276670028E+01	2.15515326211E-01	1.88853795483E+01
7.68937875752E+10	1.56858799879E-01	-7.00850162078E+01	1.36591625517E-05	1.46202661402E+02	4.28620939417E-05	-7.99819330150E+01	2.17301528121E-01	1.80826178061E+01
7.68997995992E+10	1.53093691872E-01	-6.85540572630E+01	3.56151713999E-05	-2.94022453770E+01	8.98485326200E-05	1.16084787763E+02	2.18232787908E-01	1.64550723052E+01
7.69058116232E+10	1.55816461144E-01	-7.07953435089E+01	1.63016960776E-05	5.33713395808E+01	4.89175227532E-05	6.01962453096E+01	2.18781233779E-01	1.62649560795E+01
7.69118236473E+10	1.55429339649E-01	-7.22720386639E+01	8.29859884961E-05	-6.57661461029E+01	5.20697114446E-05	-3.47158009886E+01	2.19419982352E-01	1.74688937276E+01
7.69178356713E+10	1.57674858030E-01	-7.27471118857E+01	9.77295461800E-05	-5.71525850032E+01	4.55624768500E-05	5.54862553915E+00	2.18420836023E-01	1.71679511903E+01
7.69238476954E+10	1.52607032392E-01	-6.90582281923E+01	4.81765481984E-05	-1.18180392555E+02	5.79361435650E-05	-8.81939011244E+01	2.20694592466E-01	1.63515611675E+01
7.69298597194E+10	1.57889145757E-01	-7.22521750808E+01	5.86007852315E-05	-5.09747543369E+00	6.91651508707E-05	-1.72435686230E+02	2.21631434619E-01	1.53048267255E+01
7.69358717435E+10	1.53901729766E-01	-7.17529332607E+01	5.86219433654E-05	-2.29929795182E+01	1.04326818230E-05	4.86387053221E+01	2.23053845214E-01	1.63087993621E+01
7.69418837675E+10	1.53627288546E-01	-7.18514748279E+01	3.56335602351E-05	8.08847462011E+01	1.38220182805E-05	9.68027391725E+01	2.22244103996E-01	1.47340649475E+01
7.69478957916E+10	1.56778994534E-01	-7.26448465133E+01	6.74483919039E-05	5.06643012445E+01	5.98311695782E-05	4.28321889498E+01	2.22194095131E-01	1.43961770269E+01
7.69539078156E+10	1.55356280376E-01	-7.25606973106E+01	6.29027230236E-05	4.81402949304E+01	3.35631381475E-05	-1.51812994143E+01	2.25833076328E-01	1.41381467814E+01
7.69599198397E+10	1.54240307634E-01	-7.29648009796E+01	4.31676227790E-05	1.61355379476E+02	2.29505815904E-05	-1.11019536292E+01	2.25949702630E-01	1.44413366875E+01
7.69659318637E+10	1.56865070836E-01	-7.44824090788E+01	8.45877192889E-05	-4.19927877756E+01	4.80122335179E-05	-4.90750792963E+01	2.24382502464E-01	1.35346126739E+01
7.69719438878E+10	1.54336915566E-01	-7.40314355019E+01	7.92249634916E-05	-9.08052287870E+01	3.56503234707E-05	-1.22514534747E+02	2.25632524258E-01	1.42259978019E+01
7.69779559118E+10	1.53842736278E-01	-7.35254191177E+01	1.08838783866E-04	-1.61359082139E+02	2.14780110748E-05	-1.11838803397E+02	2.24586937260E-01	1.28085835881E+01
7.69839679359E+10	1.52333483364E-01	-7.29976842906E+01	8.63751847543E-05	1.53271858810E+02	5.02624451276E-05	1.03520361770E+02	2.25801903775E-01	1.27517340910E+01
7.69899799599E+10	1.51913162398E-01	-7.25600296662E+01	6.60373359436E-05	1.71024366352E+02	6.26210052255E-05	1.64994693172E+02	2.27097669271E-01	1.23006382262E+01
7.69959919840E+10	1.51291101205E-01	-7.29042527436E+01	4.88678565475E-05	1.65804507904E+02	6.77560613304E-05	1.59255206586E+02	2.28225139664E-01	1.23206804158E+01
7.70020040080E+10	1.51795044964E-01	-7.35162090363E+01	3.13931658751E-05	-1.67960149648E+02	4.44535677843E-05	1.16827791919E+02	2.30199743846E-01	1.18974079391E+01
7.70080160321E+10	1.53076882010E-01	-7.45686840498E+01	9.51117800356E-05	-1.67864831056E+02	3.13425028929E-05	3.84217133283E+01	2.30573737515E-01	1.12333748662E+01
7.70140280561E+10	1.54023887402E-01	-7.41609987682E+01	6.27130177700E-05	1.51303467353E+02	4.55928825547E-05	6.74620793267E+01	2.30242124183E-01	1.21737566131E+01
7.70200400802E+10	1.53165305389E-01	-7.43527958680E+01	1.96463524137E-05	1.04372535304E+02	1.87900894454E-05	1.43722986634E+02	2.30851017708E-01	1.19585477316E+01
7.70260521042E+10	1.52152895299E-01	-7.56195294986E+01	4.37344023590E-05	-4.97750244882E+01	5.48685862520E-05	-7.35698271077E+01	2.29722321068E-01	9.83899734063E+00
7.70320641283E+10	1.52488689716E-01	-7.57434096097E+01	1.03779593129E-04	-1.27396336588E+02	3.06581943058E-05	1.79364612379E+02	2.31276553586E-01	9.61833249743E+00
7.70380761523E+10	1.53323940350E-01	-7.52131985362E+01	4.86456751019E-05	1.13445844126E+02	5.77564807274E-05	1.14510427307E+02	2.34922356890E-01	9.23340760040E+00
7.70440881764E+10	1.50087910715E-01	-7.47075505265E+01	2.54693529411E-05	6.11036073092E+01	8.26956362736E-05	-1.68189655632E+02	2.34152024123E-01	9.04859928099E+00
7.70501002004E+10	1.51351602815E-01	-7.45242312891E+01	7.79832049409E-05	1.10739072099E+02	1.03837262149E-04	1.26539525363E+02	2.33234492907E-01	9.38993047728E+00
7.70561122244E+10	1.54069971460E-01	-7.66799352741E+01	3.96475315956E-05	-1.65775688392E+02	4.77012820844E-05	1.13928605492E+02	2.34122079435E-01	9.83494891890E+00
7.70621242485E+10	1.53625177008E-01	-7.71884788515E+01	8.32681343484E-05	1.21526408397E+02	5.94743720628E-05	5.73119854692E+01	2.33939121197E-01	7.73820657161E+00
7.70681362725E+10	1.52376191609E-01	-7.76616141404E+01	6.38004345409E-05	7.02287618958E+01	4.08043159534E-05	1.08984645221E+02	2.37580134544E-01	8.77275023225E+00
7.70741482966E+10	1.50906069016E-01	-7.61224458809E+01	6.51805821634E-05	1.26279788951E+02	3.75261869398E-05	3.87538624881E+00	2.39425018532E-01	8.03616039285E+00
7.70801603206E+10	1.49209592904E-01	-7.40695618206E+01	1.27658832131E-04	1.15799912109E+02	1.70768888074E-05	-5.76582657058E+01	2.39196697294E-01	7.59450655372E+00
7.70861723447E+10	1.49555521426E-01	-7.65516094808E+01	3.91401303321E-05	2.30552718806E+01	5.98001823216E-05	4.98300772688E+01	2.40094390196E-01	5.82247423653E+00
7.70921843687E+10	1.50219352962E-01	-7.74069297886E+01	1.63177951803E-05	8.01181697045E+01	5.50395668912E-05	1.20285574945E+02	2.39541518918E-01	6.06007459943E+00
7.70981963928E+10	1.53032018056E-01	-7.77288979685E+01	6.35397050600E-05	5.94185401956E+01	1.95924842333E-05	6.99420455221E+01	2.40365998183E-01	5.89491152528E+00
7.71042084168E+10	1.52936623932E-01	-7.80056753004E+01	4.78321095371E-05	3.85068686229E+01	6.83388452193E-05	7.74122155026E+01	2.40420989773E-01	6.35666282045E+00
7.71102204409E+10	1.50661142715E-01	-7.59922199293E+01	7.42969763304E-05	1.44402854199E+01	2.52331537313E-05	3.56890993123E+01	2.41068438380E-01	6.64712316660E+00
7.71162324649E+10	1.49808656794E-01	-7.65485742987E+01	5.48675389127E-05	-2.73777078672E+01	3.43905591441E-05	9.40271142183E+01	2.41531186888E-01	5.21971220959E+00
7.71222444890E+10	1.47977524601E-01	-7.77684489311E+01	1.39236531200E-04	5.04643589852E+01	6.72637145710E-05	9.28041436910E+01	2.44240219582E-01	4.11497849102E+00
7.71282565130E+10	1.49025985675E-01	-7.72896389124E+01	6.94636118436E-05	1.10258640043E+01	5.10493811754E-05	-5.91534925540E+01	2.42049414969E-01	4.83886329619E+00
7.71342685371E+10	1.49414077207E-01	-7.75133024550E+01	5.72066429888E-05	-2.47675169218E+01	3.80325458202E-05	-7.51395198515E+00	2.42096944002E-01	4.21932780223E+00
7.71402805611E+10	1.52843664841E-01	-7.90099988795E+01	5.54820455674E-05	2.14495381662E+01	4.57632303931E-05	-7.96021186863E+01	2.44582846273E-01	3.96526116553E+00
7.71462925852E+10	1.47372363457E-01	-7.85021229001E+01	1.23107626751E-04	6.01360172636E+00	4.46095942352E-05	-4.32434257830E+01	2.46710015138E-01	3.46601555361E+00
7.71523046092E+10	1.47670662414E-01	-7.76069591309E+01	5.30242622013E-05	-5.13795428768E+01	5.22553662182E-05	-1.17777193698E+02	2.44290695710E-01	2.50368305524E+00
7.71583166333E+10	1.49077999365E-01	-7.62177048625E+01	2.82307589138E-05	-9.29126757248E+01	4.08809659784E-05	-2.93423577139E+00	2.47935444251E-01	2.43573545165E+00
7.71643286573E+10	1.48855202599E-01	-7.83377725584E+01	5.91594003965E-05	-7.19978361612E+01	4.37224564027E-05	-8.30929210082E+01	2.49583542391E-01	2.22674290605E+00
7.71703406814E+10	1.47313918176E-01	-7.88934798593E+01	9.53504745293E-05	-5.11158458130E+01	5.28877757983E-05	-3.80663635050E+01	2.46379136210E-01	1.96504539303E+00
7.71763527054E+10	1.46792704901E-01	-7.87820536429E+01	5.67276051942E-05	-1.02740081650E+02	9.62863371682E-05	-4.37429089338E+00	2.52264346061E-01	2.16491576498E+00
7.71823647295E+10	1.47732837179E-01	-7.90309760217E+01	7.97964573102E-05	-1.07264108394E+02	2.36452597228E-05	-1.15534092262E+02	2.48718957844E-01	2.39756790816E+00
7.71883767535E+10	1.48036143776E-01	-7.94792016025E+01	5.85610265696E-05	-2.85616139991E+01	3.71270951118E-05	1.64534290030E+02	2.49127184696E-01	1.45180151849E+00
7.71943887776E+10	1.47308541099E-01	-8.05790336738E+01	2.64091295792E-05	-8.93852743432E+01	5.98501977991E-05	-6.66826470562E+01	2.49944348520E-01	6.80922707090E-01
7.72004008016E+10	1.45750607021E-01	-7.89428069611E+01	2.79684538063E-05	-5.57750774945E+01	1.25632450535E-05	-1.55347519481E+02	2.51920727121E-01	3.32272194772E-01
7.72064128257E+10	1.46437343986E-01	-7.88292759773E+01	2.14587517390E-05	-9.38255964970E-01	7.27293357401E-06	1.76692132299E+02	2.51035439964E-01	4.81411459983E-01
7.72124248497E+10	1.46683229731E-01	-7.97009919738E+01	1.03925440411E-04	-1.26998092196E+02	7.94497875639E-05	-1.24082438378E+02	2.50311720611E-01	-4.44976512202E-02
7.72184368737E+10	1.48387524517E-01	-8.19435305866E+01	7.59083430251E-05	-9.37657804475E+01	6.87661769126E-05	-8.26364287897E+01	2.50230972950E-01	-4.60048750056E-01
7.72244488978E+10	1.48489565973E-01	-8.11258522023E+01	7.30815818183E-05	-9.92511297329E+01	4.89577360622E-05	-9.65601771837E+01	2.56483549460E-01	-1.67048824205E+00
7.72304609218E+10	1.47491910763E-01	-8.10341839326E+01	6.12685658659E-05	-1.52526650633E+02	1.01029930561E-04	-1.67473646677E+02	2.55856201751E-01	-6.23122473037E-01
7.72364729459E+10	1.47738972052E-01	-8.16573008573E+01	3.12988669042E-05	-1.77773480419E+02	9.61903781755E-05	-1.79773318968E+02	2.54378237439E-01	-1.47280408546E-01
7.72424849699E+10	1.48204893589E-01	-8.23474804101E+01	9.94511701399E-05	-1.55291156743E+02	8.89151650217E-05	1.65276489883E+02	2.58116902241E-01	-9.28472964498E-01
7.72484969940E+10	1.47651256595E-01	-8.30589704277E+01	2.29598416351E-05	1.71608968827E+02	7.49479468948E-06	-7.51269184916E+01	2.56687237610E-01	-2.34017612971E+00
7.72545090180E+10	1.46457063755E-01	-8.19500116719E+01	1.84715898909E-05	-5.61757986807E+01	2.34152259134E-05	1.40774279598E+02	2.57563143818E-01	-1.57995275863E+00
7.72605210421E+10	1.44461870650E-01	-8.12804252088E+01	1.44524720572E-05	1.07554163779E+01	2.33536786462E-05	-1.68880839686E+02	2.57366580644E-01	-3.04764300924E+00
7.72665330661E+10	1.46141429574E-01	-7.97995543118E+01	7.35118916504E-05	-1.77322898778E+02	7.73175363015E-05	-9.31766145296E+01	2.60896129175E-01	-3.36075643074E+00
7.72725450902E+10	1.46556165521E-01	-8.29996855464E+01	4.01071869359E-05	1.57751012274E+02	6.57450691617E-05	1.74635393369E+02	2.60348507020E-01	-2.25052857497E+00
7.72785571142E+10	1.47572904047E-01	-8.35842131473E+01	2.33355575619E-05	-1.62150846800E+02	2.94053346998E-05	3.59267692482E+01	2.59887986695E-01	-3.82767476739E+00
7.72845691383E+10	1.45207404833E-01	-8.38305468003E+01	6.14488532819E-05	1.38710533126E+02	9.30305460080E-05	1.54400212496E+02	2.58645418399E-01	-3.82785052313E+00
7.72905811623E+10	1.44146278131E-01	-8.28682632244E+01	4.26281179658E-05	1.31424256362E+02	3.31187208470E-05	7.51166881154E+01	2.62074274672E-01	-4.00051583789E+00
7.72965931864E+10	1.43600370977E-01	-8.22507472915E+01	5.93417674985E-05	1.23038814419E+02	4.86934883628E-05	1.56043190934E+02	2.61163651124E-01	-5.00422062375E+00
7.73026052104E+10	1.43629781106E-01	-8.16571327550E+01	6.09522904721E-05	-1.36420628500E+02	3.37161956217E-05	1.56829785198E+01	2.62181274731E-01	-5.29286032045E+00
7.73086172345E+10	1.43820097781E-01	-8.15563747109E+01	1.06198779690E-04	1.41797104423E+02	4.36722054827E-05	-1.56080557533E+02	2.62377595776E-01	-5.61640290298E+00
7.73146292585E+10	1.44546753158E-01	-8.22987464782E+01	1.07650021561E-04	-1.73895154710E+02	2.37466554104E-05	1.25687441923E+02	2.62835410748E-01	-5.04317628081E+00
7.73206412826E+10	1.46312522455E-01	-8.44041529942E+01	6.36231147033E-05	1.32941883600E+02	9.48848469195E-05	1.03051154921E+02	2.65023025444E-01	-6.73780789464E+00
7.73266533066E+10	1.43498165105E-01	-8.43704756428E+01	5.67442672012E-05	3.70802076295E+01	4.09259288845E-05	5.69757039467E+01	2.65062558727E-01	-6.46151602465E+00
7.73326653307E+10	1.44741739992E-01	-8.47343814716E+01	1.16350820284E-05	1.39674548582E+02	3.24645801315E-05	6.75925977944E+01	2.65147228030E-01	-6.68294121807E+00
7.73386773547E+10	1.44652527189E-01	-8.40906083286E+01	3.95717814701E-05	5.06481938298E+01	4.83562099174E-05	-7.06929472869E+01	2.62932001866E-01	-6.38534458403E+00
7.73446893788E+10	1.42997905894E-01	-8.43650073543E+01	6.60382028085E-05	-3.21278518527E+01	6.40174825195E-05	5.21548896137E+01	2.63071946701E-01	-7.19560273323E+00
7.73507014028E+10	1.44204467553E-01	-8.48276491320E+01	3.25295745872E-05	1.27880164463E+02	7.08663910231E-05	4.19732729926E+01	2.70016435581E-01	-8.06179402679E+00
7.73567134269E+10	1.41248095413E-01	-8.42883218483E+01	7.37996415304E-05	3.69396007015E+00	6.06773053377E-05	-2.19924718335E+01	2.67627352427E-01	-7.56300623755E+00
7.73627254509E+10	1.41303289761E-01	-8.52896544688E+01	6.40018893985E-05	1.24985702621E+02	5.37302903348E-05	2.92697200611E+01	2.68498390484E-01	-8.40819921185E+00
7.73687374749E+10	1.44646590235E-01	-8.51505760215E+01	1.12615718731E-05	3.57030530956E+01	5.32083095262E-05	-2.97324908497E+01	2.70134913513E-01	-9.07051793096E+00
7.73747494990E+10	1.43317107952E-01	-8.42719788753E+01	6.24925671734E-05	-5.40584382607E+01	6.49736494072E-05	-1.12159401936E+01	2.69636587639E-01	-9.85930370512E+00
7.73807615230E+10	1.40688900738E-01	-8.43113596430E+01	6.05562796253E-05	8.30011703864E+01	2.04457500164E-05	3.81838609340E+01	2.72449042116E-01	-9.86652272801E+00
7.73867735471E+10	1.42228947145E-01	-8.49981340131E+01	6.27393009381E-05	1.48584420163E+02	2.34174900500E-05	-3.70608924939E+01	2.70622078732E-01	-1.00313157375E+01
7.73927855711E+10	1.42971697705E-01	-8.56544602179E+01	2.67472703769E-05	-8.68072360430E+01	1.46035832717E-05	-1.78176695242E+02	2.69007172714E-01	-9.77421519370E+00
7.73987975952E+10	1.41598491395E-01	-8.62109540589E+01	5.77772305052E-05	-5.95481788699E+01	2.65626783986E-05	-2.60303782496E+01	2.70580756225E-01	-1.13969956330E+01
7.74048096192E+10	1.41198278807E-01	-8.35990725143E+01	3.29617269834E-05	1.75947803541E+02	2.64120014847E-05	8.76396347392E+01	2.71000113713E-01	-1.12714521489E+01
7.74108216433E+10	1.41084672741E-01	-8.42738516513E+01	3.60858939923E-05	-2.50180935822E+01	3.41696751860E-05	-3.58322080150E+01	2.73685912399E-01	-1.14379741926E+01
7.74168336673E+10	1.40910247854E-01	-8.64900430819E+01	3.16392652210E-05	7.21174826718E+01	5.80355678760E-05	-6.30032007958E+01	2.73682470097E-01	-1.12468120689E+01
7.74228456914E+10	1.40371416183E-01	-8.66883907674E+01	8.58924519150E-05	-4.29630273738E+01	3.62667457479E-05	-6.79644836089E+01	2.72964891792E-01	-1.17292539927E+01
7.74288577154E+10	1.41233194653E-01	-8.76470690072E+01	5.77507143307E-05	-8.04419425481E+01	7.30567431357E-05	-8.89360518389E+01	2.73002056674E-01	-1.28936728554E+01
7.74348697395E+10	1.39686993770E-01	-8.69883045528E+01	7.14756196732E-05	-1.08915264160E+02	1.73668115321E-05	-2.77333174945E+01	2.77090890807E-01	-1.32200158322E+01
7.74408817635E+10	1.39625170332E-01	-8.64802065972E+01	2.86740225399E-05	-1.18060861338E+02	3.69923965393E-05	-1.09170929819E+02	2.75249674463E-01	-1.22858417669E+01
7.74468937876E+10	1.39212010907E-01	-8.70198938686E+01	2.59467057621E-05	-4.12156887724E+01	1.09577717797E-04	-1.19578036304E+02	2.74971863198E-01	-1.24402409076E+01
7.74529058116E+10	1.38543785727E-01	-8.53487896013E+01	2.37943093343E-05	-1.54216256053E+02	8.59616505329E-05	-1.64638485816E+02	2.76881652910E-01	-1.32632670714E+01
7.74589178357E+10	1.37877645978E-01	-8.59950951515E+01	2.84495763872E-05	1.59932310482E+02	1.00445534053E-05	-1.09134052697E+02	2.77186079206E-01	-1.27834738392E+01
7.74649298597E+10	1.38049166279E-01	-8.69958276015E+01	4.72988545548E-05	-1.57150013142E+02	3.19879800231E-05	1.72306974722E+02	2.79631234915E-01	-1.43102855754E+01
7.74709418838E+10	1.40753336226E-01	-8.69394665436E+01	2.23863576191E-05	5.03646594973E+01	4.36012647062E-05	1.69816122998E+02	2.77300215445E-01	-1.52339126983E+01
7.74769539078E+10	1.42959427678E-01	-8.71383392442E+01	5.40432972221E-05	-1.15280550095E+02	3.74232808456E-05	-7.71745360344E+01	2.78001113435E-01	-1.52316583137E+01
7.74829659319E+10	1.39686269104E-01	-8.81342483333E+01	3.29456263919E-05	-7.66864754461E+01	4.79433420799E-05	-1.70280886986E+02	2.82348507583E-01	-1.45529276097E+01
7.74889779559E+10	1.38948430830E-01	-8.74094363781E+01	7.54641364756E-05	-1.17038517296E+02	6.34145027771E-05	-1.51217048023E+02	2.81941792121E-01	-1.45690216702E+01
7.74949899800E+10	1.37690200729E-01	-8.61208086350E+01	5.27169809219E-05	-1.21883802163E+02	3.30048887828E-05	-1.28111965028E+02	2.78638976057E-01	-1.66349058623E+01
7.75010020040E+10	1.36845655463E-01	-8.84801490610E+01	6.47891832471E-05	-1.60062893579E+02	4.11165119476E-05	1.75132779200E+02	2.80187653957E-01	-1.60784437363E+01
7.75070140281E+10	1.40137521946E-01	-8.87589397720E+01	1.15644641267E-04	1.65764413508E+02	5.75185284976E-05	-1.77750039883E+02	2.80744847136E-01	-1.67398985769E+01
7.75130260521E+10	1.38740450482E-01	-8.64897380195E+01	8.13747880199E-05	1.77810294209E+02	7.10777067123E-05	1.27413300175E+02	2.81100040645E-01	-1.65798481676E+01
7.75190380762E+10	1.37967466991E-01	-8.90138507352E+01	5.06870608820E-05	1.57005594882E+02	2.45154927517E-05	6.93800727550E+01	2.83416003066E-01	-1.77084133841E+01
7.75250501002E+10	1.40152947101E-01	-8.86350069588E+01	4.54441683585E-06	1.54201881390E+02	4.11241538862E-05	7.49510266814E+01	2.81514146138E-01	-1.80189582692E+01
7.75310621242E+10	1.36795135475E-01	-8.85811882213E+01	5.02956587409E-05	9.46287629083E+01	4.56913890736E-05	1.64909271809E+02	2.84328032809E-01	-1.77378202842E+01
7.75370741483E+10	1.37186238595E-01	-8.93075763360E+01	5.49652154464E-05	-1.70465878074E+02	1.28935209858E-05	-1.50114143317E+02	2.87536918447E-01	-1.80808603093E+01
7.75430861723E+10	1.38635046185E-01	-8.74498770951E+01	7.11293898341E-05	1.42905943724E+02	1.08756243401E-04	1.18210956860E+02	2.83996124541E-01	-1.76445945980E+01
7.75490981964E+10	1.39560177712E-01	-8.79817736657E+01	9.00777329913E-05	9.19823044037E+01	2.73838175089E-05	3.21970738155E+01	2.86246821892E-01	-1.87769958110E+01
7.75551102204E+10	1.38942385068E-01	-8.98940948622E+01	1.06457425446E-04	1.16356199888E+02	5.88570563065E-05	5.18258722986E+01	2.86451748698E-01	-1.97669926473E+01
7.75611222445E+10	1.37994298789E-01	-8.85249757537E+01	6.47969486393E-05	4.72596994857E+01	4.47705295556E-05	1.06315729599E+02	2.86965583923E-01	-2.05296000460E+01
7.75671342685E+10	1.37967497686E-01	-8.88029369464E+01	3.41446668110E-05	-5.71156149352E+00	6.80546822220E-05	3.30895687943E+01	2.87822366545E-01	-2.02148372904E+01
7.75731462926E+10	1.35839893157E-01	-8.87624204166E+01	9.48647599916E-05	8.42365781168E+01	2.59380074832E-05	1.95432322610E+00	2.88423918398E-01	-1.93188762889E+01
7.75791583166E+10	1.36429363605E-01	-8.96040078826E+01	5.60230276762E-05	1.13301523062E+02	2.17633605329E-05	9.75633768607E+01	2.89001262871E-01	-1.99622168297E+01
7.75851703407E+10	1.37025845340E-01	-9.08658631403E+01	5.09683340527E-05	9.86658997623E+01	9.24716943197E-05	6.33670982308E+01	2.88828591525E-01	-2.09274654128E+01
7.75911823647E+10	1.37900115267E-01	-9.18901521489E+01	9.07893654550E-05	7.21709783091E+01	5.63857489579E-05	1.13695515776E+01	2.86898282282E-01	-2.17744589547E+01
7.75971943888E+10	1.34660577578E-01	-8.81603250259E+01	4.21248758050E-05	-9.70405567209E+01	3.92868197437E-05	1.24999696402E+01	2.90449857023E-01	-2.17233355610E+01
7.76032064128E+10	1.34144607968E-01	-8.86058009532E+01	6.76385442953E-05	3.31102339482E+01	4.15688212593E-05	5.53230574061E+01	2.91808217999E-01	-2.21637367040E+01
7.76092184369E+10	1.35355345027E-01	-8.81292903197E+01	6.39286077546E-05	-4.13740189543E+01	3.43054894390E-05	3.36573358978E+01	2.90438973503E-01	-2.20949810729E+01
7.76152304609E+10	1.38658804366E-01	-9.12399988617E+01	2.12954986021E-05	-7.53358241917E+01	5.42046299353E-05	5.87049031091E+01	2.91449588659E-01	-2.25802488753E+01
7.76212424850E+10	1.36361672299E-01	-9.18968571341E+01	1.10212062306E-04	4.52019542110E+01	6.42381447242E-05	3.45312405474E+01	2.93501017938E-01	-2.30616291341E+01
7.76272545090E+10	1.37023168301E-01	-9.32367549386E+01	6.16359906690E-05	4.09751914570E+01	4.90194683887E-05	-2.76026102250E+01	2.94445901071E-01	-2.32410864864E+01
7.76332665331E+10	1.37769960381E-01	-9.18311497646E+01	4.75088255310E-05	-2.78427533071E+00	7.12580105373E-05	-1.42875430460E+00	2.92924594112E-01	-2.21465657673E+01
7.76392785571E+10	1.36234847542E-01	-9.12183773734E+01	7.58392602647E-05	-1.85883662291E+01	1.00392248041E-04	-6.42121942353E+01	2.91894962900E-01	-2.39753203988E+01
7.76452905812E+10	1.35647155834E-01	-8.99459770081E+01	5.97972267440E-05	-9.20497202441E+01	5.16748562974E-05	-1.10394930512E+02	2.95020056169E-01	-2.53095409940E+01
7.76513026052E+10	1.35033353686E-01	-9.14828615556E+01	4.20185109493E-05	7.64153527180E+01	3.06842483110E-06	8.04793207675E+01	2.94651170433E-01	-2.39292250508E+01
7.76573146293E+10	1.37664378877E-01	-9.16742091269E+01	6.66459034847E-05	-6.76240061365E+00	3.71730608825E-05	-1.59136104571E+02	2.93789214835E-01	-2.40642199655E+01
7.76633266533E+10	1.35497299492E-01	-9.09132002921E+01	6.09602819228E-05	5.18084820538E+01	2.38110939360E-05	-3.01141860762E+01	2.95834076841E-01	-2.47069056162E+01
7.76693386774E+10	1.35474163306E-01	-9.15132686282E+01	1.22432748398E-04	-2.21750629845E+01	5.95275466692E-05	-3.26953244518E+01	2.98333212048E-01	-2.59357715464E+01
7.76753507014E+10	1.33934066831E-01	-9.04561047751E+01	6.60084935921E-05	-4.66548799741E+01	1.01439584455E-04	-7.26120582120E+01	2.94425069091E-01	-2.61265277594E+01
7.76813627255E+10	1.34551065016E-01	-9.21931279280E+01	7.54374641608E-05	-6.59014240993E+01	6.55720019276E-05	-1.22579821416E+01	2.93801925671E-01	-2.56425317716E+01
7.76873747495E+10	1.38600238689E-01	-9.40612290038E+01	1.22220149204E-04	-5.52658529081E+01	4.21693241725E-05	-8.12764804722E+01	2.98731720156E-01	-2.62135034019E+01
7.76933867735E+10	1.32793418274E-01	-8.90877057634E+01	1.14814788588E-04	-1.18772464619E+02	3.62706457347E-05	-6.45956470190E+01	2.98271272188E-01	-2.70808970281E+01
7.76993987976E+10	1.34238801416E-01	-8.93837934432E+01	7.30995434006E-05	-1.29716432886E+02	1.67746890874E-05	-1.44212310932E+02	2.97769406194E-01	-2.79184655769E+01
7.77054108216E+10	1.34690365720E-01	-9.32966988548E+01	7.04514957524E-05	-1.63706823549E+02	9.19631165219E-06	1.62250178994E+02	2.96019855216E-01	-2.68496836493E+01
7.77114228457E+10	1.35479169560E-01	-9.38652941131E+01	3.42175427420E-05	-2.42908525802E+01	7.56314517572E-05	-1.06824795963E+02	2.96401393182E-01	-2.70156006663E+01
7.77174348697E+10	1.32468363148E-01	-9.14337916504E+01	4.76235391958E-05	-4.44545173229E+01	4.04962707639E-05	-1.44086560212E+02	3.01905458293E-01	-2.80531715859E+01
7.77234468938E+10	1.32173279336E-01	-9.28619686324E+01	2.27993322793E-05	1.72776229517E+02	1.63136078717E-05	-1.45374719679E+02	3.00851664469E-01	-2.79574221550E+01
7.77294589178E+10	1.35940206577E-01	-9.53834918337E+01	6.74374944727E-05	1.79055151417E+02	1.52282827484E-05	1.47013645726E+02	3.00036672861E-01	-2.81860307483E+01
7.77354709419E+10	1.32718975687E-01	-9.40745825156E+01	6.20467391036E-05	1.27608421662E+02	2.44799860292E-05	1.42365198730E+02	2.98091448635E-01	-2.90371513179E+01
7.77414829659E+10	1.32165755340E-01	-9.22488053235E+01	2.44283710351E-05	1.11808676118E+02	4.86395871087E-05	-8.56905995287E+01	3.00258824802E-01	-2.99080858047E+01
7.77474949900E+10	1.34194341931E-01	-9.58315122352E+01	5.46460270408E-05	-5.90933176611E+01	1.92780494919E-05	-1.23813205785E+02	3.02016424137E-01	-2.89677126280E+01
7.77535070140E+10	1.34128996067E-01	-9.57418481531E+01	6.76607618193E-06	3.88827316064E+01	4.53505795470E-05	-9.66244834225E+01	3.02493425617E-01	-3.03254927451E+01
7.77595190381E+10	1.34017738189E-01	-9.67195597586E+01	2.75114800846E-05	-4.51465831739E+01	3.11856339440E-05	-9.69455961953E+01	3.02147480294E-01	-3.07106211078E+01
7.77655310621E+10	1.31850745922E-01	-9.51579930592E+01	2.86803144863E-05	1.23207969125E+02	4.06395165741E-05	-1.31726026021E+02	3.01307156584E-01	-3.06963221519E+01
7.77715430862E+10	1.31981782031E-01	-9.38586992322E+01	3.61112184387E-05	1.47677320632E+02	3.06251945071E-05	1.31448925989E+02	2.99545419565E-01	-3.08938708300E+01
7.77775551102E+10	1.33734852672E-01	-9.50664703616E+01	4.17479709554E-05	-1.52232487315E+02	5.57228302785E-06	-5.50329159000E+01	3.01153146589E-01	-3.14974320940E+01
7.77835671343E+10	1.33604636430E-01	-9.55395466748E+01	5.62499566234E-05	4.99736825767E+01	3.33474148069E-05	-1.15396231251E+02	3.06309314051E-01	-3.22140097592E+01
7.77895791583E+10	1.31442292377E-01	-9.36249934512E+01	6.03881752388E-05	-2.91542952227E+01	3.69296322827E-06	1.65571354236E+02	3.06661192382E-01	-3.22369096725E+01
7.77955911824E+10	1.33610505025E-01	-9.57532270414E+01	4.80192200645E-06	1.54670411034E+02	4.86350626843E-05	-1.15416812969E+02	3.01128098226E-01	-3.19902416198E+01
7.78016032064E+10	1.31815601567E-01	-9.56303890893E+01	1.74426584664E-06	1.19757989486E+02	1.79605161734E-05	8.03621367293E+01	3.02688019387E-01	-3.27360899250E+01
7.78076152305E+10	1.31894678335E-01	-9.65196318031E+01	5.13237541346E-05	3.59277554316E+01	4.13450868415E-05	-2.91733181287E+01	3.05880600346E-01	-3.32891780851E+01
7.78136272545E+10	1.34183690540E-01	-9.75119138699E+01	6.14360452210E-05	-3.76419123205E+01	7.70824092844E-05	-9.30119940532E+01	3.09697593918E-01	-3.36721021340E+01
7.78196392786E+10	1.33546564485E-01	-9.67487088435E+01	4.64817774733E-05	-7.05523227298E+01	1.70366325820E-05	-7.34170319917E+01	3.05556062780E-01	-3.37621012016E+01
7.78256513026E+10	1.33485036592E-01	-9.69753674241E+01	8.59966431462E-05	-1.18734764782E+02	2.35389703318E-05	-1.51895455424E+02	3.03723140058E-01	-3.39808238415E+01
7.78316633267E+10	1.29868074854E-01	-9.55441657038E+01	2.78320041178E-05	1.73657526863E+02	3.83421249396E-05	-1.73320386742E+02	3.06780383417E-01	-3.44634229422E+01
7.78376753507E+10	1.32721275593E-01	-9.77535414865E+01	3.20235382766E-05	-1.65640357030E+02	2.95129874943E-05	-1.21072946660E+02	3.08354920390E-01	-3.49621148172E+01
7.78436873747E+10	1.33172287889E-01	-9.78523078630E+01	7.09674139999E-05	-1.37815539190E+02	4.33458974431E-05	1.18370671950E+02	3.09865793158E-01	-3.49847442427E+01
7.78496993988E+10	1.33427903768E-01	-9.79310097523E+01	4.39016187421E-05	-4.40971695764E+01	5.88621904700E-05	-1.64525085172E+02	3.08845633342E-01	-3.49757991256E+01
7.78557114228E+10	1.30540676258E-01	-9.81675189618E+01	6.26585930014E-05	-5.47712532890E+01	6.26488773567E-05	1.78924508563E+02	3.07231655779E-01	-3.54006261603E+01
7.78617234469E+10	1.29287028664E-01	-9.54307924508E+01	5.45024230523E-06	8.48982051755E+01	4.69031985897E-05	-1.40412109000E+02	3.10028904492E-01	-3.60647302053E+01
7.78677354709E+10	1.30594599323E-01	-9.66868718386E+01	7.38089393443E-05	-1.44500869705E+02	5.03946869463E-05	-1.72829295423E+02	3.08946636115E-01	-3.69475217097E+01
7.78737474950E+10	1.30884208576E-01	-9.72494048037E+01	5.68821425386E-05	-1.74737306572E+02	4.21298329314E-05	1.69811351566E+02	3.09358281964E-01	-3.73479102367E+01
7.78797595190E+10	1.30684784739E-01	-9.75318788936E+01	4.08587993866E-05	1.64359860558E+02	2.33623362877E-05	1.19113052952E+02	3.06702401003E-01	-3.63057131582E+01
7.78857715431E+10	1.29049569368E-01	-9.88466812090E+01	6.20897366232E-05	1.35045973254E+02	1.22789155953E-05	1.43430419679E+02	3.08046279759E-01	-3.71574471245E+01
7.78917835671E+10	1.30525728245E-01	-9.80065350641E+01	5.54662294482E-05	2.79722058941E+01	1.40080191877E-05	-1.74771089108E+02	3.10096734856E-01	-3.79701906191E+01
7.78977955912E+10	1.29286729482E-01	-9.70001047535E+01	3.58510316144E-05	-1.04838648532E+02	5.16024464257E-05	-1.16335129060E+02	3.14881270162E-01	-3.85496318648E+01
7.79038076152E+10	1.29675016672E-01	-9.82638923736E+01	9.22827242273E-05	-1.33854969566E+02	4.14393245881E-05	1.57662602130E+02	3.12089841669E-01	-3.80673745691E+01
7.79098196393E+10	1.29510155445E-01	-9.74973043748E+01	9.18335100047E-05	1.42729156532E+02	3.63407433622E-05	1.46872883233E+02	3.07699450773E-01	-3.83724238519E+01
7.79158316633E+10	1.28830600937E-01	-9.72196705423E+01	1.10252372375E-04	1.55507104306E+02	6.71685905784E-05	1.30124560220E+02	3.11555012712E-01	-3.92045006326E+01
7.79218436874E+10	1.29694921477E-01	-9.89816033229E+01	4.18567389006E-05	6.52615083514E+01	3.80669344074E-05	8.40696716264E+01	3.12078699114E-01	-3.83324989297E+01
7.79278557114E+10	1.29207585729E-01	-9.87863887209E+01	4.08437835262E-05	1.67305816768E+02	2.89604316845E-05	1.44345466540E+02	3.14937245938E-01	-3.88781586262E+01
7.79338677355E+10	1.31960650487E-01	-9.99065875287E+01	4.45693579349E-05	1.48198834584E+02	2.80064210411E-05	1.30521366589E+02	3.12664511968E-01	-4.07336553090E+01
7.79398797595E+10	1.28480700263E-01	-9.84331174662E+01	1.41649672632E-05	3.60193361893E+01	3.94035674547E-05	3.36906771672E+01	3.13323442883E-01	-4.07008860081E+01
7.79458917836E+10	1.29200924682E-01	-9.91888896452E+01	6.18697723745E-05	1.36372594984E+02	3.66112326455E-05	8.73642006804E+01	3.13441480831E-01	-4.08052364615E+01
7.79519038076E+10	1.28372720829E-01	-1.00644355515E+02	5.45221477982E-05	8.93479898831E+01	6.95434875202E-05	9.20415831264E+01	3.12366576470E-01	-4.12796175017E+01
7.79579158317E+10	1.29561535099E-01	-1.00325429173E+02	3.88719484017E-05	-2.35167056351E+01	2.96196689486E-05	6.67265592828E+01	3.15397913068E-01	-4.08941304948E+01
7.79639278557E+10	1.30352156128E-01	-1.00966844024E+02	6.68501058152E-06	-1.70102351425E+02	4.97855566172E-05	7.35618226029E+01	3.15412360983E-01	-4.14070453342E+01
7.79699398798E+10	1.28674172019E-01	-1.01296764305E+02	6.31136245787E-05	-1.53944359708E+02	4.04564947020E-05	1.78599190415E+02	3.15436724790E-01	-4.27115241888E+01
7.79759519038E+10	1.27225216944E-01	-1.00005553828E+02	6.22757814136E-05	9.81200073424E+01	3.30513159350E-05	1.36299052259E+02	3.17625930361E-01	-4.30058545634E+01
7.79819639279E+10	1.29564079813E-01	-1.00741620286E+02	6.81941043147E-05	5.78078014247E+01	1.36823769057E-05	-1.57942069844E+02	3.16288619780E-01	-4.19139600439E+01
7.79879759519E+10	1.26796553020E-01	-9.93870214792E+01	1.08175680451E-04	8.06312209982E+01	3.34401774467E-05	1.13059280849E+02	3.17559029651E-01	-4.30818398193E+01
7.79939879760E+10	1.28103838176E-01	-1.00190042065E+02	7.71005690963E-05	4.44289506855E+01	6.00194815031E-05	6.14651247508E+00	3.14305708185E-01	-4.28938785432E+01
7.80000000000E+10	1.27533495034E-01	-1.01256619350E+02	5.53281588993E-05	1.17499664728E+02	3.69471224947E-05	-2.08239934854E+01	3.15047868723E-01	-4.34133372622E+01
