# Hz S MA R 50
! CMT, C4420, 21421029, 25.1.2/3
! Date: 8/7/2025 5:43:48 PM
! Data: Format (Calibration Info)
! Freq	S33:Mag/Ang(F2)	S43:Mag/Ang(F2)	S34:Mag/Ang(F2)	S44:Mag/Ang(F2)
7.50000000000E+10	1.98855507098E-01	-1.39184615656E+01	2.59521176502E-05	1.31440049425E+02	8.83930608639E-05	1.36704006465E+02	2.79868355822E-01	-2.58653647292E+01
7.50060120240E+10	1.99707311002E-01	-1.45000536786E+01	1.49191623476E-05	-1.16736698119E+02	6.40329996807E-05	8.19817059954E+01	2.80083664848E-01	-2.63494359510E+01
7.50120240481E+10	2.02089473129E-01	-1.53487469402E+01	1.25639331981E-04	-1.24271366814E+01	4.40663344545E-05	-3.18098766382E+01	2.78478054779E-01	-2.58896823473E+01
7.50180360721E+10	2.00645142218E-01	-1.54494689701E+01	4.80118438380E-05	-7.28372680215E+01	3.41900125962E-05	-2.21689338809E+01	2.77385422503E-01	-2.60159510887E+01
7.50240480962E+10	1.99975814431E-01	-1.54268753570E+01	5.12245609375E-05	-9.24910553174E+01	9.86078260367E-05	-6.71295815995E+01	2.78497784572E-01	-2.73828852215E+01
7.50300601202E+10	1.97952305572E-01	-1.35826896651E+01	4.79004418451E-05	-8.14316860159E+01	4.82733961231E-05	1.48215475719E+02	2.78735158738E-01	-2.74437847422E+01
7.50360721443E+10	2.00413042898E-01	-1.52473782002E+01	6.14835142972E-05	1.65970204136E+02	8.38730730543E-05	8.56797407671E+01	2.78481388800E-01	-2.76324737930E+01
7.50420841683E+10	2.00209410499E-01	-1.59830903623E+01	1.70928978008E-05	-5.77351294284E-01	8.64743164003E-05	2.57700505408E+01	2.73787969804E-01	-2.62275307805E+01
7.50480961924E+10	1.99305626621E-01	-1.79460120453E+01	7.28912887360E-05	-9.95306258405E+01	3.25117420442E-05	-1.20852226814E+02	2.71327485347E-01	-2.71736419852E+01
7.50541082164E+10	1.97010307779E-01	-1.71688053978E+01	3.87110517507E-05	1.35553334276E+02	2.18010463643E-05	-1.80356757038E+00	2.76072144742E-01	-2.82983647152E+01
7.50601202405E+10	2.00230200524E-01	-1.64789185496E+01	6.37026164275E-05	-2.59780714090E+01	1.49789688189E-04	-7.02788524567E+01	2.80037004561E-01	-2.93764835803E+01
7.50661322645E+10	2.00161766686E-01	-1.47863679209E+01	6.07070885169E-05	-1.35330466302E+02	7.93812768935E-05	-1.24087647120E+02	2.79355380863E-01	-3.02431572458E+01
7.50721442886E+10	1.98303485816E-01	-1.62176884227E+01	7.63227339630E-05	-9.28989409322E+01	4.66195335275E-05	-7.13352247674E+01	2.78131718190E-01	-2.98733145679E+01
7.50781563126E+10	1.99591736299E-01	-1.89063998902E+01	6.01567765898E-05	-1.69157019605E+02	7.54178612623E-05	1.54536294918E+02	2.76693927077E-01	-2.92132529851E+01
7.50841683367E+10	1.97274983244E-01	-1.78106412915E+01	1.14219472074E-04	-1.44611248168E+02	2.46022594947E-05	1.17633505932E+02	2.75088182505E-01	-2.84053438342E+01
7.50901803607E+10	1.98228826977E-01	-1.68910409870E+01	3.39050947560E-05	-1.32615394049E+02	3.84635690550E-05	-1.24323916351E+02	2.80888189490E-01	-3.04211087369E+01
7.50961923848E+10	1.99600571960E-01	-1.72133432576E+01	4.86151971662E-05	-1.66869310535E+02	5.60720389681E-05	9.73598032840E+01	2.78556335969E-01	-3.17006670175E+01
7.51022044088E+10	1.96165363927E-01	-1.62304488765E+01	5.03025095522E-05	1.77988750194E+02	2.11179045997E-05	1.17434148225E+02	2.77875767600E-01	-3.10388298014E+01
7.51082164329E+10	1.93930458525E-01	-1.60192605922E+01	4.77893641367E-05	1.64767991495E+01	7.40393098715E-05	-1.07777859307E+02	2.76056899846E-01	-3.07504530974E+01
7.51142284569E+10	1.94331942814E-01	-1.67035035270E+01	5.70633014341E-05	1.19791033924E+02	3.09455741793E-05	6.55053944732E+01	2.75505385391E-01	-3.12165459504E+01
7.51202404810E+10	1.97167052430E-01	-1.85497342451E+01	6.34759907185E-05	1.26786179466E+02	1.86428416884E-05	1.12644446885E+02	2.75899797876E-01	-3.14981221007E+01
7.51262525050E+10	1.96231641448E-01	-1.96175790171E+01	3.26390701254E-06	-1.33055910350E+02	1.93205002747E-05	-1.49953195219E+02	2.72725111329E-01	-3.18699656791E+01
7.51322645291E+10	1.96860158084E-01	-1.93851276070E+01	2.17204653628E-05	1.57196984641E+02	7.91302119645E-05	-1.56374047817E+02	2.75966258986E-01	-3.20411090079E+01
7.51382765531E+10	1.95904124216E-01	-1.88342223271E+01	2.45770880996E-05	1.48812593340E+02	2.01929019200E-05	1.43021141324E+02	2.74708704247E-01	-3.28405682445E+01
7.51442885772E+10	1.95411208213E-01	-1.86701182609E+01	6.91457715387E-05	-1.54767746164E+02	1.81842738290E-05	1.11841450954E+01	2.76298818543E-01	-3.23890661577E+01
7.51503006012E+10	1.93645722384E-01	-1.81477712898E+01	3.19112173550E-05	8.85331260222E+01	4.98925382958E-05	1.50320486247E+02	2.72272703901E-01	-3.25834298272E+01
7.51563126253E+10	1.91934784994E-01	-1.79120067987E+01	9.74985791450E-05	1.41787892572E+02	2.26184150031E-05	-5.76951366846E+00	2.72243765285E-01	-3.25820009332E+01
7.51623246493E+10	1.96766730249E-01	-1.95631306530E+01	5.04375845017E-05	8.56953362023E+01	2.61248415699E-05	-8.84575811798E+01	2.74233129110E-01	-3.32368349936E+01
7.51683366733E+10	1.92705893194E-01	-1.84047241524E+01	3.22264495993E-05	1.36623241237E+02	3.95183757039E-05	1.45291725778E+02	2.79378331615E-01	-3.45013821786E+01
7.51743486974E+10	1.97404403358E-01	-2.01950575932E+01	5.16968608209E-05	7.90366995786E+01	2.52868950150E-05	6.05439925253E+00	2.77719812462E-01	-3.52094883416E+01
7.51803607214E+10	1.94129647095E-01	-1.92694375133E+01	3.85126852745E-05	5.52858427221E+01	9.76296882169E-05	1.72283393035E+01	2.72528612935E-01	-3.44750349844E+01
7.51863727455E+10	1.95127510923E-01	-1.90915763279E+01	2.91614416953E-05	-6.01383656786E+00	7.54179729661E-05	-8.16158124102E+01	2.71092070189E-01	-3.37798341642E+01
7.51923847695E+10	1.92222076226E-01	-2.02389877591E+01	2.84244671838E-05	-2.94523180372E+01	1.51727400962E-05	5.23060930366E+01	2.74922202190E-01	-3.45203332181E+01
7.51983967936E+10	1.93857875005E-01	-2.03400080072E+01	5.12440268904E-05	-8.44357596583E+01	1.98992530802E-05	1.66538368602E+02	2.73451217701E-01	-3.46411194399E+01
7.52044088176E+10	1.97576449713E-01	-2.17838251475E+01	1.55309926594E-05	-8.22860810504E+01	5.80252521602E-05	-4.44519260680E+01	2.73982605990E-01	-3.54091259598E+01
7.52104208417E+10	1.94410323872E-01	-2.10434532942E+01	4.60409299340E-05	8.49990847694E+01	5.60925745702E-05	5.63469902692E+01	2.72681620116E-01	-3.59932232029E+01
7.52164328657E+10	1.95719012493E-01	-2.13495224679E+01	2.37031482983E-05	-1.66178511597E+02	1.67862181352E-05	-1.60500178668E+02	2.76707176930E-01	-3.72329881694E+01
7.52224448898E+10	1.93478573071E-01	-2.12518564846E+01	5.51840283958E-05	1.37578384086E+02	2.14867413438E-05	5.73341616331E+01	2.69894375873E-01	-3.55671961198E+01
7.52284569138E+10	1.94906831856E-01	-1.87667549521E+01	8.07083525973E-05	2.96300068355E+01	5.48040743602E-05	-1.46827413290E+01	2.66611578521E-01	-3.54416905332E+01
7.52344689379E+10	1.94207737076E-01	-2.22401271052E+01	1.32690715578E-04	-2.80640682491E+01	3.74472166269E-05	-1.37035017634E+02	2.72862080265E-01	-3.75267318908E+01
7.52404809619E+10	1.95689366280E-01	-2.09661786877E+01	2.14275682943E-05	-2.46947318146E+00	4.30428251938E-05	1.49311683160E+01	2.71928711600E-01	-3.69836414147E+01
7.52464929860E+10	1.94821429001E-01	-2.17180478681E+01	1.51316046206E-05	-9.67071392667E+01	4.87447453950E-05	1.69119205485E+02	2.72307850675E-01	-3.74207588324E+01
7.52525050100E+10	1.92039362740E-01	-2.20931521669E+01	8.41256302249E-06	-1.39301135700E+02	4.48973749255E-05	8.67280495765E+00	2.74560169305E-01	-3.92775735046E+01
7.52585170341E+10	1.91404796984E-01	-2.08422138690E+01	4.02761836513E-05	1.44859471330E+02	3.37906619913E-05	-1.36399946077E+02	2.73781648417E-01	-3.87070280140E+01
7.52645290581E+10	1.93671924091E-01	-2.11860570539E+01	4.85222075421E-05	4.78849031113E+01	5.61002370800E-05	3.34426988771E+01	2.69241999571E-01	-3.73078095313E+01
7.52705410822E+10	1.93453285551E-01	-2.28435864606E+01	2.05324018186E-05	-2.73255980769E+01	1.43868230504E-05	7.38804875785E+01	2.69995045817E-01	-3.83857003651E+01
7.52765531062E+10	1.92348931538E-01	-2.32139939440E+01	6.31759902613E-05	-8.07416808722E+01	3.28675764208E-05	-5.94298656560E+01	2.65449868510E-01	-3.80369639067E+01
7.52825651303E+10	1.89750763249E-01	-2.21157399041E+01	4.25810478248E-05	-1.13770352188E+02	3.32566691771E-06	-6.83126869417E+01	2.66247495602E-01	-3.84908950455E+01
7.52885771543E+10	1.91818389052E-01	-2.25743006205E+01	9.94356804766E-06	-8.59116716488E+01	3.80817809159E-05	-1.11217925094E+02	2.72612275780E-01	-4.03037264974E+01
7.52945891784E+10	1.92516920277E-01	-2.15824880973E+01	9.44165448961E-05	1.00663755700E+02	4.85656519915E-05	1.26441152165E+02	2.73148924757E-01	-4.04861710738E+01
7.53006012024E+10	1.92180924800E-01	-2.27069104789E+01	2.33521280648E-05	3.28418945576E+01	4.66673469968E-05	4.99488047410E+01	2.66852233288E-01	-3.92146029170E+01
7.53066132265E+10	1.89164450005E-01	-2.25895348172E+01	3.72485297443E-05	9.50280183854E+01	5.70873903430E-05	-5.21908245113E+01	2.64895215471E-01	-3.91238982285E+01
7.53126252505E+10	1.90018239935E-01	-2.34663132901E+01	4.94399761088E-05	2.31129811971E+01	5.37282305889E-05	1.33395555033E+02	2.64039420946E-01	-3.99909745857E+01
7.53186372745E+10	1.94259886634E-01	-2.52571765257E+01	6.15837604615E-05	-6.32241094306E+01	2.43854530813E-05	-1.79902598314E+01	2.67814065968E-01	-4.12220828141E+01
7.53246492986E+10	1.93274711375E-01	-2.46473747941E+01	8.07903138402E-05	-1.39822978500E+02	4.69643418279E-05	-1.65810157690E+02	2.70813954627E-01	-4.15996648640E+01
7.53306613226E+10	1.92430658498E-01	-2.42778066448E+01	2.28329369821E-05	1.78083974262E+02	3.14596957640E-05	7.06950867545E+01	2.71105656000E-01	-4.17141645984E+01
7.53366733467E+10	1.89850771829E-01	-2.50558756415E+01	4.89264687464E-05	-1.07563348148E+02	4.18704209359E-05	-5.23287089963E+01	2.67515515661E-01	-4.29656852076E+01
7.53426853707E+10	1.89815113706E-01	-2.37735512251E+01	3.38204200822E-05	-1.05335075292E+02	5.79689233795E-05	-5.22547646310E+01	2.65485778233E-01	-4.16543068790E+01
7.53486973948E+10	1.93239727310E-01	-2.43341319165E+01	4.98440535718E-05	-1.53755965388E+02	3.81930568865E-05	-1.54563600731E+02	2.63024767691E-01	-4.10181049721E+01
7.53547094188E+10	1.88721132050E-01	-2.24563041882E+01	6.27915286313E-05	1.34304618825E+02	4.33086362703E-05	-9.71497189885E+01	2.68878841648E-01	-4.34352744171E+01
7.53607214429E+10	1.89236723182E-01	-2.36856160655E+01	4.22369839919E-05	-1.33178758681E+02	9.07463211429E-05	-1.29236783046E+02	2.69421753530E-01	-4.44286538929E+01
7.53667334669E+10	1.91637503631E-01	-2.58450438484E+01	2.39336733894E-05	-1.19154550875E+02	8.11675449490E-05	-1.66210146501E+02	2.61597572154E-01	-4.21238517217E+01
7.53727454910E+10	1.93012128270E-01	-2.61023112720E+01	3.96280391837E-05	-1.42141420120E+02	3.18389676667E-05	-7.64739000356E+00	2.61433173220E-01	-4.20958233122E+01
7.53787575150E+10	1.88466116651E-01	-2.48796873514E+01	3.42303762886E-05	1.35589217505E+02	6.28830307896E-06	-6.16940509749E+01	2.63455629822E-01	-4.34391735623E+01
7.53847695391E+10	1.89609401305E-01	-2.47680064532E+01	3.58224318435E-05	-1.71989958799E+02	4.88601858141E-05	-1.47143991135E+02	2.65770297649E-01	-4.45178420925E+01
7.53907815631E+10	1.88143716396E-01	-2.40452588153E+01	7.07735993530E-05	-1.08260452836E+02	3.38189606470E-05	-6.41080996507E+00	2.61850704689E-01	-4.37978273452E+01
7.53967935872E+10	1.89863519463E-01	-2.54212444035E+01	5.84546627483E-05	-8.70477391667E+01	2.75024197776E-05	-1.04283609867E+02	2.66477273512E-01	-4.48513511667E+01
7.54028056112E+10	1.91092459127E-01	-2.70288303494E+01	2.75418527921E-05	-1.63798514801E+02	1.05307622721E-04	-1.01170930187E+02	2.63126998734E-01	-4.39016653638E+01
7.54088176353E+10	1.88965420044E-01	-2.67784152059E+01	5.26059388647E-05	6.78006205306E+01	5.80824914673E-05	-1.60407181542E+02	2.59825198138E-01	-4.38117817334E+01
7.54148296593E+10	1.89877897694E-01	-2.63885343313E+01	4.33024541665E-05	-1.49514260496E+02	1.40545585012E-05	9.59650722359E+01	2.59223508166E-01	-4.55094255697E+01
7.54208416834E+10	1.93977219882E-01	-2.78451260303E+01	2.02035499277E-05	1.13069092094E+02	2.98626105886E-05	1.71439264073E+02	2.62826184522E-01	-4.56456069610E+01
7.54268537074E+10	1.91017563173E-01	-2.70778319881E+01	4.08017759246E-05	-1.37613588358E+02	4.03750775292E-05	7.82681516664E+01	2.66975167491E-01	-4.73478674072E+01
7.54328657315E+10	1.84784883020E-01	-2.40968143788E+01	5.71232735694E-05	1.78304133259E+02	3.09769018843E-05	1.49607869893E+02	2.60994191369E-01	-4.59312404295E+01
7.54388777555E+10	1.85486092865E-01	-2.52412114505E+01	4.34182191441E-05	1.04284908264E+02	1.04340281227E-04	1.71584819538E+02	2.58530012144E-01	-4.63800772812E+01
7.54448897796E+10	1.87203062842E-01	-2.78796335674E+01	4.46606970437E-05	1.32723710296E+02	9.03584916166E-05	1.35704999934E+02	2.58790275517E-01	-4.63840586364E+01
7.54509018036E+10	1.89621701649E-01	-2.67935179423E+01	5.67566517534E-05	9.22530204979E+01	4.49389010200E-05	-1.43824180726E+02	2.60915979372E-01	-4.77312516971E+01
7.54569138277E+10	1.88487680332E-01	-2.74082347113E+01	7.43943603289E-05	7.16726658322E+01	6.29120236465E-05	1.00054581742E+02	2.59577846074E-01	-4.77338611393E+01
7.54629258517E+10	1.90786462744E-01	-2.85357641650E+01	1.09390946451E-04	4.59297493222E+01	4.17511583152E-05	7.58027084129E+01	2.60357977616E-01	-4.77710941891E+01
7.54689378758E+10	1.89756408002E-01	-3.00162868006E+01	2.27036987265E-05	-1.66471841666E+00	4.34230553229E-05	5.12020532522E+01	2.59675245189E-01	-4.75609369568E+01
7.54749498998E+10	1.89985241520E-01	-2.91555547929E+01	1.93328294789E-05	-1.24347685058E+02	9.24569229331E-05	1.39594665444E+01	2.59655550810E-01	-4.82812118476E+01
7.54809619238E+10	1.89823652766E-01	-2.89881814090E+01	4.85514927781E-05	1.59821200090E+02	2.61217622118E-05	-6.97682195868E+01	2.59677133101E-01	-4.89201505057E+01
7.54869739479E+10	1.88206439578E-01	-2.73898802390E+01	2.29655598412E-05	-4.84499616490E+01	3.63662710186E-05	1.83681772571E+01	2.58347635228E-01	-4.95455982856E+01
7.54929859719E+10	1.85893418318E-01	-2.69319686394E+01	3.58870334899E-06	-9.84051986197E+01	1.62757959054E-05	-2.20545191603E+01	2.59546460553E-01	-4.95115065764E+01
7.54989979960E+10	1.85812650117E-01	-2.88701648602E+01	5.61569939918E-05	-8.23175789435E+00	7.07384867778E-05	-1.13806291511E+01	2.58165279515E-01	-4.93171571599E+01
7.55050100200E+10	1.89332981207E-01	-3.04027230950E+01	3.17156592143E-05	7.73836022882E+01	6.27165577171E-05	1.51064714892E+02	2.59993800867E-01	-5.01792796319E+01
7.55110220441E+10	1.89603120091E-01	-2.93486915397E+01	3.54138829726E-05	1.15965933981E+02	3.20674145443E-05	8.24224293434E+01	2.59717803061E-01	-5.16043536202E+01
7.55170340681E+10	1.85780850793E-01	-2.86572013654E+01	6.23584883685E-05	8.53614563060E+01	2.30502032491E-05	-1.16724522866E+02	2.60039830053E-01	-5.16648163553E+01
7.55230460922E+10	1.87830243379E-01	-3.05789676825E+01	5.43845566782E-05	9.59712691897E+01	3.52871285234E-05	2.62316383289E+01	2.56068997362E-01	-5.01581567080E+01
7.55290581162E+10	1.85550439118E-01	-2.96172637131E+01	7.43154098696E-05	6.23164211595E+01	3.89305449946E-05	7.74260587024E+01	2.54171706330E-01	-4.97763459851E+01
7.55350701403E+10	1.87867178369E-01	-3.01891453444E+01	7.41368143836E-05	1.81592706410E+01	7.02102468712E-05	3.36001231990E+01	2.53305046320E-01	-5.13207985198E+01
7.55410821643E+10	1.86798589034E-01	-2.99141244865E+01	5.78854466072E-05	5.45594970636E+01	6.77171154683E-05	4.29194959996E+01	2.54916734246E-01	-5.12270126069E+01
7.55470941884E+10	1.87583168379E-01	-3.02440445427E+01	7.04236046929E-05	1.03025535608E+01	5.95347978419E-05	5.35614820619E+01	2.54711954536E-01	-5.18042484872E+01
7.55531062124E+10	1.86872396089E-01	-3.04796897773E+01	9.50519886107E-05	2.01194461072E+00	1.20091634966E-05	1.22559991419E+01	2.56257536541E-01	-5.24137771545E+01
7.55591182365E+10	1.83095394260E-01	-2.99705594237E+01	5.01371912935E-05	3.73382995389E+01	1.98307168407E-05	4.21350139493E+01	2.52029484056E-01	-5.21982714378E+01
7.55651302605E+10	1.85086721552E-01	-3.08366384216E+01	4.95932208340E-05	7.26755373199E+01	1.12473870282E-04	-7.25182264983E+01	2.51942118724E-01	-5.18426480677E+01
7.55711422846E+10	1.90092398389E-01	-3.20817525713E+01	9.26321979484E-06	1.58334000421E+02	3.40217446094E-05	-1.30568108204E+02	2.55530282229E-01	-5.30332787245E+01
7.55771543086E+10	1.86066172348E-01	-3.14677303674E+01	4.47702813034E-05	6.40687724634E+01	4.00514384808E-05	-1.10146331903E+02	2.55146457538E-01	-5.42000271265E+01
7.55831663327E+10	1.83877677155E-01	-3.20177703890E+01	3.89692373539E-05	1.17779788541E+01	6.23413652661E-05	3.51177163612E+01	2.52398326172E-01	-5.44321939749E+01
7.55891783567E+10	1.85942658383E-01	-3.17708293851E+01	1.97259236267E-05	5.85517726884E+01	9.58816930900E-05	-4.92438166554E+01	2.50687031355E-01	-5.31947679081E+01
7.55951903808E+10	1.84862608568E-01	-3.16408956894E+01	4.52305748740E-05	1.19125802603E+02	2.50508796670E-05	-1.08227748887E+02	2.54324532838E-01	-5.43121012077E+01
7.56012024048E+10	1.88335080625E-01	-3.22248015553E+01	1.18623587192E-05	-7.29505126992E+01	3.69311637997E-05	-2.37543360090E+01	2.52134874973E-01	-5.44965084504E+01
7.56072144289E+10	1.86120078182E-01	-3.21773683696E+01	6.21130918429E-05	7.79281886983E+01	5.99826268250E-05	-5.38520569513E+00	2.48016588658E-01	-5.41850477568E+01
7.56132264529E+10	1.84801066933E-01	-3.22139745596E+01	4.51632708075E-05	-2.77841019924E+01	5.40908805689E-05	-7.06733395187E+01	2.51188714828E-01	-5.50069790771E+01
7.56192384770E+10	1.84651681765E-01	-3.36528473374E+01	8.52657601372E-05	5.90471911066E+01	9.14649399368E-06	-2.39465233459E+01	2.50215379764E-01	-5.52720580563E+01
7.56252505010E+10	1.85359426333E-01	-3.36356998488E+01	1.09463336412E-05	7.38987217112E+01	6.39385437261E-05	-3.00760003826E+01	2.49871524560E-01	-5.46634304902E+01
7.56312625251E+10	1.85242431538E-01	-3.22985175547E+01	7.46610194509E-05	-3.80715082046E+01	2.50942215368E-05	-2.36542372626E+01	2.48076055969E-01	-5.57775711280E+01
7.56372745491E+10	1.84566432741E-01	-3.30755589568E+01	1.06950196474E-04	-6.40178255899E+01	1.50769918520E-04	-4.50390243398E+01	2.48308949231E-01	-5.54967159222E+01
7.56432865731E+10	1.83381347743E-01	-3.39807638874E+01	7.41390987143E-05	-8.08974993654E+01	1.35526474045E-04	-1.08497449243E+02	2.52279308569E-01	-5.70675197101E+01
7.56492985972E+10	1.82182918714E-01	-3.27084516766E+01	8.28638721109E-05	-9.43105527265E+01	3.31468467842E-05	-1.33738257657E+02	2.48720324325E-01	-5.68741728910E+01
7.56553106212E+10	1.85797622511E-01	-3.42054656936E+01	1.45942918361E-04	-1.53755499057E+02	2.88849122968E-05	-6.94190620408E+01	2.47290797966E-01	-5.67889630224E+01
7.56613226453E+10	1.85836176058E-01	-3.36805857806E+01	2.85665759728E-05	6.90329218116E+01	4.27110932979E-05	-1.05706948040E+02	2.46543959224E-01	-5.67562002804E+01
7.56673346693E+10	1.84574629167E-01	-3.40397589504E+01	3.58523952658E-05	1.34915833953E+01	4.09955460377E-05	-4.26295445047E+01	2.49740675613E-01	-5.83366445244E+01
7.56733466934E+10	1.82856090559E-01	-3.41668260281E+01	7.14763264250E-05	-9.04094369412E+01	2.34950545645E-05	-1.79532297829E+02	2.48629659151E-01	-5.92625786142E+01
7.56793587174E+10	1.81856439669E-01	-3.42217842291E+01	2.62149706158E-05	-1.26286637454E+02	2.16161195187E-05	3.29764800395E+01	2.43609062024E-01	-5.77768607887E+01
7.56853707415E+10	1.81831115936E-01	-3.41960398503E+01	2.24353437002E-05	-3.57824082670E+01	4.94326404848E-05	-1.00157344658E+02	2.47949018422E-01	-5.83244386097E+01
7.56913827655E+10	1.84339366755E-01	-3.55708904021E+01	6.14364215023E-05	-1.11085030410E+02	8.97811512207E-05	-1.09964325644E+02	2.44742253069E-01	-5.83648527552E+01
7.56973947896E+10	1.84373912006E-01	-3.57895251500E+01	3.67381719249E-05	-1.22973092901E+02	2.65134399068E-05	6.74166048136E+00	2.43648841114E-01	-5.90259660363E+01
7.57034068136E+10	1.85747590562E-01	-3.51709822066E+01	6.84942441843E-05	-1.43272354180E+02	4.85312213672E-05	-1.24265785429E+02	2.42445606213E-01	-5.94450142258E+01
7.57094188377E+10	1.81910928677E-01	-3.58526481409E+01	8.20229038170E-05	-4.72436142077E+01	2.96165894819E-05	-8.23615107642E+01	2.43083055847E-01	-5.93409090179E+01
7.57154308617E+10	1.82687163577E-01	-3.58056137894E+01	2.69573560902E-05	-1.04133261625E+02	1.74111442554E-05	4.14179146762E+01	2.43458732453E-01	-5.86824359015E+01
7.57214428858E+10	1.83318635685E-01	-3.47781166347E+01	2.55023983657E-05	-1.39430107500E+02	9.20321309588E-05	-1.43350384300E+02	2.46523739571E-01	-6.03609982724E+01
7.57274549098E+10	1.86135380749E-01	-3.68321996789E+01	6.44295167071E-05	-1.30908794995E+02	2.44401285240E-05	1.53480074372E+02	2.43697898758E-01	-6.10741127466E+01
7.57334669339E+10	1.83937840188E-01	-3.77235474699E+01	5.94918691743E-05	-1.60584149399E+02	9.33757657858E-05	1.62698945666E+02	2.44236497596E-01	-6.02782290203E+01
7.57394789579E+10	1.81843767032E-01	-3.73444115488E+01	2.24674685019E-05	-7.62052157973E+01	2.12376963434E-05	-1.42415440105E+02	2.43618339760E-01	-6.14368125486E+01
7.57454909820E+10	1.82610574548E-01	-3.67136118823E+01	4.19072319159E-05	1.65185985064E+02	1.99157490564E-05	-1.49311278203E+02	2.40174046139E-01	-6.05224107675E+01
7.57515030060E+10	1.85716927977E-01	-3.73732868757E+01	3.28146231414E-05	1.44027179383E+02	5.50196062023E-06	1.62815430649E+02	2.44579489340E-01	-6.12654373962E+01
7.57575150301E+10	1.82505527709E-01	-3.67372429158E+01	5.52462303076E-05	1.28314176369E+02	3.93921935840E-05	1.45238823641E+02	2.41625648415E-01	-6.21307649180E+01
7.57635270541E+10	1.80488498780E-01	-3.69356211936E+01	1.07691401985E-05	-1.54734519178E+02	7.79014011000E-06	1.26498420415E+02	2.39354868152E-01	-6.26292124566E+01
7.57695390782E+10	1.81746457137E-01	-3.76161061351E+01	4.64132690034E-05	5.82854076736E+01	5.92085752068E-05	6.86040111476E+01	2.43140665121E-01	-6.15225508789E+01
7.57755511022E+10	1.82647705272E-01	-3.84483155260E+01	3.49069935313E-05	-1.64949896518E+02	3.54904469646E-05	7.26964296505E+01	2.42096095482E-01	-6.28851691747E+01
7.57815631263E+10	1.80511104932E-01	-3.70810842614E+01	5.57447187661E-05	1.17146055323E+02	8.44633063896E-05	4.69674789401E+01	2.40341525804E-01	-6.32921368728E+01
7.57875751503E+10	1.80735575943E-01	-3.82163216301E+01	8.64857906805E-06	1.08860907443E+02	7.10317623659E-05	-1.17636001869E+02	2.38115850047E-01	-6.30516234520E+01
7.57935871743E+10	1.85256678767E-01	-3.96131878275E+01	6.63709024558E-05	-1.49730142243E+02	7.70541616378E-05	-1.72053597942E+02	2.39383270187E-01	-6.29062880800E+01
7.57995991984E+10	1.80020170908E-01	-3.97904883070E+01	5.85788230004E-05	1.45316781452E+02	5.79508597605E-05	-1.67002628876E+02	2.39537052517E-01	-6.33773166962E+01
7.58056112224E+10	1.80236675794E-01	-3.75056934926E+01	2.62673955022E-05	-7.72468676562E+01	2.93594054227E-05	1.08548936368E+02	2.40285504905E-01	-6.50049273441E+01
7.58116232465E+10	1.82419247522E-01	-3.78609875154E+01	3.24663434675E-05	1.38443355272E+02	5.94826484919E-05	1.10858644785E+02	2.35929110261E-01	-6.32253468218E+01
7.58176352705E+10	1.80756243626E-01	-3.91749362631E+01	1.07683749626E-05	4.22441347762E+01	4.70444549952E-05	1.70152881933E+02	2.36860194152E-01	-6.50894072119E+01
7.58236472946E+10	1.82978138699E-01	-4.12983783449E+01	4.32008452101E-05	1.05428038636E+02	3.64766038600E-05	5.85582753372E+01	2.38481821231E-01	-6.55139835666E+01
7.58296593186E+10	1.81493604472E-01	-4.06007341958E+01	2.03099375732E-05	1.19436059800E+02	1.57738653389E-05	1.67016087638E+02	2.39992248186E-01	-6.59151185742E+01
7.58356713427E+10	1.80458406504E-01	-3.96810518948E+01	3.97975157927E-05	1.43214396961E+01	4.64781380932E-05	6.90634983469E+01	2.34731104179E-01	-6.39830888222E+01
7.58416833667E+10	1.78689294360E-01	-3.84680482527E+01	3.69533305352E-05	-1.67137183020E+02	7.45136454890E-05	1.72554939080E+02	2.34510567459E-01	-6.55304177552E+01
7.58476953908E+10	1.79108674426E-01	-4.05791116661E+01	3.72169412208E-05	-1.48793629325E+02	4.52031231619E-05	1.32680176435E+02	2.34027477042E-01	-6.67203398537E+01
7.58537074148E+10	1.81827503148E-01	-4.03508303349E+01	5.71268994019E-05	1.27891212135E+02	1.31689041647E-04	1.06349734103E+02	2.37468831127E-01	-6.64781557040E+01
7.58597194389E+10	1.82180054600E-01	-4.06029816046E+01	4.36805452099E-05	4.63668593038E+01	7.23929552635E-05	-3.01335126348E+01	2.33981662735E-01	-6.65019123455E+01
7.58657314629E+10	1.80006118864E-01	-4.01906360164E+01	4.76580069221E-05	-1.25422750102E+02	8.90109362601E-05	-1.72584909054E+02	2.35518246532E-01	-6.62681038130E+01
7.58717434870E+10	1.77098525816E-01	-4.03806569996E+01	8.54743904294E-05	-1.31684448933E+02	9.27105450271E-05	1.10398033088E+02	2.35014058078E-01	-6.66663386400E+01
7.58777555110E+10	1.79605354981E-01	-4.08586471001E+01	4.61470827143E-05	-1.37456724812E+02	4.83273423905E-05	-8.57968250413E+01	2.35564756540E-01	-6.67701747249E+01
7.58837675351E+10	1.78246290978E-01	-4.25155981802E+01	6.32523761852E-05	1.13229475200E+02	8.17174756574E-05	-1.75471617504E+02	2.33820065187E-01	-6.80024809513E+01
7.58897795591E+10	1.79442314679E-01	-4.20396965419E+01	7.77714221348E-05	1.27124888103E+02	3.90336398357E-05	1.54190446423E+02	2.34174874179E-01	-6.86201008106E+01
7.58957915832E+10	1.79280204599E-01	-4.29272961670E+01	6.66761375524E-05	1.48982720335E+02	6.09885690318E-05	9.32805130119E+01	2.30526996870E-01	-6.79089955362E+01
7.59018036072E+10	1.79282320953E-01	-4.19492198400E+01	1.08311537126E-04	9.31834633973E+01	8.60592883239E-05	8.39624174541E+01	2.32356636928E-01	-6.85509117145E+01
7.59078156313E+10	1.77753482848E-01	-4.11849024337E+01	2.28372880949E-05	1.04461018097E+02	4.01279105249E-05	3.89318322502E+01	2.32523039102E-01	-6.86611804561E+01
7.59138276553E+10	1.77161668015E-01	-4.24882441586E+01	4.31239520102E-05	-1.71531787303E+02	5.38704114817E-05	6.44517009744E+01	2.32520340693E-01	-7.00824802468E+01
7.59198396794E+10	1.80235840429E-01	-4.23827875489E+01	2.73791980048E-05	1.10945907491E+02	1.32774082884E-04	5.86389071622E+01	2.32951611742E-01	-7.05270189170E+01
7.59258517034E+10	1.78280188495E-01	-4.20426638743E+01	3.75533492925E-05	5.36333958871E+01	7.14038309611E-05	1.73186424459E+02	2.33611200326E-01	-7.06529920882E+01
7.59318637275E+10	1.78251663313E-01	-4.34599401399E+01	8.91294770135E-05	1.90370758469E+01	9.34497038587E-05	4.89495338249E+01	2.33020085939E-01	-7.04807355417E+01
7.59378757515E+10	1.75846676341E-01	-4.36214594257E+01	1.87337206800E-05	-1.49881871986E+02	2.22611267864E-05	-1.52257409908E+02	2.29983053897E-01	-6.99203315906E+01
7.59438877756E+10	1.78143341632E-01	-4.22993217552E+01	3.91738507472E-05	1.09801698192E+02	3.01735794915E-05	-8.40717431210E+01	2.30788971001E-01	-7.02386149296E+01
7.59498997996E+10	1.78663371431E-01	-4.25684080255E+01	6.94445081516E-05	8.19288400283E+01	1.68235720162E-05	1.93398700339E+01	2.32122683415E-01	-7.22918537763E+01
7.59559118236E+10	1.78162174866E-01	-4.31599632054E+01	3.23580744197E-05	1.41204155149E+02	2.89518917633E-06	1.25574217748E+02	2.31088559453E-01	-7.23897671249E+01
7.59619238477E+10	1.77596921285E-01	-4.52091726712E+01	7.03159628099E-05	5.40476795899E+01	6.26445880829E-05	6.24816394942E+01	2.28854789969E-01	-7.21535221625E+01
7.59679358717E+10	1.76542986790E-01	-4.31179346517E+01	5.86048264523E-05	5.01818534992E+01	2.73335295198E-05	2.19572011829E+01	2.27790726130E-01	-7.21659578053E+01
7.59739478958E+10	1.78481349181E-01	-4.33903964641E+01	8.01883176457E-06	-5.79476689714E+01	6.56822017149E-05	-3.13629353971E+01	2.26575300244E-01	-7.13025317516E+01
7.59799599198E+10	1.78810356401E-01	-4.44946694684E+01	8.28947562895E-05	-8.64886316392E-01	3.14597530230E-05	-1.30975647552E+01	2.30821335596E-01	-7.34455224106E+01
7.59859719439E+10	1.73946098768E-01	-4.42984822933E+01	5.28440062105E-05	6.94631871477E+00	6.06055673378E-05	2.35797125815E+00	2.28570301322E-01	-7.36858495505E+01
7.59919839679E+10	1.77261174188E-01	-4.51268211638E+01	2.90372400588E-05	-1.10307304529E+02	5.17869767438E-05	6.26535668087E+01	2.29367944238E-01	-7.39015576277E+01
7.59979959920E+10	1.77953786355E-01	-4.49745859879E+01	3.93583855623E-05	1.31585027325E+02	4.18955979866E-05	1.31070115902E+01	2.24300697405E-01	-7.30071362230E+01
7.60040080160E+10	1.75280975316E-01	-4.47220554492E+01	5.68355635942E-05	-2.86404708315E+01	1.55762428888E-05	-1.63173732984E+01	2.27790098415E-01	-7.41837989632E+01
7.60100200401E+10	1.76777509599E-01	-4.68580835778E+01	8.03362996851E-05	5.80921962804E+01	4.69625104054E-05	1.09333949062E+02	2.25197060035E-01	-7.46071221588E+01
7.60160320641E+10	1.75239282203E-01	-4.62243547522E+01	9.49322277010E-05	4.66600064327E+01	1.11865570046E-04	6.65874652052E+01	2.26644833831E-01	-7.42192149756E+01
7.60220440882E+10	1.75076423205E-01	-4.67750011773E+01	1.58067069479E-04	-1.81719499517E+01	7.78411618647E-05	-2.00248797931E+01	2.24094198932E-01	-7.34204656359E+01
7.60280561122E+10	1.76022095810E-01	-4.74030369400E+01	6.58092373993E-05	-6.95923462508E+01	9.89106880564E-05	5.62590454602E+01	2.22801159124E-01	-7.51499337176E+01
7.60340681363E+10	1.73620879867E-01	-4.38130728707E+01	7.84244939544E-05	-5.91611791499E+01	7.03186987046E-05	-6.10508840929E+01	2.23125901353E-01	-7.60349144798E+01
7.60400801603E+10	1.74085977111E-01	-4.58771004482E+01	9.00407704040E-05	-5.50054115076E+01	9.30793223900E-05	-7.19902810682E+01	2.26903630679E-01	-7.77440738115E+01
7.60460921844E+10	1.73613902238E-01	-4.58272276575E+01	4.68482566793E-05	-8.32414803189E+01	6.11355630154E-05	-8.78975277135E+01	2.23206092987E-01	-7.58290572359E+01
7.60521042084E+10	1.72211174453E-01	-4.63789729591E+01	6.30275403398E-05	-1.13710968526E+02	6.52689925355E-05	-7.01225232583E+01	2.22357509610E-01	-7.58355417180E+01
7.60581162325E+10	1.73236627223E-01	-4.63196004444E+01	6.91001263572E-05	2.94856865542E+01	2.42910573840E-05	-1.43211342427E+02	2.23575910027E-01	-7.65621518946E+01
7.60641282565E+10	1.74817514213E-01	-4.65619016979E+01	9.03316979144E-05	-8.71706429058E+01	6.80188182810E-05	-1.06405421055E+02	2.21501534769E-01	-7.73790783367E+01
7.60701402806E+10	1.71875253637E-01	-4.55534587830E+01	5.96725116649E-05	-4.12863687273E+01	4.99597330113E-05	-1.03510559837E+02	2.21678937333E-01	-7.75002394526E+01
7.60761523046E+10	1.73664754842E-01	-4.85605576121E+01	1.37976884591E-05	-7.11266138026E+01	5.68037066750E-05	-1.41191878752E+02	2.21513704094E-01	-7.78144674230E+01
7.60821643287E+10	1.75052710590E-01	-4.78845087417E+01	3.73850585889E-05	-1.37587863566E+02	8.84120232275E-06	5.71722839318E+01	2.19914023332E-01	-7.76481944852E+01
7.60881763527E+10	1.73449100861E-01	-4.59138026697E+01	4.04974662566E-05	1.23990771094E+02	3.24641117963E-05	-1.65564523826E+00	2.20624298806E-01	-7.83563765756E+01
7.60941883768E+10	1.71109835773E-01	-4.77001323254E+01	6.21361249399E-05	-8.07628010976E+01	6.10526235581E-05	-1.10864552960E+01	2.18774304231E-01	-7.83789571415E+01
7.61002004008E+10	1.71987767971E-01	-4.74536515873E+01	9.92071411224E-05	-6.93137494113E+01	2.49778694603E-05	1.50582175580E+02	2.18460550658E-01	-7.86637579780E+01
7.61062124248E+10	1.74689200180E-01	-4.85853346627E+01	9.13526619190E-05	-1.11396776090E+02	9.00669292374E-05	-1.05556609514E+02	2.17960320240E-01	-7.89341542804E+01
7.61122244489E+10	1.71370379464E-01	-4.92034013419E+01	9.26621968093E-05	-1.34101847349E+02	9.79880215286E-05	-1.33950458710E+02	2.16434093632E-01	-7.91071065839E+01
7.61182364729E+10	1.74610304251E-01	-4.97599637806E+01	1.63724734715E-05	-9.52418873570E+01	2.67386505784E-05	1.63382961321E+02	2.16873904336E-01	-7.94859526958E+01
7.61242484970E+10	1.69067354045E-01	-4.65092668891E+01	3.43116072632E-05	-1.74360033411E+02	7.27249473746E-05	-1.72447629756E+02	2.17627443597E-01	-8.04593873896E+01
7.61302605210E+10	1.70474971860E-01	-4.69236918284E+01	5.37816025291E-05	-1.78313345136E+02	6.78092442839E-05	1.62873165111E+02	2.16577256145E-01	-8.01374174977E+01
7.61362725451E+10	1.71150420089E-01	-4.96939323651E+01	1.97293771839E-05	7.25092643886E+01	2.77421647414E-05	2.30758554503E+01	2.16626410368E-01	-8.15149410787E+01
7.61422845691E+10	1.72784384332E-01	-4.85203951034E+01	5.39069240918E-05	-2.46843527014E+01	1.45954502087E-05	-2.26357471156E+01	2.15480726256E-01	-8.14431437369E+01
7.61482965932E+10	1.69751301223E-01	-5.03501379445E+01	5.08230983203E-05	-5.01836991507E+01	5.27566581914E-05	1.66036814928E+02	2.15497712820E-01	-8.11918458278E+01
7.61543086172E+10	1.73892198262E-01	-5.00653298753E+01	1.05763470345E-04	1.41555251252E+01	6.84876859808E-05	-7.34238626785E+01	2.14384815268E-01	-8.09069949851E+01
7.61603206413E+10	1.71311519517E-01	-4.91905262768E+01	1.21140623490E-04	1.20498446065E+00	4.56241799813E-05	-1.53108077802E+01	2.17118388290E-01	-8.25707882837E+01
7.61663326653E+10	1.69757783318E-01	-4.73369048763E+01	1.19835768527E-05	-6.71469049323E+01	2.04584355127E-05	-1.25654866901E+02	2.11705976548E-01	-8.10963671225E+01
7.61723446894E+10	1.72903532174E-01	-5.02952714556E+01	3.12927660660E-05	3.33882534755E+01	5.09659527089E-05	1.47926257663E+02	2.13299136702E-01	-8.27721074126E+01
7.61783567134E+10	1.72341182902E-01	-5.06023133615E+01	4.25745266137E-05	1.40201398944E+02	5.73752822813E-05	-8.89415820311E+01	2.14340815264E-01	-8.35858426970E+01
7.61843687375E+10	1.70293931177E-01	-5.08818490449E+01	2.78531175045E-05	1.69606499718E+02	5.17147544611E-05	3.21698686095E+00	2.10639628123E-01	-8.26796238853E+01
7.61903807615E+10	1.71279757768E-01	-5.17194360178E+01	4.00048084773E-05	1.14778503976E+02	4.01491857170E-06	-2.31049648804E+01	2.10859515053E-01	-8.32029656769E+01
7.61963927856E+10	1.70494795538E-01	-4.82998961799E+01	3.35186003773E-05	-1.15522910646E+02	9.37334161794E-05	-1.11979512798E+02	2.10567196051E-01	-8.30775058768E+01
7.62024048096E+10	1.68128491907E-01	-5.10544684187E+01	7.87996603129E-05	1.63505595618E+02	4.03367070810E-05	1.71613614111E+02	2.12344537065E-01	-8.42265862058E+01
7.62084168337E+10	1.68706387822E-01	-5.13379944366E+01	7.22883362010E-05	1.57693909508E+02	5.73062792253E-05	1.23629327586E+02	2.11652076558E-01	-8.48553841031E+01
7.62144288577E+10	1.69364679320E-01	-5.11575187964E+01	3.95624490130E-05	-1.56568420267E+02	3.50442998264E-05	1.75500759816E+02	2.09464913891E-01	-8.40249794458E+01
7.62204408818E+10	1.69514735955E-01	-4.95878552746E+01	6.15795439721E-05	3.75949111232E+01	6.99275802330E-05	8.29073458612E+01	2.09973893512E-01	-8.51363763386E+01
7.62264529058E+10	1.70224840843E-01	-5.21229682326E+01	4.15477339172E-05	1.00333562694E+01	9.71646295173E-05	1.63088609302E+02	2.08217657851E-01	-8.51941059513E+01
7.62324649299E+10	1.68682666895E-01	-5.20078872542E+01	6.43926576710E-05	2.91862422433E+01	5.51177941800E-05	6.50758380364E+01	2.05323965828E-01	-8.38328104773E+01
7.62384769539E+10	1.68335765851E-01	-5.18091258832E+01	4.00530129005E-05	1.70746666166E+02	2.42980412242E-05	-3.99295253072E+01	2.07313433865E-01	-8.60243832562E+01
7.62444889780E+10	1.67838286421E-01	-5.13386500055E+01	2.07492350768E-05	3.67260261995E+01	5.34864401828E-05	-9.58479685624E+01	2.07187457820E-01	-8.61321114839E+01
7.62505010020E+10	1.69757757754E-01	-5.15379381768E+01	9.54216762413E-05	-1.08709159781E+02	9.01939795703E-05	-1.47804229885E+02	2.07513291298E-01	-8.66286769696E+01
7.62565130261E+10	1.68290792867E-01	-4.98182204433E+01	2.55394768601E-05	-1.56510484684E+02	2.54404819229E-05	1.70209131542E+02	2.05435954599E-01	-8.64397412360E+01
7.62625250501E+10	1.68489650021E-01	-5.23310406460E+01	4.16865265922E-05	-8.94240449984E+01	1.75026387666E-05	1.43482058664E+00	2.07978613394E-01	-8.70877444466E+01
7.62685370741E+10	1.67995932865E-01	-5.15392369656E+01	8.31116952824E-05	1.64793520404E+02	9.03627614898E-05	8.89855519280E+01	2.05391926637E-01	-8.71884390042E+01
7.62745490982E+10	1.67486075687E-01	-5.21901385766E+01	4.34157603887E-05	1.60966478873E+02	8.34283111088E-05	1.55057088350E+02	2.07254826805E-01	-8.79136901238E+01
7.62805611222E+10	1.68925353178E-01	-5.23860783881E+01	1.20624453510E-04	1.38731036030E+02	2.74278521190E-05	1.07290018554E+02	2.03922088318E-01	-8.79706449032E+01
7.62865731463E+10	1.68736792661E-01	-5.27445150920E+01	1.29585922357E-04	1.37817974144E+02	1.16266250916E-04	9.43124077195E+01	2.02333740414E-01	-8.76485356853E+01
7.62925851703E+10	1.66370534976E-01	-5.18838454504E+01	5.62119159511E-05	8.08016094747E+01	9.24421224666E-06	1.48572389708E+01	2.01779308054E-01	-8.77494347943E+01
7.62985971944E+10	1.68693665992E-01	-5.39527585489E+01	1.88901776284E-05	-4.64733081966E+01	5.34486797723E-05	6.02465240588E+01	2.01303685119E-01	-8.78592448085E+01
7.63046092184E+10	1.66420026121E-01	-5.32303707924E+01	6.57565214957E-05	1.36923238503E+02	5.93849691373E-05	-5.99494356694E+01	2.01777497157E-01	-8.85756127967E+01
7.63106212425E+10	1.67474877316E-01	-5.38341066287E+01	3.35857407109E-05	9.26083587501E+01	5.36263399774E-05	1.03771555734E+02	2.03215018729E-01	-8.99535685946E+01
7.63166332665E+10	1.65551611057E-01	-5.37883386949E+01	4.73094092099E-05	1.65532707908E+02	7.72612957983E-05	1.14783316931E+02	2.02562504432E-01	-9.03989595919E+01
7.63226452906E+10	1.69954838433E-01	-5.47635261846E+01	8.05543276882E-05	1.58146620101E+02	1.52672975219E-05	1.64478645876E+02	2.01245969542E-01	-9.04076339611E+01
7.63286573146E+10	1.66440541522E-01	-5.41735842662E+01	6.47064729352E-05	2.15182162309E+01	3.05034823660E-05	8.19494132802E+01	1.97818831730E-01	-8.90266118383E+01
7.63346693387E+10	1.65573810078E-01	-5.48343717118E+01	8.85191670021E-05	1.64885087951E+02	1.43693637683E-05	4.41833783115E+01	2.01410447989E-01	-9.09065215904E+01
7.63406813627E+10	1.65592515122E-01	-5.41801379924E+01	9.98699930363E-05	1.27557109938E+02	8.13599440432E-05	1.53688258607E+02	2.00137792425E-01	-9.17988648544E+01
7.63466933868E+10	1.68366095505E-01	-5.39093627996E+01	3.02843183640E-05	1.38848820726E+02	3.01441032841E-05	-1.78202999537E+02	1.99849278484E-01	-9.19401424344E+01
7.63527054108E+10	1.65081288052E-01	-5.28650025945E+01	9.25064484728E-05	3.41045758556E+01	3.63587782172E-05	6.77285950779E+01	1.98322247728E-01	-9.11098625114E+01
7.63587174349E+10	1.64856280809E-01	-5.38472992510E+01	4.62622960842E-05	7.35882882508E+01	3.79400847022E-05	2.80071446434E+01	1.99942796823E-01	-9.21879751586E+01
7.63647294589E+10	1.66971748854E-01	-5.51614366438E+01	7.51648045750E-05	7.38391635403E+01	3.45167546145E-05	1.15899566606E+02	1.96738652782E-01	-9.15582482431E+01
7.63707414830E+10	1.65836853265E-01	-5.35971140916E+01	1.94869067703E-05	-1.73979990015E+02	3.47868496102E-05	9.20482764382E+01	1.95271615922E-01	-9.21406487080E+01
7.63767535070E+10	1.65921452016E-01	-5.47841631349E+01	6.16787401498E-05	7.41538667602E+01	7.18831310584E-05	3.99833223053E+01	1.98167703084E-01	-9.33151378021E+01
7.63827655311E+10	1.65537682712E-01	-5.61383475829E+01	3.74772455414E-05	1.03491027729E+01	9.81853850714E-05	5.92929730456E+01	1.96236184720E-01	-9.31880521250E+01
7.63887775551E+10	1.65948101759E-01	-5.57569329666E+01	4.69001349152E-05	-2.51396122878E+01	1.01004425338E-04	5.49931247453E+01	1.94712511198E-01	-9.26706092991E+01
7.63947895792E+10	1.63995456089E-01	-5.37263710303E+01	6.86277886100E-05	1.71245807698E+01	3.90680651178E-05	-1.79516444746E+01	1.94098106386E-01	-9.29544680110E+01
7.64008016032E+10	1.61873789962E-01	-5.52085662679E+01	7.36053785839E-05	-1.39587716451E+02	5.27976087134E-05	-4.44761997719E+01	1.91604100202E-01	-9.28543011224E+01
7.64068136273E+10	1.67173065983E-01	-5.65068682913E+01	2.42783384099E-06	6.50604375723E+01	3.55111756144E-05	9.12312935433E+01	1.93215400899E-01	-9.46155372701E+01
7.64128256513E+10	1.65951135707E-01	-5.76748529208E+01	2.47380228938E-05	-3.17247570502E+01	1.12388077497E-04	1.66163281521E+02	1.95843319122E-01	-9.63599807813E+01
7.64188376754E+10	1.64165810219E-01	-5.60712438754E+01	3.25218969357E-05	7.28438712574E+01	6.07356363266E-05	-1.28325143604E+02	1.93259143283E-01	-9.48391158575E+01
7.64248496994E+10	1.63137574774E-01	-5.48861465048E+01	7.15630865791E-05	1.18204823633E+02	6.84917191311E-05	1.22688417348E+02	1.91611378505E-01	-9.55967461461E+01
7.64308617234E+10	1.64922443174E-01	-5.56656700174E+01	5.39764275729E-05	9.39270595981E+00	4.14719866068E-05	1.26145327532E+02	1.90285999982E-01	-9.50829379249E+01
7.64368737475E+10	1.64652887488E-01	-5.58492296013E+01	8.40231422902E-05	2.16326421588E+01	5.40606446877E-05	5.76431282472E+01	1.91917996365E-01	-9.58315622281E+01
7.64428857715E+10	1.65112434761E-01	-5.64614247036E+01	1.38575601688E-04	6.79903814267E+01	3.17398788758E-05	1.49238153489E+01	1.90593827833E-01	-9.58760524303E+01
7.64488977956E+10	1.63990765311E-01	-5.76773035787E+01	7.93639316399E-05	1.88621109313E+00	9.23102511467E-05	7.23385996778E+01	1.90434313588E-01	-9.61378574429E+01
7.64549098196E+10	1.63186660937E-01	-5.78847272335E+01	8.98759705766E-05	6.08379391546E+01	5.70346985926E-05	1.99738411823E+01	1.89413031241E-01	-9.59472587804E+01
7.64609218437E+10	1.62935258618E-01	-5.80793324970E+01	4.75249714759E-05	-4.75950150156E+01	1.99846541769E-05	-1.12780939317E+01	1.89388204042E-01	-9.70397138707E+01
7.64669338677E+10	1.63775404859E-01	-5.85296308969E+01	4.13061346597E-05	4.78915108775E+01	1.10949679968E-04	7.39741950926E+01	1.89441583441E-01	-9.81799318845E+01
7.64729458918E+10	1.65038760968E-01	-5.87078412856E+01	2.90358879527E-05	5.20713733605E+01	4.64558371527E-05	9.16201572396E+00	1.90283732823E-01	-9.85186664657E+01
7.64789579158E+10	1.64992287842E-01	-5.80712753126E+01	4.53209965574E-05	-9.95535463498E+00	7.62201441647E-05	5.35825267081E+01	1.88523911391E-01	-9.81882244627E+01
7.64849699399E+10	1.64083213043E-01	-5.62058664052E+01	1.04110644099E-04	4.74188660135E+00	7.28784759471E-05	3.94753469808E+01	1.88707672430E-01	-9.86949987978E+01
7.64909819639E+10	1.63595175011E-01	-5.79917309693E+01	4.51193810048E-05	1.65111126709E+02	6.39306310894E-05	8.92047049514E+01	1.88106763536E-01	-9.94071983337E+01
7.64969939880E+10	1.64367462988E-01	-5.95475022303E+01	5.95087305315E-05	3.97897801593E+00	1.28480245878E-04	5.88867219637E+01	1.86471974463E-01	-9.96255308656E+01
7.65030060120E+10	1.63645035920E-01	-6.02353666799E+01	7.53776590178E-05	-1.36703112034E+01	9.92755686503E-05	9.94291443495E+00	1.85521551483E-01	-9.94581742739E+01
7.65090180361E+10	1.65569617375E-01	-5.99971317361E+01	4.67664984117E-05	3.09842872315E+01	2.52145258429E-05	6.59691457669E+01	1.85186431278E-01	-1.00046161815E+02
7.65150300601E+10	1.63365147245E-01	-5.81191930456E+01	7.52400427878E-05	-2.59925129298E+01	7.04194041892E-05	-5.88750979464E+01	1.83551416469E-01	-9.98806719426E+01
7.65210420842E+10	1.61624678270E-01	-5.87573581992E+01	8.36638810654E-05	-4.04933879381E+01	1.11213699617E-04	-6.01153093734E+01	1.85405509744E-01	-1.01151006963E+02
7.65270541082E+10	1.61604861575E-01	-5.93706669308E+01	5.07282715780E-05	1.27598087814E+02	7.07670372795E-05	-3.54225971117E+01	1.85355114877E-01	-1.01508278005E+02
7.65330661323E+10	1.62692872067E-01	-5.82795648031E+01	9.03096102961E-05	1.82240586317E+01	7.05539171168E-05	-8.89086760663E-01	1.82697725949E-01	-1.00548646875E+02
7.65390781563E+10	1.63446070518E-01	-5.93378383986E+01	3.13578429638E-05	-9.91039530845E+00	4.49521186033E-05	7.18931492669E+01	1.82847807336E-01	-1.02107597788E+02
7.65450901804E+10	1.65840779562E-01	-6.06641766570E+01	1.38250321509E-04	-2.94693723339E+01	1.82142865692E-04	-3.62583668426E+01	1.82476404216E-01	-1.02713618319E+02
7.65511022044E+10	1.61055058234E-01	-5.72446560832E+01	6.59792247613E-05	-9.80267665414E+01	1.60129078008E-04	-6.73220317377E+01	1.81337860869E-01	-1.02760214166E+02
7.65571142285E+10	1.61053840989E-01	-5.82077874645E+01	1.24560539078E-04	-7.82716368226E+01	1.24625872395E-04	-6.92997104172E+01	1.80474707887E-01	-1.02183214036E+02
7.65631262525E+10	1.63163301006E-01	-6.06415964235E+01	1.11543668287E-04	-3.06456529498E+01	1.05773940771E-04	-7.05160715322E+01	1.81334333573E-01	-1.03264328515E+02
7.65691382766E+10	1.63271902351E-01	-6.10094370302E+01	1.40500350403E-04	-7.76962194413E+01	1.37177672170E-04	-1.34629929719E+02	1.79878707144E-01	-1.04099275166E+02
7.65751503006E+10	1.63820599468E-01	-6.20802807604E+01	7.25798590951E-05	-5.64885770237E+01	6.06070516433E-05	-4.84345192256E+01	1.79901724171E-01	-1.03875234276E+02
7.65811623246E+10	1.63130799352E-01	-6.16971856110E+01	1.30076461226E-04	-1.30537110925E+02	1.49982163301E-04	-1.09458235411E+02	1.78938223029E-01	-1.04031962080E+02
7.65871743487E+10	1.62370354451E-01	-6.14731488672E+01	4.32433160360E-05	-9.51864211433E+01	7.47144435712E-05	-1.26074070343E+02	1.79237971208E-01	-1.05254729056E+02
7.65931863727E+10	1.60408185790E-01	-5.90724740028E+01	7.22964124281E-05	-9.64417925805E+01	1.23404247496E-04	-9.50452411646E+01	1.77460762790E-01	-1.04930623737E+02
7.65991983968E+10	1.63220745310E-01	-6.14597291445E+01	9.76764642384E-05	-1.14114831043E+02	1.46193840252E-04	-9.98547308831E+01	1.77287432785E-01	-1.05519211708E+02
7.66052104208E+10	1.61865242754E-01	-6.12499877232E+01	9.88064531851E-05	-1.26921172930E+02	9.29097742373E-05	-1.13861127760E+02	1.75351356166E-01	-1.05383454219E+02
7.66112224449E+10	1.60988165649E-01	-6.20769387093E+01	5.16067627315E-05	-1.59679100915E+02	7.68307179830E-05	-1.25039722466E+02	1.76687931726E-01	-1.06724494058E+02
7.66172344689E+10	1.62539114291E-01	-6.22902505722E+01	9.12660493045E-05	-9.23963745601E+01	8.93466539875E-05	-1.48097543516E+02	1.75943376285E-01	-1.06669662731E+02
7.66232464930E+10	1.62990971905E-01	-6.25968377304E+01	7.24751942254E-05	-1.17035113114E+02	1.13621515278E-04	-1.02349842174E+02	1.74839691550E-01	-1.06748344917E+02
7.66292585170E+10	1.63148259993E-01	-6.28386941074E+01	1.63995030042E-04	-1.49965604087E+02	1.77226611139E-04	-1.58646785151E+02	1.74075589157E-01	-1.07471279462E+02
7.66352705411E+10	1.62596915346E-01	-6.32909244214E+01	1.14515525974E-04	-1.65031921721E+02	1.47577116419E-04	1.72555720336E+02	1.72773771401E-01	-1.07644600141E+02
7.66412825651E+10	1.62630859327E-01	-6.37259185132E+01	9.96607447094E-05	1.64784783394E+02	1.01713387480E-04	1.73069341845E+02	1.71895915270E-01	-1.07716239020E+02
7.66472945892E+10	1.59927859810E-01	-6.19109143343E+01	1.07203872872E-04	-1.68680721926E+02	5.81608656443E-05	1.73882002476E+02	1.71485445991E-01	-1.07179129784E+02
7.66533066132E+10	1.61864110087E-01	-6.32612842330E+01	5.93471898778E-05	9.47723690692E+00	8.98738155124E-05	-1.49373056676E+02	1.72199827487E-01	-1.08395162215E+02
7.66593186373E+10	1.60177214939E-01	-6.41232243496E+01	9.67550404006E-05	1.54045016496E+02	8.65373936686E-05	-1.51624682961E+02	1.71241039161E-01	-1.09675097999E+02
7.66653306613E+10	1.60373553722E-01	-6.27333145797E+01	1.38724707876E-04	-1.50251914516E+02	1.00482817209E-04	1.78309430579E+02	1.71311036380E-01	-1.10307745767E+02
7.66713426854E+10	1.61570821043E-01	-6.35569812014E+01	6.42094031193E-05	-1.51257837275E+02	5.33787978815E-05	1.79760106407E+02	1.69346998773E-01	-1.10041691202E+02
7.66773547094E+10	1.62038493784E-01	-6.39127327998E+01	5.34739337947E-05	-1.66459356962E+02	1.60076657828E-04	-1.73574858734E+02	1.67071311066E-01	-1.09859287925E+02
7.66833667335E+10	1.60999997775E-01	-6.39684195638E+01	5.77786967653E-05	1.46520936303E+02	6.62867671101E-05	1.09290495483E+02	1.69086164858E-01	-1.10142755834E+02
7.66893787575E+10	1.61007042311E-01	-6.59089157175E+01	2.40512971885E-05	-1.35149096170E+02	4.58953047945E-05	1.40643556965E+02	1.67981233405E-01	-1.10515626339E+02
7.66953907816E+10	1.61967278456E-01	-6.56939301136E+01	8.60239697384E-05	-1.20120758357E+02	7.33660430580E-05	1.32423840520E+02	1.67707305881E-01	-1.11490411622E+02
7.67014028056E+10	1.61968183754E-01	-6.52615985942E+01	9.98299541471E-05	-1.66517124686E+02	6.10254854741E-05	1.23008686472E+02	1.67559858197E-01	-1.12832412784E+02
7.67074148297E+10	1.59688246351E-01	-6.43048357485E+01	4.93242702784E-05	-1.70909308793E+02	3.29792640679E-05	1.14608178895E+02	1.66390517618E-01	-1.12218650752E+02
7.67134268537E+10	1.58591012114E-01	-6.45373399229E+01	1.77290695735E-05	1.09757994053E+02	4.32111832104E-05	-1.27350209592E+02	1.64490482171E-01	-1.12307982029E+02
7.67194388778E+10	1.57212884031E-01	-6.28357782357E+01	9.42165717566E-05	1.22558246187E+02	1.11728837019E-04	1.26139765600E+02	1.63142778384E-01	-1.11568499193E+02
7.67254509018E+10	1.60760779565E-01	-6.61307910800E+01	1.12280363270E-04	1.36382594193E+02	7.27408324259E-05	1.04673809895E+02	1.64264638275E-01	-1.13029606367E+02
7.67314629259E+10	1.57914443344E-01	-6.49351542019E+01	1.15055544248E-04	1.17697188651E+02	1.40817395121E-04	9.20344769828E+01	1.64446098287E-01	-1.13923617361E+02
7.67374749499E+10	1.60886325914E-01	-6.60076828328E+01	4.27810778770E-05	6.70091441198E+01	6.52850166290E-05	7.42593988849E+01	1.61838805364E-01	-1.14217597418E+02
7.67434869739E+10	1.60806510519E-01	-6.55412962237E+01	4.12418475265E-05	-7.73033467535E+01	1.18214264337E-04	-1.49059404139E+02	1.59872247483E-01	-1.12602805953E+02
7.67494989980E+10	1.58406284544E-01	-6.49882039540E+01	4.78738472522E-05	7.19987638483E+01	1.09218302656E-04	1.33740954591E+02	1.60533357514E-01	-1.14278849108E+02
7.67555110220E+10	1.55551294740E-01	-6.52616899508E+01	4.71067292474E-05	4.77211355089E+01	9.36731793665E-05	1.40926857917E+02	1.60502505617E-01	-1.14476889863E+02
7.67615230461E+10	1.57754344188E-01	-6.61195776575E+01	1.63088221177E-05	5.14332793487E+01	7.02499003374E-05	8.03187917828E+01	1.59658320098E-01	-1.15454475393E+02
7.67675350701E+10	1.58917346318E-01	-6.71587968519E+01	7.23842614014E-05	9.72119339099E+01	1.27697498768E-04	1.00563322966E+02	1.58892366854E-01	-1.16615002390E+02
7.67735470942E+10	1.58743124222E-01	-6.64201462949E+01	8.24760863793E-05	5.98966354327E+01	3.22580260384E-05	4.05715500023E+01	1.57852963141E-01	-1.15586710159E+02
7.67795591182E+10	1.59536630145E-01	-6.70682953361E+01	5.87293643026E-05	3.60298487500E+01	6.09417078829E-05	6.90244310152E+01	1.56714565621E-01	-1.14726817899E+02
7.67855711423E+10	1.59702621275E-01	-6.71665489927E+01	3.26938935870E-05	1.49085578969E+02	3.26240205671E-06	1.00324229659E+02	1.56520238074E-01	-1.17098353908E+02
7.67915831663E+10	1.55690656107E-01	-6.69932593733E+01	2.20505510527E-05	7.65864840792E+01	9.91279118611E-05	1.21756285863E+02	1.57665575919E-01	-1.18823227915E+02
7.67975951904E+10	1.58482172597E-01	-6.79483603443E+01	6.16051081377E-05	1.09375086920E+02	6.70171662079E-05	4.99701654044E+01	1.55134954144E-01	-1.16767498993E+02
7.68036072144E+10	1.55114653831E-01	-6.83233415294E+01	4.52972266300E-05	8.23947884491E+01	3.69711909099E-05	3.31570050889E+01	1.54983461923E-01	-1.17794636249E+02
7.68096192385E+10	1.58488271962E-01	-6.88356347903E+01	1.00905559712E-04	2.43502760127E+01	9.80284538961E-05	6.38238103117E+01	1.54343956989E-01	-1.17858698504E+02
7.68156312625E+10	1.54799210969E-01	-6.60557001055E+01	2.96675874971E-05	-1.61984750967E+02	5.68577661099E-05	1.01109238649E+02	1.53568451185E-01	-1.19505078224E+02
7.68216432866E+10	1.55884750160E-01	-6.74367517322E+01	3.78771880932E-05	9.76564812289E+01	7.49030286128E-05	7.16705613826E+01	1.52127258531E-01	-1.20067195169E+02
7.68276553106E+10	1.54168862826E-01	-6.70816468760E+01	7.81683400331E-05	7.42812230963E+01	1.10265830266E-04	9.22265412978E+01	1.51538586189E-01	-1.19422902212E+02
7.68336673347E+10	1.58282745624E-01	-7.00535179846E+01	1.97511593481E-05	-7.25384207251E+00	6.18757330439E-05	6.03965279952E+01	1.50674849526E-01	-1.18350908156E+02
7.68396793587E+10	1.57281642840E-01	-6.80689055189E+01	2.11214982759E-05	-1.21961005960E+02	5.25380949289E-05	1.77287762861E+01	1.49741142738E-01	-1.19608991432E+02
7.68456913828E+10	1.56696126576E-01	-6.82142993313E+01	2.85367151780E-05	-2.92607847270E+01	2.85752710741E-05	-3.29084138409E+01	1.50018923148E-01	-1.20941605403E+02
7.68517034068E+10	1.55844488328E-01	-6.80157842168E+01	3.11975235051E-05	7.03941991931E+00	1.70857262294E-05	-6.64064420741E+00	1.47604631338E-01	-1.18973329030E+02
7.68577154309E+10	1.53894476035E-01	-6.92527952847E+01	3.84475342521E-05	1.05774079232E+02	9.82369793998E-05	6.36912541723E+01	1.48764060731E-01	-1.21066797662E+02
7.68637274549E+10	1.58321560422E-01	-7.04754743499E+01	2.26125913827E-05	2.04722783307E+01	6.68952880373E-05	7.83645569178E+01	1.48890299703E-01	-1.22267067006E+02
7.68697394790E+10	1.55721598878E-01	-6.93990180616E+01	9.53490675064E-05	5.23096600999E+01	6.87499327051E-05	1.05385538945E+01	1.48542043300E-01	-1.22860216095E+02
7.68757515030E+10	1.54133298136E-01	-6.76515923502E+01	4.02187384969E-05	1.08881372300E+01	1.62787394305E-04	1.83628697803E+01	1.46476779257E-01	-1.22305768933E+02
7.68817635271E+10	1.58522545543E-01	-7.05044607337E+01	1.89481368706E-05	-5.34609371718E+01	6.75301436340E-05	-1.72462133362E+01	1.43659424802E-01	-1.21962302834E+02
7.68877755511E+10	1.56045422600E-01	-6.99025964725E+01	4.51292115795E-05	8.03139525268E+01	7.03839064821E-05	-2.79366801421E+01	1.43885876527E-01	-1.22327244229E+02
7.68937875752E+10	1.58746927174E-01	-7.14230955278E+01	1.45823248353E-05	-8.08684258830E+01	5.73294383729E-05	-1.34025480887E+01	1.43973907793E-01	-1.23476899787E+02
7.68997995992E+10	1.56064472394E-01	-7.12619221473E+01	9.28137450399E-05	3.58912264635E+01	4.87764611294E-05	-1.74650905870E+01	1.43871201987E-01	-1.24473986200E+02
7.69058116232E+10	1.57742843279E-01	-7.23132227387E+01	4.54980784113E-05	1.55372714138E+01	9.49314010365E-05	7.75905585401E+01	1.41990418550E-01	-1.23382055486E+02
7.69118236473E+10	1.55381238492E-01	-7.23198975442E+01	1.35968512327E-04	4.91300944609E+01	3.25670678917E-05	6.48137122207E+01	1.41562016098E-01	-1.24473775255E+02
7.69178356713E+10	1.57290804974E-01	-7.22093873491E+01	1.77795133756E-05	-7.78282947830E+01	1.12408334654E-04	-3.69412506802E+01	1.40447313751E-01	-1.24935759041E+02
7.69238476954E+10	1.55962913619E-01	-7.16784290632E+01	6.41048027340E-05	3.57964532006E+01	4.62147154733E-05	8.34904862723E+00	1.41226959609E-01	-1.25931155241E+02
7.69298597194E+10	1.58780530811E-01	-7.26508488900E+01	4.31519044424E-05	-1.12311575247E+01	4.92477553749E-05	-6.72825223692E+01	1.39478928720E-01	-1.24851750949E+02
7.69358717435E+10	1.53926734168E-01	-7.20162663414E+01	5.56386307876E-05	7.27022436477E+01	8.93703500681E-06	-1.32665234041E+02	1.39651469476E-01	-1.26106404045E+02
7.69418837675E+10	1.53306981737E-01	-7.16701409677E+01	9.25041341382E-05	2.31968380183E+01	8.55393667031E-05	-4.77942963166E+01	1.38767353799E-01	-1.27757469825E+02
7.69478957916E+10	1.55143813006E-01	-7.14714420086E+01	9.36064484970E-05	-5.21390031267E+01	6.78046236735E-05	-2.43693286876E+01	1.37473048014E-01	-1.27526676292E+02
7.69539078156E+10	1.55405920737E-01	-7.24665524062E+01	2.63960302599E-05	-1.72070203240E+01	6.38309510146E-05	1.73653931275E+01	1.36708619585E-01	-1.25634849955E+02
7.69599198397E+10	1.54030040511E-01	-7.29088187112E+01	6.99501386313E-05	-1.81455963273E+01	2.81201004133E-05	4.31599266887E+01	1.36095310388E-01	-1.26450651694E+02
7.69659318637E+10	1.56535005584E-01	-7.40863505114E+01	6.24393473659E-05	3.19159786047E+01	4.86207133159E-05	-4.70229931422E+01	1.35047847900E-01	-1.28600613959E+02
7.69719438878E+10	1.53838145205E-01	-7.37978248980E+01	1.13986190088E-04	-4.25512201741E+01	1.11017641054E-04	-4.76185910933E+01	1.34172843745E-01	-1.28750893100E+02
7.69779559118E+10	1.52974772766E-01	-7.29372996839E+01	1.09477099565E-04	-7.84072310800E+01	1.60175216060E-04	-5.52103499072E+01	1.33225512640E-01	-1.29794129532E+02
7.69839679359E+10	1.51357898401E-01	-7.20637488994E+01	8.90063359917E-05	-4.55382454646E+01	5.89277763931E-05	-7.79002287361E+01	1.32055357284E-01	-1.28805214275E+02
7.69899799599E+10	1.52127159540E-01	-7.25099739691E+01	6.78335103087E-05	-1.01891505874E+02	9.06082391597E-05	-9.12566094127E+01	1.31413955484E-01	-1.29312955126E+02
7.69959919840E+10	1.52286765798E-01	-7.33911158334E+01	8.43490586197E-05	-7.99116637260E+01	8.73110508511E-05	-5.49119387335E+01	1.30422230934E-01	-1.29143189876E+02
7.70020040080E+10	1.53636565208E-01	-7.48706451049E+01	6.25998146933E-05	-1.03876985627E+02	1.05274656335E-04	-1.21834257957E+02	1.30702157158E-01	-1.30324866631E+02
7.70080160321E+10	1.54887429789E-01	-7.58410671536E+01	7.26788555705E-05	-1.04306051163E+02	6.08946223200E-05	-1.04319613825E+02	1.29711543455E-01	-1.30885571013E+02
7.70140280561E+10	1.55110288105E-01	-7.48021017511E+01	4.17653359559E-05	-1.09703958732E+02	4.16455574038E-05	-1.02796188444E+02	1.29018834914E-01	-1.31118674262E+02
7.70200400802E+10	1.51873930824E-01	-7.31173760902E+01	6.78766122053E-05	-9.75225065608E+01	3.33853616345E-05	-1.33874314647E+02	1.28303344769E-01	-1.31207020363E+02
7.70260521042E+10	1.51684913103E-01	-7.50678147927E+01	1.54550745180E-05	-7.28657938599E+01	1.07082311127E-04	-1.03304396147E+02	1.25626373704E-01	-1.30801197766E+02
7.70320641283E+10	1.52500074641E-01	-7.58064727711E+01	6.18082953461E-05	-1.15690428112E+02	9.02835514742E-05	-3.99635950800E+01	1.25168945506E-01	-1.31570915483E+02
7.70380761523E+10	1.54194783493E-01	-7.62351325295E+01	1.05121982576E-04	-1.03765517253E+02	1.13766554871E-04	-1.07035404211E+02	1.26373648605E-01	-1.32828953538E+02
7.70440881764E+10	1.50725035750E-01	-7.56465288690E+01	7.89077674413E-05	-6.08197394541E+01	1.15678552040E-04	-1.16609101603E+02	1.25044552748E-01	-1.33153330057E+02
7.70501002004E+10	1.50977955636E-01	-7.45745192703E+01	5.51781298078E-05	-1.31897787999E+02	9.89312934030E-05	-1.06820003907E+02	1.24245989296E-01	-1.34054139775E+02
7.70561122244E+10	1.52918948757E-01	-7.52264040096E+01	1.13657694543E-04	-1.10479496369E+02	7.24890893615E-05	-1.24856813659E+02	1.23159106966E-01	-1.33726476738E+02
7.70621242485E+10	1.52686598472E-01	-7.59555975343E+01	9.69648300657E-05	-1.13915870624E+02	1.27617036804E-04	-1.55479873002E+02	1.20913154683E-01	-1.33197776601E+02
7.70681362725E+10	1.51621776064E-01	-7.68735394708E+01	8.00411308173E-05	-1.39105317002E+02	6.58081268236E-05	-1.23228003677E+02	1.21844003495E-01	-1.34393750030E+02
7.70741482966E+10	1.49289808612E-01	-7.42164127750E+01	1.02349375921E-04	-1.18965797832E+02	7.16220264839E-05	-9.86287773931E+01	1.20723536307E-01	-1.34253214739E+02
7.70801603206E+10	1.50459236061E-01	-7.53050188102E+01	7.19513276205E-05	-1.73226294913E+02	9.76388427041E-05	-1.58147411868E+02	1.19688248198E-01	-1.34385337009E+02
7.70861723447E+10	1.48548630428E-01	-7.50804229674E+01	1.28818902468E-04	-1.38919716212E+02	9.08715929635E-05	1.68439590060E+02	1.19635842883E-01	-1.36091997273E+02
7.70921843687E+10	1.49569943130E-01	-7.65129844464E+01	1.35518949090E-04	1.68913103824E+02	1.11910518055E-04	1.75820549885E+02	1.19387954204E-01	-1.37367655355E+02
7.70981963928E+10	1.50970751358E-01	-7.51237444299E+01	3.11820300223E-05	-5.13133204324E+01	4.83653978414E-05	1.54850778207E+02	1.16815220540E-01	-1.34829701570E+02
7.71042084168E+10	1.53216324751E-01	-7.79198998523E+01	4.68924420350E-05	1.61311772621E+02	2.18417048716E-05	-8.12153278089E+01	1.16170992232E-01	-1.35610540173E+02
7.71102204409E+10	1.53248785948E-01	-7.82331840758E+01	7.26334172153E-05	1.60942189729E+02	6.82715866588E-05	1.14690372727E+02	1.15248842103E-01	-1.35408826630E+02
7.71162324649E+10	1.50656893732E-01	-7.75590149993E+01	5.22688633611E-05	1.43108990502E+02	6.92455161596E-05	-1.79083898012E+02	1.14425597756E-01	-1.36912501033E+02
7.71222444890E+10	1.45860648820E-01	-7.44291959769E+01	1.09609383421E-04	1.25205675983E+02	4.23311626401E-05	1.47694043713E+02	1.14509661434E-01	-1.38073324933E+02
7.71282565130E+10	1.48439416658E-01	-7.62975357143E+01	7.67979155817E-05	1.41057558916E+02	5.72395524947E-05	-4.21754239837E+01	1.12378433939E-01	-1.36835210937E+02
7.71342685371E+10	1.48020235777E-01	-7.57130793380E+01	5.17940295723E-05	1.59370136351E+02	2.12563161725E-05	1.38847071201E+02	1.11507300066E-01	-1.37735854741E+02
7.71402805611E+10	1.54043943820E-01	-7.98836798075E+01	2.85795079103E-05	-1.67730042208E+02	7.66567942483E-05	1.38684813763E+02	1.11968018643E-01	-1.39196236268E+02
7.71462925852E+10	1.47502380910E-01	-7.84377392845E+01	5.24532463430E-05	-1.46844249666E+02	1.16773861128E-04	-1.42293336522E+02	1.12523679458E-01	-1.40997873775E+02
7.71523046092E+10	1.48034294162E-01	-7.78309703483E+01	6.18606067506E-05	1.54662474851E+02	9.15236890028E-05	1.60228411031E+02	1.10625324690E-01	-1.40730124217E+02
7.71583166333E+10	1.50268303518E-01	-7.77945910066E+01	4.67247211019E-05	1.75089352253E+02	7.37403524522E-05	1.79314984420E+02	1.08638810023E-01	-1.38342986555E+02
7.71643286573E+10	1.49719902634E-01	-7.93351638537E+01	7.37185297777E-05	5.89544515716E+01	1.04440853185E-04	1.55301429501E+02	1.09457581455E-01	-1.41352451904E+02
7.71703406814E+10	1.48637925977E-01	-8.00513455604E+01	9.79479648153E-05	9.68169451975E+01	1.41999460545E-04	1.27330386351E+02	1.06826642751E-01	-1.40483970607E+02
7.71763527054E+10	1.47860078830E-01	-7.99417888053E+01	1.06694517251E-04	1.10724473804E+02	5.50336989830E-05	1.23013644938E+02	1.07272057096E-01	-1.40211058908E+02
7.71823647295E+10	1.47931105991E-01	-7.93557538359E+01	1.12461000040E-04	5.57246122983E+01	8.62599649465E-05	4.66608180164E+01	1.05100220981E-01	-1.39766123382E+02
7.71883767535E+10	1.46840230760E-01	-7.77407515054E+01	3.50626653880E-05	1.37977285650E+02	6.11783771558E-05	9.82296851529E+01	1.04927323978E-01	-1.41250193931E+02
7.71943887776E+10	1.46849215251E-01	-7.98555236610E+01	6.23251525323E-05	4.55855486573E+01	5.32394911450E-05	6.30846093832E+01	1.03996430259E-01	-1.41343668209E+02
7.72004008016E+10	1.47075232145E-01	-8.12145008419E+01	3.17902817995E-05	1.88335621346E+01	1.00478208878E-04	1.04154929237E+02	1.03998488945E-01	-1.42658955659E+02
7.72064128257E+10	1.46232973378E-01	-7.84115749284E+01	5.51533437806E-05	-6.41384344161E+01	6.38052816378E-05	1.18915742621E+02	1.01945155019E-01	-1.41944178906E+02
7.72124248497E+10	1.47309716991E-01	-8.10727944289E+01	8.48579477819E-05	8.61576672481E+01	4.17897167196E-05	9.14551780487E+01	1.01586485163E-01	-1.43390236938E+02
7.72184368737E+10	1.48576242715E-01	-8.23576032320E+01	3.50543529626E-05	-5.48473042148E+01	7.10807013705E-05	1.11530027867E+02	1.01391253933E-01	-1.44833892705E+02
7.72244488978E+10	1.48359928279E-01	-8.13083521817E+01	2.11052251629E-05	-6.01122184819E+01	4.91774635055E-05	1.66770853131E+02	1.02242705250E-01	-1.45634610126E+02
7.72304609218E+10	1.46318808125E-01	-7.94010411770E+01	6.19622516496E-05	-9.12176199881E+00	2.90272835852E-05	7.56493008829E+01	9.98794142360E-02	-1.44295455209E+02
7.72364729459E+10	1.47398332741E-01	-8.13242193992E+01	2.44664608359E-05	1.69923260837E+02	5.09691225262E-05	-7.92493666548E-01	9.82099814611E-02	-1.43847813418E+02
7.72424849699E+10	1.48075308044E-01	-8.22778437548E+01	1.10807553307E-04	-3.12884150171E+01	5.13444297640E-05	9.19529194921E+01	9.78810479592E-02	-1.43703662758E+02
7.72484969940E+10	1.47388408093E-01	-8.25724190534E+01	3.73210806750E-05	6.97007795902E+01	6.20033756721E-05	4.85615455495E+01	9.72588238968E-02	-1.45167207206E+02
7.72545090180E+10	1.46285723955E-01	-8.19949684050E+01	4.80627044855E-05	3.48275147726E+00	4.38162832868E-05	-3.65373168315E+01	9.70651829788E-02	-1.46238841532E+02
7.72605210421E+10	1.43075539169E-01	-7.81688229632E+01	2.71474692578E-05	-4.40059818921E+00	8.95714746441E-05	4.04292173792E+01	9.62468916691E-02	-1.47058871049E+02
7.72665330661E+10	1.47637142189E-01	-8.35504459442E+01	2.82152599155E-05	7.73673631687E+01	3.57562377756E-05	8.27370842382E+01	9.60990550429E-02	-1.47611002898E+02
7.72725450902E+10	1.46738922720E-01	-8.32705583744E+01	3.76476609843E-05	-1.70373712709E+01	6.58499610626E-05	7.07584446469E+01	9.34180487841E-02	-1.45153967819E+02
7.72785571142E+10	1.46984735095E-01	-8.22796953757E+01	8.05083924087E-05	-4.12896259803E+01	5.31503686285E-05	-3.59962429260E+01	9.35656186010E-02	-1.46581230253E+02
7.72845691383E+10	1.43993450413E-01	-8.05263397994E+01	4.34995220253E-05	-7.99398668492E+01	5.99225293566E-05	3.68523391733E+00	9.26537558292E-02	-1.48043306017E+02
7.72905811623E+10	1.44042172695E-01	-8.34892557425E+01	2.55527485392E-05	-3.19218074391E+01	2.70215316359E-05	-4.14725665866E+01	9.35674090832E-02	-1.49888808235E+02
7.72965931864E+10	1.43800314526E-01	-8.27774950595E+01	4.91241874859E-05	-6.94638922826E+01	3.38120050218E-05	-1.37574669870E+02	9.11911196820E-02	-1.48936696344E+02
7.73026052104E+10	1.43795321874E-01	-8.25334638421E+01	6.84020688994E-05	-7.12814100181E+01	1.10242377362E-04	-3.73573678861E+01	8.90746680233E-02	-1.47195261462E+02
7.73086172345E+10	1.43536612302E-01	-8.16737237739E+01	3.51042917603E-05	-7.12511814099E+01	6.95120895221E-05	-1.25427350020E+02	8.77613465578E-02	-1.47564234255E+02
7.73146292585E+10	1.44169594633E-01	-8.18217216236E+01	1.27959316207E-05	1.06929995689E+02	1.79813231236E-05	2.50340152694E+01	8.74984792667E-02	-1.48421917323E+02
7.73206412826E+10	1.46128965483E-01	-8.40119564067E+01	6.58277041425E-05	5.85906643863E+01	4.73524582415E-05	-2.55642697392E+01	8.87095302873E-02	-1.51715143715E+02
7.73266533066E+10	1.42798633093E-01	-8.47387642349E+01	4.89238485301E-05	1.73743367848E+02	1.95358977598E-05	-1.36977899217E+02	8.74615051269E-02	-1.50786902669E+02
7.73326653307E+10	1.44830074528E-01	-8.54597352201E+01	6.53143734769E-05	5.21046422142E+01	5.79622231082E-05	4.33105674177E+01	8.48508208899E-02	-1.48566481229E+02
7.73386773547E+10	1.44418601740E-01	-8.49512212822E+01	5.31484794935E-05	-1.62291126370E+02	2.26048622950E-05	1.22573193322E+02	8.46783705641E-02	-1.51398333707E+02
7.73446893788E+10	1.42613537375E-01	-8.44293539293E+01	7.46999152941E-05	-1.64715187452E+02	2.00718762553E-05	-2.66136120693E+01	8.52847570866E-02	-1.52873962929E+02
7.73507014028E+10	1.44103628829E-01	-8.48136822646E+01	1.56242517352E-05	1.23029505010E+02	3.20331996813E-05	-1.76331357605E+02	8.42132104829E-02	-1.51266458559E+02
7.73567134269E+10	1.40978122817E-01	-8.39290121429E+01	2.76928412169E-05	-1.16775526065E+02	4.23489734496E-05	1.68089955452E+02	8.22675189706E-02	-1.50989343597E+02
7.73627254509E+10	1.40967580211E-01	-8.40875913432E+01	1.97362086644E-05	-2.16271443814E+01	4.55497602448E-05	1.08668483954E+02	8.15060427131E-02	-1.52058274147E+02
7.73687374749E+10	1.44368625612E-01	-8.47157840900E+01	4.98902862463E-05	-6.44240459965E+00	1.29090705291E-05	1.13742732695E+02	8.09321169326E-02	-1.53239460103E+02
7.73747494990E+10	1.43516966602E-01	-8.48332172131E+01	3.95140360264E-05	-1.77648377929E+02	4.87585072546E-05	-6.61074792259E+01	8.07052786636E-02	-1.53946771006E+02
7.73807615230E+10	1.40228503231E-01	-8.38719353485E+01	7.11466598306E-05	-1.75887487729E+02	8.85556273803E-05	-3.53681565986E+00	7.95417816565E-02	-1.53451854076E+02
7.73867735471E+10	1.41665223841E-01	-8.36547719174E+01	3.97704883003E-05	-3.76820622428E+01	6.53530997755E-05	1.16520262224E+02	7.98757219394E-02	-1.55676800536E+02
7.73927855711E+10	1.42827923175E-01	-8.56089826235E+01	6.49781574953E-05	1.72028316338E+02	5.55815681869E-05	4.20694423548E+00	7.71029475738E-02	-1.54704536759E+02
7.73987975952E+10	1.41599025507E-01	-8.59982448386E+01	4.56351174959E-05	9.59819190643E+01	1.27245626470E-04	7.43651847703E+01	7.57257428352E-02	-1.54496501509E+02
7.74048096192E+10	1.41680287578E-01	-8.57692346509E+01	4.42941284975E-05	4.72850379618E+01	6.81242444960E-05	5.66626175005E+00	7.61161142489E-02	-1.55165114573E+02
7.74108216433E+10	1.41484656760E-01	-8.65951849491E+01	1.03808639343E-04	3.65491598685E+01	1.17585514303E-04	8.30196411026E+00	7.53001169670E-02	-1.55914649538E+02
7.74168336673E+10	1.39914063381E-01	-8.47963125214E+01	4.06142106585E-05	6.86508558001E+01	7.38784568461E-05	9.69432129045E+00	7.47786900029E-02	-1.57378394455E+02
7.74228456914E+10	1.39891346501E-01	-8.54814070363E+01	8.00667793545E-05	-1.95488782402E+01	8.09805125066E-05	-9.42720910832E+00	7.37878011355E-02	-1.56056136926E+02
7.74288577154E+10	1.40788535165E-01	-8.63614208483E+01	3.07383157043E-05	-8.90469289322E+01	7.65087455027E-05	-3.48404748025E+01	7.23283470783E-02	-1.56518278198E+02
7.74348697395E+10	1.39427481913E-01	-8.57726315112E+01	2.72560233137E-05	-2.70004048026E-01	1.86173502082E-05	1.05594709464E+02	7.21264626194E-02	-1.58021377429E+02
7.74408817635E+10	1.39961796557E-01	-8.61962822800E+01	5.34666331154E-05	-3.43787257178E+01	4.41433825152E-05	5.15624726984E+01	7.11283908910E-02	-1.58487170471E+02
7.74468937876E+10	1.39551543422E-01	-8.76282088090E+01	2.10103759505E-05	-6.55264370664E+01	6.06395407624E-05	-1.53090289413E+00	6.99513080601E-02	-1.57916118825E+02
7.74529058116E+10	1.39152664717E-01	-8.73890433760E+01	7.67604617811E-05	-3.43181988333E+01	7.24273581708E-05	-1.05589110931E+01	6.90545392040E-02	-1.57685277050E+02
7.74589178357E+10	1.38547353621E-01	-8.73698264234E+01	8.22598120077E-05	2.16674653861E+01	1.01097495479E-04	1.35865839755E+01	6.82530124698E-02	-1.58529895414E+02
7.74649298597E+10	1.37979194035E-01	-8.67355225240E+01	9.85104690659E-05	-7.65900353454E+01	1.09685708636E-04	-5.48375492071E+01	6.79280332337E-02	-1.60713122420E+02
7.74709418838E+10	1.41113856124E-01	-8.72893134289E+01	6.20827616278E-05	-7.16207351745E+01	1.20933085811E-04	-4.96304737632E+01	6.80735660676E-02	-1.61577797109E+02
7.74769539078E+10	1.43178547603E-01	-8.83530630197E+01	5.69770288261E-05	-6.09743348921E+00	7.28437837714E-05	-9.28164853175E+01	6.58821774260E-02	-1.60402788430E+02
7.74829659319E+10	1.39212277522E-01	-8.61736005940E+01	4.13730698472E-05	-1.69953458000E+01	9.58240376576E-05	-6.39501901512E+01	6.48841762318E-02	-1.60444259366E+02
7.74889779559E+10	1.39155925492E-01	-8.68571599931E+01	4.73058473926E-05	-8.18692377392E+01	3.20573526441E-05	-8.09826593809E+01	6.42749822077E-02	-1.60750337781E+02
7.74949899800E+10	1.37949763096E-01	-8.67848993426E+01	1.40216008281E-05	-1.52115534548E+01	8.83182139776E-05	-1.51835957893E+02	6.33878615871E-02	-1.62578533848E+02
7.75010020040E+10	1.36530888462E-01	-8.79531140599E+01	4.78584658469E-05	-1.41242408532E+02	4.00338637341E-05	-1.24426510506E+02	6.28972984416E-02	-1.62424211277E+02
7.75070140281E+10	1.40050202735E-01	-8.91626751080E+01	3.96122410145E-05	-1.13345102548E+01	5.41026708198E-05	1.32966843104E+02	6.14176130309E-02	-1.62542554651E+02
7.75130260521E+10	1.39272497642E-01	-8.90326799940E+01	2.99739278173E-05	-3.41179259981E+01	5.51724715208E-05	-1.24357500053E+02	6.04329164256E-02	-1.63245893204E+02
7.75190380762E+10	1.37173205531E-01	-8.64455547198E+01	9.53409213969E-05	-5.26757999717E+01	1.03253252859E-04	-1.00769618036E+02	6.04654912385E-02	-1.65215010392E+02
7.75250501002E+10	1.40007769622E-01	-8.83728522933E+01	6.18699763313E-05	-4.42223661137E+01	8.93740213499E-05	-4.86591747630E+01	5.90691420515E-02	-1.64353400585E+02
7.75310621242E+10	1.36643853897E-01	-8.70856548075E+01	1.33655659953E-04	-1.36882262685E+02	1.39118152073E-04	-9.64608167670E+01	5.82821188949E-02	-1.64449229883E+02
7.75370741483E+10	1.36728157518E-01	-8.84554957543E+01	2.50531862310E-05	2.61802885343E+01	7.88446479212E-05	-1.46506725004E+02	5.79763082813E-02	-1.65003641012E+02
7.75430861723E+10	1.38945459283E-01	-8.84106107031E+01	7.46619860124E-05	-1.64335884308E+02	1.19509457714E-04	-1.78232167996E+02	5.62764426280E-02	-1.64767575771E+02
7.75490981964E+10	1.39807642878E-01	-8.97551547842E+01	6.09788144940E-05	1.33339754732E+02	6.01438935484E-05	1.78723360125E+02	5.58630239274E-02	-1.66509020589E+02
7.75551102204E+10	1.38267431676E-01	-8.73652758923E+01	5.71031693854E-05	3.94625620616E+01	5.44839610924E-05	8.88670130152E+01	5.55752228372E-02	-1.67644557694E+02
7.75611222445E+10	1.38142719947E-01	-8.87109058479E+01	3.51184317575E-05	-4.94268044695E+01	4.63711439133E-05	-1.20549309703E+02	5.43058656572E-02	-1.66996182009E+02
7.75671342685E+10	1.38463158685E-01	-9.02764446485E+01	4.06726256071E-05	-1.07475396787E+02	4.33532519022E-05	8.71812216609E+01	5.25276179648E-02	-1.66611805694E+02
7.75731462926E+10	1.36173757840E-01	-9.06521686145E+01	1.87354096068E-06	8.15999997550E+01	1.38361365993E-05	-9.20461035043E+01	5.24968870012E-02	-1.68116571146E+02
7.75791583166E+10	1.36812280788E-01	-9.06516176865E+01	7.32758801448E-05	-1.32155061853E+02	1.43579055549E-05	4.33030305928E+01	5.12883049025E-02	-1.67696000912E+02
7.75851703407E+10	1.36728384624E-01	-9.08454999183E+01	5.27601728069E-05	-8.97475426517E+01	1.50939306299E-05	1.28272200026E+02	5.06945371106E-02	-1.69717099580E+02
7.75911823647E+10	1.37955121491E-01	-9.07280526618E+01	1.10064255522E-04	-1.27313161281E+02	1.44397719355E-05	-1.07749415832E+02	4.98400157674E-02	-1.69971789132E+02
7.75971943888E+10	1.34308608086E-01	-8.65610379249E+01	8.59674008226E-05	-1.61656251540E+02	5.46572785039E-05	-1.39329037308E+02	4.81628614477E-02	-1.68849088762E+02
7.76032064128E+10	1.34661077262E-01	-8.84671533752E+01	1.64328823166E-05	-1.76170321079E+02	7.33731802989E-05	1.32893500914E+02	4.88091275904E-02	-1.70644868803E+02
7.76092184369E+10	1.36056011536E-01	-8.94198275879E+01	8.74073296094E-05	-6.68639029632E+01	2.25570843460E-05	8.76433360009E+00	4.72424669377E-02	-1.70708311892E+02
7.76152304609E+10	1.38504315719E-01	-9.10826399872E+01	2.02343241871E-05	-1.58199342723E+02	2.43526969912E-05	-1.51180844068E+02	4.65211980819E-02	-1.72502702008E+02
7.76212424850E+10	1.36612241950E-01	-9.15030227330E+01	6.45502048142E-05	-1.11800567472E+02	4.69336092980E-05	-9.58703910637E+01	4.52767644724E-02	-1.71892229367E+02
7.76272545090E+10	1.37044728239E-01	-9.29304962443E+01	6.13687667991E-05	1.37602958055E+02	5.81940085854E-05	-1.75008071114E+02	4.45844865411E-02	-1.71776534371E+02
7.76332665331E+10	1.38370811301E-01	-9.27742745663E+01	4.72024026842E-05	1.51561636118E+02	6.42799652546E-05	-1.59772741059E+02	4.38223825999E-02	-1.71925926065E+02
7.76392785571E+10	1.36439690808E-01	-9.04807870678E+01	5.29581148969E-05	-1.26467185653E+02	6.72805614649E-05	-1.56094471714E+02	4.26538581857E-02	-1.72999726756E+02
7.76452905812E+10	1.36237462323E-01	-9.02642894620E+01	9.97036740717E-05	-1.36538981212E+02	4.62913952468E-05	1.70468821317E+02	4.19136130622E-02	-1.74734171349E+02
7.76513026052E+10	1.35700396444E-01	-9.15137691375E+01	6.85584199131E-05	-1.70730979362E+02	9.39697334620E-05	1.61493203990E+02	4.07383595239E-02	-1.73985111042E+02
7.76573146293E+10	1.37842331340E-01	-9.11650804987E+01	9.14113649098E-05	1.41281618937E+02	5.76091151092E-05	1.18367320573E+02	4.02886177140E-02	-1.74297909822E+02
7.76633266533E+10	1.35840285520E-01	-9.09346982171E+01	3.59290087712E-05	1.41710839161E+02	8.25693773212E-05	9.23621663923E+01	3.99177067197E-02	-1.75832895079E+02
7.76693386774E+10	1.36303600037E-01	-9.19544568745E+01	1.14041199595E-05	-1.54630453737E+02	3.92506778145E-05	1.56102800741E+02	3.91118402309E-02	-1.76514823489E+02
7.76753507014E+10	1.35573560352E-01	-9.36792371229E+01	2.53680702152E-05	-1.49276222839E+02	3.72885224943E-05	6.72149835782E+01	3.76677292692E-02	-1.76753256575E+02
7.76813627255E+10	1.33861548129E-01	-9.04512001963E+01	4.64488486294E-05	1.61136346386E+02	3.57506596176E-05	-1.72506304359E+02	3.65996588595E-02	-1.77104610926E+02
7.76873747495E+10	1.37929979047E-01	-9.24392229664E+01	4.52703060730E-05	9.85527630154E+01	4.41870230466E-05	1.71071247674E+02	3.64189365756E-02	-1.78772117956E+02
7.76933867735E+10	1.34428028322E-01	-9.23659435707E+01	2.17234666299E-05	-1.52416246551E+02	5.00817599385E-05	1.54311746911E+02	3.55082433150E-02	-1.79139586685E+02
7.76993987976E+10	1.35910376420E-01	-9.26314299163E+01	8.48234761695E-05	-1.69920129677E+02	3.66004876983E-05	-1.39029150548E+02	3.42205773804E-02	-1.78207034365E+02
7.77054108216E+10	1.34401028163E-01	-9.21687829335E+01	8.72456336616E-05	1.41411513068E+02	3.36606060912E-05	1.16593399034E+02	3.36326730691E-02	-1.79866968186E+02
7.77114228457E+10	1.36912755501E-01	-9.53775615038E+01	1.15227972857E-04	1.44102353796E+02	3.12908082422E-05	1.57942608420E+02	3.27227356526E-02	1.79392384365E+02
7.77174348697E+10	1.33449904935E-01	-9.30626186169E+01	5.33973327406E-05	1.48075446586E+02	1.00988693738E-04	1.09655126723E+02	3.21264600427E-02	1.78927006795E+02
7.77234468938E+10	1.32917270144E-01	-9.39029085633E+01	3.92650569250E-05	1.25097507662E+02	1.10406123142E-04	1.05930446992E+02	3.10358166787E-02	1.79128630068E+02
7.77294589178E+10	1.35685225648E-01	-9.42380403828E+01	6.52880539438E-05	1.41467558837E+02	5.28287220446E-05	8.50760533144E+01	3.01064793284E-02	1.77430435827E+02
7.77354709419E+10	1.32948023941E-01	-9.36490682740E+01	6.16246786196E-05	1.24550955566E+02	3.00242497490E-05	3.69618013423E+01	2.92139678017E-02	1.76803737271E+02
7.77414829659E+10	1.32991562881E-01	-9.32482193111E+01	4.03507306277E-05	1.01359761339E+02	9.19168440604E-05	7.36071462731E+01	2.84931967990E-02	1.75763953188E+02
7.77474949900E+10	1.33279340422E-01	-9.40883151972E+01	6.00808843042E-05	1.10041162266E+02	8.66888196620E-05	5.48228747359E+01	2.76347799139E-02	1.76496878233E+02
7.77535070140E+10	1.33962895507E-01	-9.51681629955E+01	1.34675590943E-04	4.68800576053E+01	9.90720942350E-05	4.97327396920E+01	2.67872291891E-02	1.74874844838E+02
7.77595190381E+10	1.34692743922E-01	-9.64553517783E+01	5.65377078943E-05	9.61999839076E+01	4.99740938755E-05	1.03432327904E+02	2.60255111304E-02	1.74324195912E+02
7.77655310621E+10	1.30882656966E-01	-9.38682369546E+01	7.91344602856E-05	-1.85358141975E+01	5.00093967771E-05	7.31670972827E+01	2.54614297539E-02	1.73012437846E+02
7.77715430862E+10	1.31407748004E-01	-9.27119771557E+01	6.91403098703E-05	7.98831628538E+01	1.55567948991E-05	-4.09666788934E+01	2.44900416753E-02	1.71188119414E+02
7.77775551102E+10	1.34601174252E-01	-9.70366195734E+01	1.07579287856E-04	6.83753126864E+01	6.25186102385E-05	6.36001909311E+01	2.31953163726E-02	1.72026471240E+02
7.77835671343E+10	1.33113972722E-01	-9.50727414154E+01	5.32000962771E-05	6.76548396048E+01	8.37645837231E-05	4.10264249593E+01	2.27185398420E-02	1.69991832870E+02
7.77895791583E+10	1.31436215869E-01	-9.42700707333E+01	8.99440706693E-05	5.62809778144E+01	7.70509229622E-05	3.19828813591E+01	2.19445466286E-02	1.69411896850E+02
7.77955911824E+10	1.32743376286E-01	-9.55509280350E+01	1.23727281402E-04	6.85608634104E+01	2.80871515424E-05	5.08882220060E+01	2.08132028907E-02	1.68453412072E+02
7.78016032064E+10	1.31463581402E-01	-9.57142516278E+01	1.08983903171E-04	3.30604913380E+01	7.37787046233E-05	-2.91748970968E+01	1.98487022741E-02	1.68629577401E+02
7.78076152305E+10	1.30284045619E-01	-9.46455638434E+01	7.52378837725E-05	-4.10915309051E+01	6.11628691454E-05	4.84963185062E+01	1.91795164303E-02	1.67156050584E+02
7.78136272545E+10	1.32248373448E-01	-9.54704076148E+01	7.32588855612E-05	-1.23437402962E+00	5.99356929302E-05	-1.90998791389E+00	1.81694853965E-02	1.67116635463E+02
7.78196392786E+10	1.32275907965E-01	-9.55677661094E+01	2.29031446497E-05	1.01780939153E+01	8.16074071981E-05	-2.41157673508E+01	1.76673543038E-02	1.65203902834E+02
7.78256513026E+10	1.32329641934E-01	-9.58692755291E+01	7.63930400153E-05	-2.67435959261E+01	1.15823965688E-04	-2.59531087965E+01	1.71823565152E-02	1.63001839768E+02
7.78316633267E+10	1.30673333099E-01	-9.74982175763E+01	3.92964800168E-05	2.11814543534E+01	3.22790318513E-05	-3.85645142706E+00	1.57371277681E-02	1.63188916441E+02
7.78376753507E+10	1.31909784959E-01	-9.77975576310E+01	7.68117833753E-05	-4.85353229581E+01	5.55373126592E-05	-4.73597742953E+01	1.51010144163E-02	1.60988536089E+02
7.78436873747E+10	1.32253728220E-01	-9.71470934464E+01	6.83631894689E-05	-6.39551373292E+01	6.54439752496E-05	-3.16484077880E+01	1.41542740914E-02	1.61082575980E+02
7.78496993988E+10	1.31102944165E-01	-9.54778514761E+01	3.04324260668E-05	3.39892322274E+01	3.56193766351E-05	-1.07953871073E+02	1.45322345642E-02	1.56448469729E+02
7.78557114228E+10	1.27627797739E-01	-9.46423357616E+01	6.94207759014E-05	-4.34640162780E+01	9.90028990279E-05	-2.01418405411E+01	1.25411443463E-02	1.56703938274E+02
7.78617234469E+10	1.30300203909E-01	-9.75897165513E+01	7.91247718845E-05	-6.42305900055E+01	5.94552326690E-05	-4.37959082918E+01	1.19109735660E-02	1.53961129592E+02
7.78677354709E+10	1.30670941333E-01	-9.76763567743E+01	6.34105273671E-05	-1.00015368058E+02	6.49020035992E-05	-9.71769136908E+01	1.12307531839E-02	1.51481900978E+02
7.78737474950E+10	1.28914303688E-01	-9.51414052800E+01	7.07599513907E-05	-1.31162631495E+02	4.19045199333E-05	-1.65826028649E+02	1.10749304461E-02	1.48434277675E+02
7.78797595190E+10	1.29031746292E-01	-9.61614746989E+01	4.28023207217E-05	-9.46743907777E+01	7.13953836306E-05	-6.64985464661E+01	1.05990231079E-02	1.45892880890E+02
7.78857715431E+10	1.29339109148E-01	-9.90212420579E+01	1.00900451402E-04	-1.04197307533E+02	8.42408616333E-05	-1.07718682678E+02	9.23931597191E-03	1.43549988907E+02
7.78917835671E+10	1.30977963307E-01	-9.88428608427E+01	1.46752900910E-05	-1.28350501043E+02	7.63813544676E-05	-6.54174598868E+01	8.51794945137E-03	1.39102474330E+02
7.78977955912E+10	1.31061444015E-01	-9.94229976934E+01	7.56850287374E-05	-1.53621683279E+02	1.07306479329E-04	-9.76001613701E+01	8.39598100985E-03	1.35249580967E+02
7.79038076152E+10	1.30478706614E-01	-9.96792786564E+01	5.49770031778E-05	-1.14902642951E+02	5.59459119636E-05	-9.95714230965E+01	7.89892253996E-03	1.32326235268E+02
7.79098196393E+10	1.30361231724E-01	-9.85853402129E+01	7.48417550735E-05	-1.36145362736E+02	4.96300027202E-05	-6.83043211441E+01	7.24461033592E-03	1.26234405870E+02
7.79158316633E+10	1.29700392968E-01	-9.82275932445E+01	1.06694466447E-04	-1.48982671580E+02	4.64216256105E-05	-1.25715190140E+02	6.21838433208E-03	1.20050842609E+02
7.79218436874E+10	1.29402051009E-01	-9.88552591312E+01	1.05624660006E-05	-1.39285160979E+02	6.64143395280E-05	-2.44677293311E+01	5.59145974454E-03	1.12726253919E+02
7.79278557114E+10	1.28949622017E-01	-9.84211382886E+01	6.46645537125E-05	-1.01240816441E+02	6.60885886305E-05	-1.17802828040E+02	5.86338699936E-03	1.09431308002E+02
7.79338677355E+10	1.33399081762E-01	-1.01362649951E+02	6.65499747490E-05	-9.26836149121E+01	1.18828925030E-04	-1.07999289463E+02	5.80618081012E-03	9.90200637672E+01
7.79398797595E+10	1.28401924344E-01	-9.82232403453E+01	7.41402563407E-05	-1.03624963157E+02	9.80220139633E-05	-1.55603523527E+02	5.86051672128E-03	9.40063840294E+01
7.79458917836E+10	1.25803996308E-01	-9.54575661228E+01	9.98169707291E-05	-1.61742299968E+02	1.21456990179E-04	1.75147589884E+02	5.61174569634E-03	8.04604398386E+01
7.79519038076E+10	1.26788855150E-01	-9.90449453662E+01	1.11365549283E-04	1.51468445246E+02	6.90620014553E-05	1.57963553086E+02	5.63567216959E-03	7.23751319178E+01
7.79579158317E+10	1.28333039669E-01	-9.87952503892E+01	5.49498669872E-05	-1.79851280605E+02	1.33477324832E-04	1.76399728004E+02	5.79616863734E-03	5.89829248413E+01
7.79639278557E+10	1.29414467331E-01	-9.95037152320E+01	3.30344033259E-05	7.40152081196E+01	4.50835685717E-05	7.71951932654E+01	6.17498549100E-03	5.70785265423E+01
7.79699398798E+10	1.28270936252E-01	-1.00565048245E+02	2.19048119870E-05	8.87303931119E+01	5.45440837102E-05	6.62933921392E+01	6.60390760867E-03	4.90053621154E+01
7.79759519038E+10	1.27896287521E-01	-1.00461729658E+02	4.99656189014E-05	1.28126818544E+02	6.18771593599E-05	1.70005203538E+02	7.19738108482E-03	4.66777949066E+01
7.79819639279E+10	1.30751330839E-01	-1.01652455121E+02	1.75530584961E-05	6.68534114992E+01	3.21427043873E-05	-1.02829763385E+02	7.58306369861E-03	3.47406424291E+01
7.79879759519E+10	1.28367462689E-01	-1.00738819870E+02	5.15232067961E-05	1.35143384697E+02	6.77288734798E-05	1.22282901347E+02	8.42647307015E-03	2.74646500602E+01
7.79939879760E+10	1.29831693576E-01	-1.01524576112E+02	1.02759562449E-04	1.00282409247E+02	6.63371299184E-05	1.71240706261E+02	8.48911950791E-03	3.01375867760E+01
7.80000000000E+10	1.29035744951E-01	-1.02512380074E+02	8.14670051433E-05	-1.96883436532E+00	2.15938258991E-05	1.75866141104E+02	8.74325572678E-03	2.98874304431E+01
