# Hz S MA R 50
! CMT, C4420, 21421029, 25.1.2/3
! Date: 8/7/2025 1:37:22 PM
! Data: Format (Calibration Info)
! Freq	S33:Mag/Ang(F2)	S43:Mag/Ang(F2)	S34:Mag/Ang(F2)	S44:Mag/Ang(F2)
7.50000000000E+10	1.99336325899E-01	-1.42405577843E+01	5.92237696495E-05	-5.98191029293E+01	5.02048602367E-05	-6.06528157779E+01	2.75059768816E-01	-2.99515613980E+01
7.50060120240E+10	1.99874576647E-01	-1.43342448426E+01	2.18811574232E-05	-1.22803665031E+02	3.31577283253E-05	1.32077844465E+02	2.74167532806E-01	-3.02549528933E+01
7.50120240481E+10	2.02283160802E-01	-1.53540855520E+01	9.00878999862E-05	-2.54039498094E+01	9.71854812996E-05	-2.50309444079E+01	2.74987879964E-01	-3.07820808274E+01
7.50180360721E+10	2.01214956950E-01	-1.49760873511E+01	6.32942514153E-05	-2.25483928614E+01	8.07828246745E-05	-9.81817202690E+01	2.69218065199E-01	-2.89438221584E+01
7.50240480962E+10	1.99921811433E-01	-1.45276911945E+01	6.31570010855E-05	3.69760472378E+01	4.41302346764E-05	-7.26398576563E+01	2.71348191142E-01	-3.08358725086E+01
7.50300601202E+10	1.99578046398E-01	-1.49530760886E+01	3.09005189825E-05	8.45330113457E+01	4.38449640335E-05	-1.65354859899E+02	2.72337169177E-01	-3.10492324090E+01
7.50360721443E+10	2.01691903823E-01	-1.58802845382E+01	3.46382997584E-05	1.57007407657E+02	1.85672785361E-05	-1.53930816260E+02	2.71871234065E-01	-3.12412512736E+01
7.50420841683E+10	2.01412789257E-01	-1.61961724039E+01	2.76843369195E-05	2.76310155016E+00	1.76374041852E-05	-1.76677834694E+02	2.71584255866E-01	-3.16174009714E+01
7.50480961924E+10	1.98836573811E-01	-1.73566289467E+01	4.74673614434E-05	2.55875508224E+01	3.63701326715E-05	-1.72789889576E+02	2.62438180482E-01	-3.00029539869E+01
7.50541082164E+10	1.95928870020E-01	-1.49756842139E+01	6.09601834075E-05	2.95102405470E+00	5.17198479736E-05	2.96276603776E+01	2.67902777080E-01	-3.13623054606E+01
7.50601202405E+10	2.00021503442E-01	-1.56192188137E+01	9.23555064904E-05	5.31709487319E+00	2.98225571441E-05	-5.18066432209E+00	2.70907295846E-01	-3.23409586053E+01
7.50661322645E+10	2.01920708575E-01	-1.70742364299E+01	2.01543278541E-05	7.55430759962E+01	4.04121096235E-05	7.53002340969E+01	2.66130619267E-01	-3.14635317929E+01
7.50721442886E+10	1.98864582144E-01	-1.71858359149E+01	6.06505709064E-05	-9.33276290034E+01	6.58372044275E-05	-1.76866453445E+02	2.66957697171E-01	-3.22532333208E+01
7.50781563126E+10	1.98341136584E-01	-1.72098743091E+01	2.92757928300E-05	1.39410035511E+02	4.09204344239E-05	1.17912930197E+02	2.67512144603E-01	-3.25555717623E+01
7.50841683367E+10	1.94934479091E-01	-1.58106148998E+01	6.73943053925E-05	-7.68063365847E+01	7.56039131327E-05	-1.62626420170E+02	2.72215222410E-01	-3.37342613362E+01
7.50901803607E+10	1.98617340999E-01	-1.77762978484E+01	4.69111526256E-05	-8.32767364740E+01	3.85304621461E-05	-1.69121143976E+02	2.74245745743E-01	-3.42758890871E+01
7.50961923848E+10	1.99918124050E-01	-1.82283544331E+01	2.85992631381E-05	1.66805251784E+02	7.98357500601E-05	6.14598098731E+01	2.65272788961E-01	-3.28943400670E+01
7.51022044088E+10	1.95790573252E-01	-1.67712961797E+01	7.44157577124E-05	-1.00523112734E+02	1.80148941769E-05	-3.89662845226E+01	2.66491009437E-01	-3.30445148209E+01
7.51082164329E+10	1.93241863096E-01	-1.54061706378E+01	5.94507945594E-05	-8.89893761776E+01	1.80729272074E-05	-6.71649570229E+01	2.67424226624E-01	-3.39169269493E+01
7.51142284569E+10	1.94300938956E-01	-1.70888007371E+01	7.03563884423E-05	-1.23395347052E+02	1.77104347115E-05	8.83613877304E+00	2.69553929957E-01	-3.55769532192E+01
7.51202404810E+10	1.96668414942E-01	-1.78644668997E+01	2.56105284740E-05	-1.43774723650E+02	4.37392784206E-05	-2.27489188918E+01	2.71446384024E-01	-3.61132076068E+01
7.51262525050E+10	1.95018126869E-01	-1.77222805251E+01	3.38948742410E-05	1.36962024790E+02	3.17613567226E-05	-3.53443410797E+01	2.60991289154E-01	-3.37891836212E+01
7.51322645291E+10	1.96742219334E-01	-1.88466078503E+01	2.97143627159E-05	-1.77136569552E+02	6.79097057609E-05	6.03366095394E+01	2.65301038349E-01	-3.43043257559E+01
7.51382765531E+10	1.96138779518E-01	-1.86595086447E+01	3.18919838771E-05	-9.29656038287E+01	2.49068140003E-05	2.28204323882E+01	2.63289111689E-01	-3.49254430185E+01
7.51442885772E+10	1.95303467409E-01	-1.86211401540E+01	1.44890502215E-05	-1.54708809303E+02	4.38045001873E-06	-1.03128904388E+02	2.67772979553E-01	-3.54294505897E+01
7.51503006012E+10	1.94637729870E-01	-1.90105400185E+01	1.23086047889E-04	-1.27208382500E+02	4.98940274661E-05	-1.30568246224E+02	2.66957641037E-01	-3.69324786426E+01
7.51563126253E+10	1.93273419393E-01	-1.97943251262E+01	8.07137458068E-05	-1.65563997501E+02	3.99992401354E-05	-1.09335555312E+02	2.62713879380E-01	-3.53227701745E+01
7.51623246493E+10	1.96646991117E-01	-1.97862932439E+01	7.51694841171E-05	-1.56061304458E+02	1.09555117631E-05	-1.54231403167E+02	2.62436194992E-01	-3.51146110148E+01
7.51683366733E+10	1.91757115465E-01	-1.76688865386E+01	5.05611728387E-05	1.54673823403E+02	1.02953674108E-05	-1.10587712863E+02	2.67274290272E-01	-3.64841005211E+01
7.51743486974E+10	1.98221213174E-01	-2.12161206928E+01	7.21170644988E-05	1.25479547817E+02	5.48579360120E-05	1.65139663228E+02	2.68318083867E-01	-3.79779352224E+01
7.51803607214E+10	1.93533368509E-01	-1.77954088421E+01	6.69478908244E-05	1.10822204050E+02	6.02074354451E-05	1.77744107218E+02	2.62899293710E-01	-3.72928699007E+01
7.51863727455E+10	1.97447691353E-01	-2.13613824342E+01	3.58772685485E-05	6.50058136654E+01	5.23139962127E-05	1.05027703937E+01	2.60061350355E-01	-3.57976202350E+01
7.51923847695E+10	1.93555567552E-01	-2.09987962297E+01	8.59134323396E-05	7.76240011632E+01	4.88580657556E-05	-1.70364079231E+01	2.68138923062E-01	-3.81301270888E+01
7.51983967936E+10	1.92802895090E-01	-1.89706540528E+01	6.21137192836E-05	-6.77051286735E+01	9.18333742150E-05	-9.06920779929E+01	2.65227457733E-01	-3.75821253460E+01
7.52044088176E+10	1.96503719848E-01	-2.03657329074E+01	5.90714377683E-05	4.38463029220E+01	3.18813286848E-05	1.58290065176E+01	2.61704269502E-01	-3.71531452587E+01
7.52104208417E+10	1.93319903139E-01	-1.97324813434E+01	3.96589542903E-05	1.70726229080E+02	5.41729101462E-05	-1.47837739364E+02	2.61016009047E-01	-3.77335034924E+01
7.52164328657E+10	1.94984749709E-01	-2.09669383857E+01	8.77101834010E-05	8.36849740645E+01	4.21315350936E-05	-4.87349441917E+01	2.67067092558E-01	-4.00817206475E+01
7.52224448898E+10	1.94236962254E-01	-2.16156782414E+01	1.65430048774E-06	1.76573575903E+02	1.11790819535E-04	1.22359287387E+02	2.63675099499E-01	-3.91925907099E+01
7.52284569138E+10	1.98020007574E-01	-2.21405222067E+01	1.29666180852E-05	8.12336987405E+01	8.76351491741E-05	1.65010468094E+02	2.58730956050E-01	-3.83569948358E+01
7.52344689379E+10	1.94675979312E-01	-2.27483089672E+01	6.85172543434E-05	6.55278415188E+01	9.22004174998E-05	1.16701927351E+02	2.62572260099E-01	-3.97406189155E+01
7.52404809619E+10	1.96033274064E-01	-2.13130243559E+01	5.74187705112E-05	3.11314552440E+01	7.10337108545E-05	8.21963281557E+01	2.64237903136E-01	-4.00835962138E+01
7.52464929860E+10	1.94060520348E-01	-2.14691013223E+01	8.34453032587E-05	-6.50052524676E+01	2.61734499499E-05	4.65378749748E+01	2.58718935140E-01	-3.84360882215E+01
7.52525050100E+10	1.90340853716E-01	-2.12942014677E+01	3.15569991452E-05	2.83571996869E+01	6.12017913387E-05	-9.25063984059E+01	2.62234294094E-01	-4.07871748268E+01
7.52585170341E+10	1.91740470831E-01	-2.22549157833E+01	7.40304225175E-05	7.17260509500E+00	5.29754742455E-05	9.26402791341E+01	2.62822299011E-01	-4.06747491659E+01
7.52645290581E+10	1.95213113915E-01	-2.36910441901E+01	3.27892921567E-05	1.62983777417E+02	4.76523197717E-05	-1.64197632107E+02	2.61705587003E-01	-4.04045373400E+01
7.52705410822E+10	1.91969001276E-01	-2.27392480035E+01	1.03424159329E-04	-4.67387235532E+01	3.66567437246E-05	-1.59738632863E+02	2.62012083102E-01	-4.15344456307E+01
7.52765531062E+10	1.89628513240E-01	-2.13318621698E+01	6.51764314682E-05	-1.30384518506E+02	3.91182452513E-05	-1.50006003693E+02	2.61226529946E-01	-4.22108874234E+01
7.52825651303E+10	1.88142026230E-01	-2.18044531581E+01	5.12784384337E-05	-6.82517612668E+01	1.26361818948E-04	-1.34015437574E+02	2.58818984664E-01	-4.14880320911E+01
7.52885771543E+10	1.91415265546E-01	-2.26038790492E+01	5.95588420107E-05	-3.02289094527E+01	7.52893325313E-05	1.31020908754E+02	2.61440793066E-01	-4.20820705603E+01
7.52945891784E+10	1.93864990322E-01	-2.33023280872E+01	6.14235302512E-05	-1.64017190142E+02	6.12827277407E-05	1.28680965396E+02	2.60995837752E-01	-4.18358105198E+01
7.53006012024E+10	1.90238593055E-01	-2.13098732668E+01	4.27228026521E-05	-1.69148004639E+01	2.22248760693E-05	2.40200800025E+01	2.60552392281E-01	-4.24700498255E+01
7.53066132265E+10	1.88505805111E-01	-2.23445463100E+01	6.58307531166E-05	-7.51815607982E+01	2.47313836948E-05	6.82769859685E+01	2.55542127672E-01	-4.13026535185E+01
7.53126252505E+10	1.89274424123E-01	-2.31052348447E+01	7.85213121222E-05	-1.70056981793E+02	2.84778211325E-05	-1.37176436955E-01	2.57937080146E-01	-4.33757837282E+01
7.53186372745E+10	1.90484137071E-01	-2.22038763540E+01	9.34455183921E-05	-1.15338469828E+02	4.52419571486E-05	8.62874188607E+01	2.58237688949E-01	-4.34247053818E+01
7.53246492986E+10	1.91672457024E-01	-2.35652389873E+01	6.50391519698E-05	-1.53316391502E+02	8.71250225784E-05	1.34412077472E+02	2.58769993230E-01	-4.27107715786E+01
7.53306613226E+10	1.89201146248E-01	-2.14922278125E+01	3.62980495083E-05	1.43381465924E+02	1.32604955735E-04	7.86785277433E+01	2.62720311040E-01	-4.43024867208E+01
7.53366733467E+10	1.89843724963E-01	-2.47811152307E+01	4.85749968611E-05	4.13117591008E+01	2.69658992976E-05	4.79244594430E+01	2.55125037798E-01	-4.37291243645E+01
7.53426853707E+10	1.87751922923E-01	-2.19548693704E+01	5.55227980313E-05	-4.53358475944E+01	9.82945653280E-05	3.60278627976E+01	2.56645827499E-01	-4.38519311038E+01
7.53486973948E+10	1.93242655762E-01	-2.40661239370E+01	5.05221937944E-05	-1.11311207331E+02	4.28191175904E-05	-4.08022252914E+01	2.57880042314E-01	-4.47657494858E+01
7.53547094188E+10	1.89614813373E-01	-2.31181124414E+01	5.21730463710E-05	-1.43171202367E+02	8.97896520036E-05	-1.74075011217E+02	2.57812813279E-01	-4.49088773825E+01
7.53607214429E+10	1.85131991630E-01	-1.94947544359E+01	3.56078607984E-05	2.11950366584E+01	5.75273052466E-05	1.10658492241E+02	2.57474671524E-01	-4.53167630349E+01
7.53667334669E+10	1.91637970200E-01	-2.55277142519E+01	7.39669548387E-05	1.40456380869E+02	3.34977606495E-05	1.57622886816E+02	2.56075084274E-01	-4.56025730602E+01
7.53727454910E+10	1.91244339524E-01	-2.47767745225E+01	9.20036501203E-05	1.12407329863E+02	3.80313297192E-05	5.95267087938E+01	2.55228526591E-01	-4.53914637258E+01
7.53787575150E+10	1.88340445204E-01	-2.45380917447E+01	4.33280959147E-05	1.08787829608E+02	9.70891556164E-05	6.65570696914E+01	2.55886735496E-01	-4.59090068796E+01
7.53847695391E+10	1.91472009064E-01	-2.59498264260E+01	1.24651069551E-05	1.52661388756E+02	5.33417803394E-05	3.33918158264E+01	2.55829750186E-01	-4.60379568490E+01
7.53907815631E+10	1.89393558436E-01	-2.46415688373E+01	3.27392910834E-05	1.18895107198E+02	5.50313461135E-05	4.93880256703E+01	2.55148033403E-01	-4.67964710589E+01
7.53967935872E+10	1.88074058215E-01	-2.35790390919E+01	5.52015536487E-05	8.10479216590E+01	9.77071959612E-06	1.41809268557E+02	2.57546766793E-01	-4.68137399854E+01
7.54028056112E+10	1.90749581007E-01	-2.65441584021E+01	2.03252991042E-05	-2.36340255632E+01	7.24173964361E-05	-5.69339162020E+01	2.58114787381E-01	-4.73917918301E+01
7.54088176353E+10	1.87117673259E-01	-2.51636431195E+01	8.08348220366E-05	1.66685513507E+01	9.51359674206E-05	-6.92134241359E+01	2.54558374934E-01	-4.67605825959E+01
7.54148296593E+10	1.88394545570E-01	-2.49353589524E+01	4.72411550564E-05	1.47602320975E+02	5.64143631175E-05	-6.84758125941E+01	2.51068981695E-01	-4.74893726505E+01
7.54208416834E+10	1.94631919058E-01	-2.81097575789E+01	2.86457306549E-05	-1.72929410767E+02	5.52951117521E-05	-1.36604451144E+02	2.52641194738E-01	-4.67705888777E+01
7.54268537074E+10	1.91317246369E-01	-2.75706983315E+01	4.55221714370E-05	7.51228718609E+01	8.14487307737E-05	-1.61216859098E+02	2.57433473189E-01	-4.88106245659E+01
7.54328657315E+10	1.86348143925E-01	-2.54376674941E+01	1.69438542827E-05	-3.37653516574E+01	8.76404709790E-05	1.70827969651E+02	2.54465836752E-01	-4.87455854581E+01
7.54388777555E+10	1.86290071600E-01	-2.59763534345E+01	5.93842642365E-05	-2.49984895917E+01	9.20564318113E-05	1.75278645918E+02	2.50866736053E-01	-4.84270986557E+01
7.54448897796E+10	1.85188752729E-01	-2.68068919603E+01	3.49998646870E-05	3.94531095840E+00	3.58015696780E-05	-1.32616981237E+02	2.51432105515E-01	-4.84814563160E+01
7.54509018036E+10	1.91843829578E-01	-2.86611708538E+01	3.12481641326E-05	9.69103679077E+01	3.91404214945E-05	-1.87303606251E+01	2.52445207134E-01	-4.92731805060E+01
7.54569138277E+10	1.87920568762E-01	-2.75203094634E+01	8.79935371117E-05	2.96638918478E+01	1.00025615599E-04	-7.45646833688E+01	2.54158819278E-01	-5.09663268619E+01
7.54629258517E+10	1.90848535304E-01	-2.85365889784E+01	3.73540006309E-05	-5.64495940177E+01	4.42988809967E-05	8.81619517623E+00	2.55974285834E-01	-5.13013874477E+01
7.54689378758E+10	1.89182698330E-01	-2.98018125829E+01	1.55321087251E-04	-3.05658684188E+01	8.92696988106E-05	1.54724164559E+02	2.52964673454E-01	-4.98605548722E+01
7.54749498998E+10	1.86710945506E-01	-2.65769754413E+01	7.85469966411E-05	-7.16554824447E+01	8.71170023639E-05	-1.39874759242E+02	2.51622362166E-01	-4.98375979639E+01
7.54809619238E+10	1.88338854028E-01	-2.78265546272E+01	6.55845543241E-05	1.13526345270E+01	7.49079299021E-05	1.75068908884E+02	2.50747411561E-01	-5.01152924863E+01
7.54869739479E+10	1.89717231957E-01	-2.83533408991E+01	4.99688630675E-05	-9.60408868075E+01	5.65617949417E-05	-1.14045963018E+02	2.52197102710E-01	-5.20213946324E+01
7.54929859719E+10	1.87889609946E-01	-2.83659701273E+01	1.58513647928E-05	-1.11403208166E+02	5.90690305381E-05	1.37254017283E+02	2.54420624311E-01	-5.26487559173E+01
7.54989979960E+10	1.86569203160E-01	-2.92504922618E+01	9.67595712355E-05	-7.97936445299E+01	6.74418453159E-05	1.60405041702E+02	2.51799291458E-01	-5.17349038800E+01
7.55050100200E+10	1.90311104554E-01	-3.08832076014E+01	7.44902528958E-05	-8.56964535131E+01	3.37846174094E-05	-1.75264726391E+02	2.52805611720E-01	-5.22248430977E+01
7.55110220441E+10	1.90476867097E-01	-2.97819779826E+01	3.32019137053E-05	-1.03469571857E+02	3.12472279771E-05	-1.57326013070E+02	2.50681518454E-01	-5.23211637615E+01
7.55170340681E+10	1.87684842837E-01	-2.96511484990E+01	5.79607546576E-05	-1.32703261137E+02	1.17794538798E-04	1.06342993053E+02	2.51769533827E-01	-5.30355185226E+01
7.55230460922E+10	1.85495486026E-01	-2.88277863478E+01	1.29623120088E-05	-1.43864438201E+02	7.70255584278E-05	1.05167251984E+02	2.52250790820E-01	-5.37648190360E+01
7.55290581162E+10	1.88326019665E-01	-3.13376707455E+01	4.35752159443E-05	9.72639685878E+01	4.76813275339E-05	5.23884492029E+01	2.50244537157E-01	-5.33148010477E+01
7.55350701403E+10	1.88789601140E-01	-3.05533129347E+01	2.17730593994E-05	5.39518431923E+01	3.19787287108E-05	-2.34489363248E+01	2.46114104265E-01	-5.26137149205E+01
7.55410821643E+10	1.86082149973E-01	-2.92236243594E+01	5.13624616912E-05	7.67616854064E+00	4.98986217523E-05	3.75352587979E+01	2.49121294460E-01	-5.34894639083E+01
7.55470941884E+10	1.87158748659E-01	-2.97896793390E+01	1.67960699620E-05	4.35586265488E+01	1.41081175335E-04	3.67762778550E+01	2.49798208262E-01	-5.45668579140E+01
7.55531062124E+10	1.88433642467E-01	-3.11215644694E+01	2.66116569606E-05	-7.87517340659E+01	3.18992105632E-05	-1.46125462252E+00	2.50236564366E-01	-5.46320869822E+01
7.55591182365E+10	1.85535213879E-01	-3.12186964984E+01	9.10447617711E-06	1.48955350964E+02	5.27264682595E-05	-2.69704644696E+01	2.45885744394E-01	-5.40445253561E+01
7.55651302605E+10	1.85830248676E-01	-3.10804190945E+01	8.27251673150E-05	-1.03250294581E+02	7.92792249581E-05	-4.87133639664E+01	2.46454599643E-01	-5.43051308945E+01
7.55711422846E+10	1.87883398368E-01	-3.06872478549E+01	5.44059489650E-05	1.53387520877E+02	2.61908655136E-05	-1.74637445386E+02	2.50681632756E-01	-5.56853013237E+01
7.55771543086E+10	1.84865893846E-01	-3.00622907975E+01	3.72296841456E-06	-9.84879759925E+01	2.03170638283E-05	1.55644642572E+02	2.49187304817E-01	-5.63394075698E+01
7.55831663327E+10	1.83137833870E-01	-3.13168610278E+01	5.59388259649E-05	1.52080154817E+02	1.92784787148E-05	1.61630584494E+02	2.45094086200E-01	-5.54200095799E+01
7.55891783567E+10	1.86024353775E-01	-3.17581909942E+01	6.68396888431E-05	9.68507973354E+01	6.79344502041E-05	9.57149787478E+01	2.46092644356E-01	-5.58480495955E+01
7.55951903808E+10	1.87699453581E-01	-3.32845734614E+01	7.90717880296E-05	6.78274432689E+01	5.11393430544E-05	-4.93547784985E+01	2.47883479428E-01	-5.59057510830E+01
7.56012024048E+10	1.91912972348E-01	-3.43532606901E+01	6.28792505338E-05	4.57745146699E+01	5.57415589782E-05	-6.57783512283E+01	2.46427382126E-01	-5.63752120681E+01
7.56072144289E+10	1.87922338695E-01	-3.31167776652E+01	2.44328445577E-05	-1.45865734835E+02	1.01612797804E-04	-1.04674092617E+02	2.44955628647E-01	-5.80414765978E+01
7.56132264529E+10	1.86597895719E-01	-3.29613886155E+01	4.05276824980E-05	7.03317645970E+01	8.66030183910E-05	-5.38374914713E+01	2.48052258741E-01	-5.87430730805E+01
7.56192384770E+10	1.83937863221E-01	-3.33585404612E+01	3.06914075534E-05	-5.53629455175E+01	8.40730997645E-05	-1.13419372472E+02	2.46104685471E-01	-5.80098066990E+01
7.56252505010E+10	1.82787091383E-01	-3.17419089223E+01	8.08403124122E-05	9.73201474522E+00	9.80817633371E-05	-1.31362400832E+02	2.46215614814E-01	-5.80410458789E+01
7.56312625251E+10	1.87007826078E-01	-3.33065028071E+01	6.75963617059E-05	-1.44438314006E+02	9.99106661767E-05	-1.59246513974E+02	2.43076127578E-01	-5.79131655080E+01
7.56372745491E+10	1.85416613845E-01	-3.35683940122E+01	7.01329380986E-05	-1.62537229955E+02	4.32021041927E-05	-1.75355801754E+02	2.43044033980E-01	-5.76228860011E+01
7.56432865731E+10	1.82903914135E-01	-3.36717185034E+01	3.28110744339E-05	-1.01075065932E+02	6.91875817727E-05	-1.72887643438E+02	2.46752743843E-01	-5.93950268515E+01
7.56492985972E+10	1.83478170431E-01	-3.36941713060E+01	2.32245606549E-05	-1.55033301068E+02	4.76846872278E-05	1.45066870123E+02	2.45701522356E-01	-6.07152798106E+01
7.56553106212E+10	1.84711735580E-01	-3.34444440685E+01	6.51857242353E-05	-1.62128466189E+02	8.41730604468E-05	1.71291399540E+02	2.42748558369E-01	-5.89890402877E+01
7.56613226453E+10	1.86078449061E-01	-3.38849920510E+01	5.39763822917E-05	1.63001391078E+02	5.88259343988E-05	5.83990348668E+01	2.41984926800E-01	-5.91442418300E+01
7.56673346693E+10	1.83320703845E-01	-3.32897336660E+01	7.35342183605E-05	-1.30163895491E+01	8.27749819496E-05	1.32963128706E+02	2.44352521161E-01	-5.99315572757E+01
7.56733466934E+10	1.82650183258E-01	-3.38419107769E+01	6.76515098384E-05	-1.36348671181E+02	3.23357380988E-05	7.11694661279E+01	2.42920849948E-01	-6.09474178538E+01
7.56793587174E+10	1.81591214937E-01	-3.37322786591E+01	2.91503215917E-05	-7.35469020049E+01	6.73256974260E-05	-1.10317657042E+00	2.38740743211E-01	-5.94776571739E+01
7.56853707415E+10	1.83764192755E-01	-3.54414387705E+01	5.07124770150E-05	-1.54638076519E+02	4.80845493172E-05	-1.24338365444E+02	2.44023532463E-01	-6.12785491083E+01
7.56913827655E+10	1.83059044135E-01	-3.45730813137E+01	4.93263191892E-05	-5.83742065471E+01	2.23970385504E-05	-1.61701717068E+02	2.40262023039E-01	-6.05012432645E+01
7.56973947896E+10	1.84467020309E-01	-3.55887517863E+01	2.23309354411E-05	-1.44555120400E+02	3.18675804429E-05	-1.68127385848E+02	2.39753291780E-01	-6.18196270095E+01
7.57034068136E+10	1.86407568655E-01	-3.55821945752E+01	1.19615858927E-04	-1.68247006522E+02	1.14084641391E-04	1.68910272870E+02	2.36757216287E-01	-6.02679488783E+01
7.57094188377E+10	1.83684280120E-01	-3.66424550002E+01	7.08094287978E-05	1.45311183969E+02	8.87935228130E-05	1.78177715650E+02	2.39508304484E-01	-6.25909301180E+01
7.57154308617E+10	1.84223580455E-01	-3.67637211155E+01	6.31316913003E-05	1.36783963097E+02	6.95988836674E-05	7.76739137158E+01	2.38968707788E-01	-6.09209549033E+01
7.57214428858E+10	1.85688248808E-01	-3.63299568933E+01	7.91972314150E-05	1.37108979264E+02	7.11294840120E-05	7.88927279713E+01	2.41502524226E-01	-6.23353407087E+01
7.57274549098E+10	1.87129939408E-01	-3.71681959476E+01	1.18623226468E-04	1.36634015882E+02	8.10774872382E-05	1.20279302107E+02	2.38893350396E-01	-6.33270306477E+01
7.57334669339E+10	1.84381794699E-01	-3.75942764099E+01	7.61951576727E-05	6.62210291893E+01	5.92962296021E-05	9.73374357856E+01	2.41604584570E-01	-6.45582881012E+01
7.57394789579E+10	1.80720450393E-01	-3.63153119236E+01	4.38218452812E-05	4.68291765057E+01	8.01609528582E-05	4.76135884040E+01	2.39912252524E-01	-6.45853769073E+01
7.57454909820E+10	1.80989552062E-01	-3.52640894730E+01	5.54256874410E-05	1.20067823260E+02	3.34387019548E-05	4.55792178013E+01	2.35338931672E-01	-6.26412130068E+01
7.57515030060E+10	1.85314471621E-01	-3.69925248488E+01	4.53766288750E-05	4.28098264773E+01	4.24633385730E-05	6.55874163838E+01	2.41678129531E-01	-6.53485754756E+01
7.57575150301E+10	1.83118387457E-01	-3.68577765225E+01	4.47346936039E-05	3.79158923142E+01	7.88722274007E-05	-1.28643393196E+00	2.37411541191E-01	-6.46666714317E+01
7.57635270541E+10	1.81576064655E-01	-3.74533435032E+01	6.29896537597E-05	2.47573796009E+01	2.60760133582E-05	9.41313146256E+01	2.34661045954E-01	-6.50954501770E+01
7.57695390782E+10	1.82727281653E-01	-3.82033971060E+01	3.43945273861E-05	1.00480236842E+02	5.30273667961E-05	-5.29954485468E+01	2.39595161489E-01	-6.47679092939E+01
7.57755511022E+10	1.83658896984E-01	-3.90297857105E+01	4.80913421289E-05	3.23113607521E+01	3.91111292664E-05	9.26191287530E+00	2.37698255202E-01	-6.55671081462E+01
7.57815631263E+10	1.80530679605E-01	-3.70371174598E+01	1.82196778508E-05	1.15259080933E+02	5.09994883823E-05	6.96965082806E+01	2.35689595873E-01	-6.58562276508E+01
7.57875751503E+10	1.80062362217E-01	-3.73879130681E+01	3.68162071481E-05	5.37225861113E+01	4.41066072781E-05	-1.13191479877E+02	2.33657654718E-01	-6.58866509534E+01
7.57935871743E+10	1.84010514926E-01	-3.84402494390E+01	2.49101441296E-05	3.36632537733E+01	3.49884497877E-05	6.57611963409E+01	2.35142042421E-01	-6.58822825600E+01
7.57995991984E+10	1.79123324134E-01	-3.88958515885E+01	2.49631993634E-05	1.99835258259E+01	4.74202887591E-05	3.86490632631E+00	2.35342985124E-01	-6.64640836395E+01
7.58056112224E+10	1.82530468996E-01	-3.91391369301E+01	5.48769961948E-05	1.53185474318E+01	7.82298056512E-05	-1.49901219808E+01	2.36066148089E-01	-6.82876803532E+01
7.58116232465E+10	1.84923690256E-01	-3.93812286467E+01	7.60638113542E-05	3.23309718345E+01	2.87585777212E-05	1.40131229991E+01	2.33783934839E-01	-6.80477980529E+01
7.58176352705E+10	1.78651442842E-01	-3.71386897668E+01	4.08053199298E-05	-1.24646982744E+02	6.88398620620E-05	-1.35451483207E+02	2.32436708168E-01	-6.78834747272E+01
7.58236472946E+10	1.80838439773E-01	-3.92308358190E+01	8.02640517807E-05	-5.32842972149E+01	4.58762537147E-05	-1.24518741831E+01	2.32366045301E-01	-6.72883244753E+01
7.58296593186E+10	1.79486369769E-01	-3.87179270525E+01	5.00045115286E-05	-1.02094869673E+02	3.29725255931E-05	-9.10268381770E+01	2.34274647515E-01	-6.81722924935E+01
7.58356713427E+10	1.81125913601E-01	-3.98107335425E+01	7.47443079476E-05	-1.09237409720E+02	2.39347947162E-05	1.69406853072E+01	2.32365636293E-01	-6.87375149011E+01
7.58416833667E+10	1.80161687014E-01	-3.96173363753E+01	1.94957311686E-05	-9.36455889424E+01	7.24304803184E-05	1.15912584494E+02	2.31107300362E-01	-6.95730149003E+01
7.58476953908E+10	1.80469419677E-01	-4.16412647780E+01	4.54651637370E-05	1.70890961986E+02	5.37959782601E-05	-1.73465145285E+02	2.27711188577E-01	-6.82384977838E+01
7.58537074148E+10	1.82502480246E-01	-4.11121559697E+01	5.69298341027E-05	1.53534822266E+02	5.21344326151E-05	-1.46009764644E+02	2.32092216600E-01	-6.92698298425E+01
7.58597194389E+10	1.82323788141E-01	-4.10466209763E+01	3.29888503408E-05	5.98666652723E+01	1.41807614691E-05	1.05448602139E+02	2.31266690905E-01	-7.12816946064E+01
7.58657314629E+10	1.78841184875E-01	-3.90138244761E+01	5.93536599018E-05	1.14412960271E+02	5.13542567691E-05	3.05512814915E+01	2.29495749891E-01	-6.87611925109E+01
7.58717434870E+10	1.78583920157E-01	-4.20546444224E+01	8.78757985304E-05	2.73462672518E+01	4.29721583992E-05	9.58505842559E+00	2.29620190895E-01	-6.98379201766E+01
7.58777555110E+10	1.77728248203E-01	-3.93501402252E+01	3.35962856200E-05	1.28081734305E+01	5.98197994820E-05	-7.24075370805E+01	2.33044469731E-01	-7.19486238241E+01
7.58837675351E+10	1.76509887459E-01	-4.07409505218E+01	1.32311133124E-05	-2.66017819697E+01	4.34328344100E-05	-4.22901640125E+01	2.28197855255E-01	-7.10203784610E+01
7.58897795591E+10	1.78695077226E-01	-4.13310701752E+01	5.81222440711E-05	-8.12344039709E+01	1.00402138950E-04	-5.88989178602E+01	2.27322446670E-01	-7.09748745511E+01
7.58957915832E+10	1.80105883522E-01	-4.30937812022E+01	7.26872825452E-05	-1.41662587286E+00	3.71284314710E-05	-4.62270609895E+01	2.25493270850E-01	-7.13795060878E+01
7.59018036072E+10	1.80271157315E-01	-4.28207587810E+01	7.44883261407E-05	-5.23280088436E+01	7.65795460478E-05	1.68272517407E+01	2.28466661508E-01	-7.34135347017E+01
7.59078156313E+10	1.78888647706E-01	-4.22037874141E+01	2.44088522723E-05	2.44483803196E+00	1.02489890323E-04	-1.66152501464E+01	2.29440270580E-01	-7.37267185334E+01
7.59138276553E+10	1.78505372506E-01	-4.37102411300E+01	5.96579343762E-05	-3.81341172722E+01	8.32366507759E-05	-6.42756319121E+01	2.25710667442E-01	-7.23810422165E+01
7.59198396794E+10	1.81026669565E-01	-4.27399153772E+01	7.14097584036E-05	-6.87650204114E+01	4.12637690660E-05	-9.73923256096E+01	2.25522942605E-01	-7.29015071037E+01
7.59258517034E+10	1.78062679112E-01	-4.10537037065E+01	6.06320604702E-05	-9.65695305354E+01	1.46458929788E-04	-1.26623541293E+02	2.27317989875E-01	-7.38203439026E+01
7.59318637275E+10	1.78849653849E-01	-4.33525943393E+01	5.49199498100E-05	-1.25152378654E+02	3.71046350214E-05	1.27662355436E+02	2.27753590130E-01	-7.43633590582E+01
7.59378757515E+10	1.77094237958E-01	-4.39576813487E+01	1.66231751152E-05	1.79156871058E+02	3.15251779682E-06	-9.28310886006E+01	2.26085496780E-01	-7.47660962624E+01
7.59438877756E+10	1.78343684566E-01	-4.18633104104E+01	7.70245979273E-05	-1.06358874876E+02	2.36163932852E-05	-2.29907456621E+01	2.25744595682E-01	-7.47298154683E+01
7.59498997996E+10	1.80050910288E-01	-4.38111731563E+01	8.44506658502E-05	-1.32895841034E+02	3.51940445541E-05	-6.74288692886E+01	2.23480603004E-01	-7.42865995774E+01
7.59559118236E+10	1.79550214349E-01	-4.41658248771E+01	1.06423498234E-04	-1.45493142551E+02	1.26697302051E-05	1.24513549752E+02	2.23715475677E-01	-7.51349456708E+01
7.59619238477E+10	1.78079058649E-01	-4.55071568843E+01	5.64212270396E-05	-1.71285299689E+02	3.20996261484E-05	-1.43992329692E+02	2.22517807449E-01	-7.56777389746E+01
7.59679358717E+10	1.76974545951E-01	-4.34239113227E+01	1.50214619118E-04	-1.63646873909E+02	8.52723793282E-05	1.75797914091E+02	2.21798753549E-01	-7.62366892528E+01
7.59739478958E+10	1.78888450494E-01	-4.36961175048E+01	6.86487423328E-05	-1.53386793044E+02	1.13899844667E-04	1.73847874563E+02	2.21958222575E-01	-7.60394166799E+01
7.59799599198E+10	1.78894490082E-01	-4.41182257092E+01	7.30442246193E-05	1.57740894177E+02	4.93728112039E-05	1.55635278368E+02	2.21888580342E-01	-7.55900313241E+01
7.59859719439E+10	1.74691535859E-01	-4.49617296542E+01	3.01382022943E-05	-1.08516532891E+02	4.04125700522E-05	1.58042953637E+01	2.19896683639E-01	-7.62493613685E+01
7.59919839679E+10	1.77629518373E-01	-4.49088660691E+01	7.74753099810E-06	1.78092543463E+02	5.67913859077E-05	1.31889172878E+02	2.23385207632E-01	-7.82944641164E+01
7.59979959920E+10	1.78241438883E-01	-4.44503683908E+01	7.89602106639E-05	8.93623667239E+01	5.33883135383E-05	1.53505473858E+02	2.19965954617E-01	-7.81270119828E+01
7.60040080160E+10	1.75737716385E-01	-4.43431666072E+01	4.87665983266E-05	-1.71313651016E+02	4.62769753120E-05	7.62383819742E+01	2.23286672466E-01	-7.92018764586E+01
7.60100200401E+10	1.76625546265E-01	-4.60076150354E+01	3.27929909058E-05	3.95237982725E+01	6.07593703558E-05	3.03594666303E+01	2.17177706248E-01	-7.72592063858E+01
7.60160320641E+10	1.74572628527E-01	-4.47114736262E+01	4.72427645088E-05	7.86794603372E+01	5.96989289365E-05	-1.56550503160E+02	2.19662751139E-01	-7.79125119704E+01
7.60220440882E+10	1.75033586397E-01	-4.57402963382E+01	3.84035437144E-05	3.59198039168E+01	4.73835730735E-05	8.05438602703E+01	2.17788399618E-01	-7.77375620834E+01
7.60280561122E+10	1.76738707708E-01	-4.74538609708E+01	7.12957394316E-06	-1.62217473925E+02	1.22727346347E-05	-3.19982909306E+01	2.14258376919E-01	-7.80608335286E+01
7.60340681363E+10	1.75196403592E-01	-4.59402766712E+01	3.14772183026E-05	-1.37336533526E+02	1.98694572231E-05	3.85748446896E+01	2.13410551427E-01	-7.81316009717E+01
7.60400801603E+10	1.74217789329E-01	-4.56041208625E+01	2.23598553823E-05	4.70445108242E+01	8.81968785071E-05	1.64997466711E+02	2.18557850494E-01	-8.12746141478E+01
7.60460921844E+10	1.74001601975E-01	-4.55092277529E+01	3.54787129065E-05	-1.63426700764E+02	2.82883915011E-05	-1.77375191872E+02	2.14655866092E-01	-7.89263632131E+01
7.60521042084E+10	1.71695291888E-01	-4.50958525432E+01	5.68212949683E-06	-1.64272145046E+02	1.12323261760E-04	1.39906629878E+02	2.14170563362E-01	-7.92616481531E+01
7.60581162325E+10	1.73668884379E-01	-4.72136675031E+01	2.98204628654E-05	9.54060527438E+01	4.43453021880E-05	1.76015835391E+02	2.15801164256E-01	-8.05501325190E+01
7.60641282565E+10	1.75422678902E-01	-4.75422763344E+01	3.25505545712E-05	-1.29632297391E+02	4.31037119528E-05	6.20333589656E+01	2.14365636978E-01	-8.16243160965E+01
7.60701402806E+10	1.71429650757E-01	-4.48928758776E+01	7.90436569243E-05	3.00359897703E+01	3.00968458402E-05	-3.49502041283E+01	2.13981465580E-01	-8.11536646051E+01
7.60761523046E+10	1.73635970210E-01	-4.90604112927E+01	3.52072144364E-05	-6.20528071320E+01	9.12264890348E-05	-1.27157333847E+02	2.13723074379E-01	-8.14793135450E+01
7.60821643287E+10	1.74970972927E-01	-4.79665926008E+01	5.92885045659E-06	1.68989531107E+02	4.02627086569E-05	-9.55091683632E+01	2.12385274724E-01	-8.14586083909E+01
7.60881763527E+10	1.73319901632E-01	-4.58654680181E+01	5.69736024412E-05	1.60032556841E+02	6.06625742664E-05	-9.78198246233E+01	2.12982397257E-01	-8.23298070341E+01
7.60941883768E+10	1.71398104005E-01	-4.81035122179E+01	3.05153739425E-05	-9.20616260466E+01	9.22294135258E-05	-6.54552089065E+01	2.10488338156E-01	-8.19766562940E+01
7.61002004008E+10	1.72227415590E-01	-4.78260080166E+01	2.57622109132E-05	1.73831578458E+02	3.22435730825E-05	8.32262671995E+01	2.10751236249E-01	-8.24274124884E+01
7.61062124248E+10	1.74693775713E-01	-4.86935341399E+01	4.75408559671E-05	-6.71472488999E+01	2.03489598928E-05	-9.25865393515E+01	2.07086897008E-01	-8.10089362367E+01
7.61122244489E+10	1.70761270873E-01	-4.78456928376E+01	1.13612377974E-04	-1.47628796305E+02	2.78828817797E-05	1.32191646009E+02	2.07700169780E-01	-8.23504053281E+01
7.61182364729E+10	1.74127762620E-01	-4.80912974770E+01	8.32958529732E-05	1.68824673290E+02	5.76880359557E-05	9.41058725026E+01	2.10210447656E-01	-8.42889628005E+01
7.61242484970E+10	1.69710458639E-01	-4.72643666110E+01	3.19739610539E-05	-1.39825948869E+02	5.02606465052E-05	1.40208046798E+02	2.10175055561E-01	-8.47157649042E+01
7.61302605210E+10	1.70947517970E-01	-4.77845968558E+01	5.46657244157E-05	4.88390382852E+01	2.59407599926E-05	4.28273720324E+01	2.06903021987E-01	-8.33313326935E+01
7.61362725451E+10	1.71277407401E-01	-4.99474598264E+01	5.20705848516E-05	4.10638012488E+01	7.24624474736E-05	-2.12124203970E+01	2.05046288517E-01	-8.34200519293E+01
7.61422845691E+10	1.73690337189E-01	-5.06173022940E+01	2.02285743495E-05	-3.66800490454E+01	1.14575666573E-05	3.91043774323E+01	2.05182376974E-01	-8.43819528578E+01
7.61482965932E+10	1.68784821180E-01	-4.93597863589E+01	3.96916769166E-05	-8.08739467835E+01	6.66155662536E-05	1.02928039491E+02	2.07879256823E-01	-8.56435648651E+01
7.61543086172E+10	1.72826181385E-01	-4.92769718860E+01	3.37680754544E-05	2.05564475628E+01	4.87863881008E-05	-8.44290072838E+01	2.04286089904E-01	-8.38510427291E+01
7.61603206413E+10	1.69794469830E-01	-4.75494982535E+01	7.78126516539E-05	2.62720877763E+01	5.92342155400E-05	8.43695432509E+01	2.07468532024E-01	-8.60318804012E+01
7.61663326653E+10	1.69764484252E-01	-4.90407239846E+01	8.67609708138E-05	-8.04193131871E+01	3.63863208195E-05	-3.56810689330E+01	2.06214360530E-01	-8.63767249530E+01
7.61723446894E+10	1.72534399336E-01	-5.05582515055E+01	2.28919264997E-05	5.93176491488E+01	5.84960645142E-05	-7.60494315501E+01	2.06460406690E-01	-8.72858488268E+01
7.61783567134E+10	1.72315988127E-01	-5.08374335058E+01	5.89377000484E-05	4.66780320369E+01	6.74412034620E-05	-4.63851857217E+01	2.02922840894E-01	-8.60126650015E+01
7.61843687375E+10	1.70116682443E-01	-5.10674556948E+01	4.57251036523E-05	3.99027349271E+01	6.35102563121E-05	-3.93538546276E+01	2.03084550899E-01	-8.70397045427E+01
7.61903807615E+10	1.71071878647E-01	-5.12601886344E+01	5.11390169366E-05	2.50528149336E+01	1.50264812993E-04	-4.62943888029E+01	2.01409348972E-01	-8.67151218353E+01
7.61963927856E+10	1.71341702171E-01	-4.98819296105E+01	3.88376957476E-05	-7.00624818274E+01	1.14508146467E-04	-7.61475803045E+01	2.01717314827E-01	-8.70333474166E+01
7.62024048096E+10	1.67917295104E-01	-5.01176446106E+01	7.13690508561E-05	8.51030467449E+01	4.38889359292E-05	1.55394348159E+02	2.00490508585E-01	-8.64684834424E+01
7.62084168337E+10	1.68191768703E-01	-4.95329892442E+01	2.36020525533E-05	2.47959649305E+01	7.94669760153E-05	1.21591524426E+02	1.99746265205E-01	-8.71619961259E+01
7.62144288577E+10	1.68724256768E-01	-4.89882241384E+01	8.83366746397E-05	-1.27351569775E+01	2.17091280256E-05	-9.64790856542E+01	2.02513201832E-01	-8.87033967101E+01
7.62204408818E+10	1.70036531234E-01	-5.03980619290E+01	6.11511386586E-05	-1.23721559724E+02	4.78265642613E-05	6.88350531831E+01	2.02633716689E-01	-8.95911349463E+01
7.62264529058E+10	1.69688481316E-01	-5.07313681191E+01	6.25085101930E-05	-6.31029074564E+01	1.22775124835E-04	-4.48621388225E+01	2.00543146641E-01	-8.91992073024E+01
7.62324649299E+10	1.68655729430E-01	-5.17180727875E+01	7.38745016425E-05	-8.51670812694E+01	5.08998454623E-05	-6.38322876462E+01	1.98750117253E-01	-8.86066089851E+01
7.62384769539E+10	1.68177479403E-01	-5.17618990679E+01	1.74947996889E-05	-1.04318259045E+02	5.12055739556E-05	-8.01015591191E+01	1.96250505825E-01	-8.85597144220E+01
7.62444889780E+10	1.66778838696E-01	-4.95355802752E+01	4.39515743741E-05	-1.33005039556E+02	5.87881717548E-05	-1.14654239060E+02	1.97482627487E-01	-8.94694159526E+01
7.62505010020E+10	1.70001403509E-01	-5.20995687307E+01	1.01777739823E-04	1.49580897165E+02	8.09582373618E-05	1.42519023398E+02	1.98625498220E-01	-9.03150210835E+01
7.62565130261E+10	1.68042027065E-01	-4.82564061158E+01	8.24806880323E-05	1.34635774337E+02	4.15994422292E-05	-7.73855895685E+01	1.95200783171E-01	-8.93572107458E+01
7.62625250501E+10	1.68364611758E-01	-5.28077879539E+01	6.83093301072E-05	1.57628189778E+02	4.29263895038E-05	1.32370807567E+02	1.98185785661E-01	-9.03221765547E+01
7.62685370741E+10	1.68367031138E-01	-5.30502281438E+01	8.61765309247E-05	6.05349421009E+01	3.31049890322E-05	5.11234433842E+01	1.95634272696E-01	-9.04120568900E+01
7.62745490982E+10	1.67659684481E-01	-5.33451907412E+01	6.42300279475E-05	1.19933599125E+02	5.98462398406E-05	4.34716891190E+01	1.98996394422E-01	-9.18776549821E+01
7.62805611222E+10	1.69078493028E-01	-5.28217055209E+01	7.42742673553E-05	-1.30536527221E+01	3.00347882145E-05	-7.11605926250E+00	1.96934707594E-01	-9.22644806064E+01
7.62865731463E+10	1.67935527114E-01	-5.04842360371E+01	9.65157361155E-06	6.60558284194E+01	4.47503326002E-05	-1.26548608784E+02	1.95009647502E-01	-9.16191151195E+01
7.62925851703E+10	1.66757036509E-01	-5.35619503778E+01	2.19297919673E-05	1.22628820041E+02	1.78648434334E-05	-9.51039530152E+01	1.91834065291E-01	-9.03901493050E+01
7.62985971944E+10	1.68467682518E-01	-5.41809335992E+01	4.34007891528E-05	6.43138481754E+01	5.42954492043E-05	-2.25195685244E+01	1.91782277833E-01	-9.07517266847E+01
7.63046092184E+10	1.66341640026E-01	-5.39514672501E+01	6.09155651272E-05	-1.86836357165E+01	8.04774221895E-05	-1.61821923251E+02	1.92383163756E-01	-9.14385112358E+01
7.63106212425E+10	1.66788211957E-01	-5.29706532880E+01	9.81006473523E-05	-1.08266181456E+02	3.15137509323E-05	5.39634254428E+01	1.95044147619E-01	-9.35125425050E+01
7.63166332665E+10	1.65171904824E-01	-5.44426161500E+01	5.89534166552E-05	-1.40124967194E+02	6.60509151320E-05	1.62042902729E+02	1.93666451774E-01	-9.35286314230E+01
7.63226452906E+10	1.69240864769E-01	-5.49242570170E+01	8.12498545984E-05	1.37142596767E+02	9.02573557790E-05	-1.44817668408E+02	1.90319145283E-01	-9.23262006527E+01
7.63286573146E+10	1.65288295357E-01	-5.41464704921E+01	2.64486624726E-05	4.03209559994E+01	2.63331247635E-05	-3.69867794567E+01	1.90460785017E-01	-9.25931749423E+01
7.63346693387E+10	1.64895786848E-01	-5.49240662699E+01	3.84534096983E-05	-3.22294036156E+01	7.72600823430E-05	6.71336459137E+01	1.94139425929E-01	-9.47222845672E+01
7.63406813627E+10	1.64594595686E-01	-5.24512854480E+01	3.44339647787E-05	2.27665928306E+01	6.77022025746E-05	6.23158816077E+01	1.92125985834E-01	-9.53517040143E+01
7.63466933868E+10	1.68368076477E-01	-5.46875824424E+01	7.12189535549E-05	1.42167933939E+01	5.34427281852E-05	-8.88810750041E+01	1.90880789444E-01	-9.48151934935E+01
7.63527054108E+10	1.65388419299E-01	-5.40503647813E+01	1.04204016956E-04	-1.12750590802E+02	3.28576240934E-05	7.48890019287E+01	1.90264639327E-01	-9.44993618167E+01
7.63587174349E+10	1.64815306040E-01	-5.41240990181E+01	7.88105414638E-05	-1.08650652765E+02	5.62673449238E-05	-1.17523289724E+02	1.90445416814E-01	-9.47038332226E+01
7.63647294589E+10	1.66754981385E-01	-5.46110308625E+01	2.42916778158E-05	-1.62903351232E+02	2.45484240203E-05	1.33051698592E+00	1.89210465790E-01	-9.50836813793E+01
7.63707414830E+10	1.65750463572E-01	-5.30853854430E+01	2.24950012928E-05	-1.38100677074E+02	5.94532884187E-05	-1.67981380733E+02	1.89915260363E-01	-9.67538275193E+01
7.63767535070E+10	1.66511115463E-01	-5.55142959288E+01	1.32609660537E-05	-1.29540091299E+02	2.86593790430E-05	6.41818303208E+01	1.90141254362E-01	-9.63894096494E+01
7.63827655311E+10	1.66384202790E-01	-5.67203546664E+01	3.86329401939E-05	1.66276610726E+02	9.43061159689E-05	4.54708132007E+01	1.89503150122E-01	-9.68608885921E+01
7.63887775551E+10	1.66537042329E-01	-5.56924843881E+01	2.53344853902E-05	-1.59158263970E+02	3.46886661459E-05	3.56131094248E+01	1.87167929885E-01	-9.59676055477E+01
7.63947895792E+10	1.64709426634E-01	-5.36350033082E+01	2.02569009569E-05	-7.77848765792E+01	2.54302950770E-05	-1.14090235085E+02	1.86596153594E-01	-9.59864755828E+01
7.64008016032E+10	1.62532549231E-01	-5.52089610256E+01	6.40324154712E-05	-1.58590169730E+02	5.21993645548E-05	-5.98289806262E+01	1.86232501446E-01	-9.72424868392E+01
7.64068136273E+10	1.67216938390E-01	-5.54914713504E+01	1.20177190381E-04	-1.74585980547E+02	5.06838346851E-05	1.63354290375E+02	1.87282655886E-01	-9.86271646301E+01
7.64128256513E+10	1.66733100970E-01	-5.76836647974E+01	9.89314444395E-05	1.47271238561E+02	3.59267832187E-05	-1.53416493302E+02	1.88924059898E-01	-9.99358360499E+01
7.64188376754E+10	1.64270050922E-01	-5.59617435073E+01	5.07319164867E-05	1.31185549468E+02	7.11815059330E-05	-1.47623987194E+02	1.84459057790E-01	-9.70761915887E+01
7.64248496994E+10	1.62921118431E-01	-5.43906425977E+01	1.43857574407E-04	5.58909281513E+01	1.24622484859E-05	1.65828685110E+02	1.82930690074E-01	-9.78710655949E+01
7.64308617234E+10	1.65004998371E-01	-5.62105833765E+01	4.65855403895E-05	5.43221204192E+01	6.13907511938E-05	1.16754180587E+02	1.84872454816E-01	-9.94374376012E+01
7.64368737475E+10	1.64239642082E-01	-5.52262854217E+01	8.32192306170E-05	6.76380576349E+01	1.67706545807E-05	7.79274797270E+01	1.84889598896E-01	-9.89540674948E+01
7.64428857715E+10	1.64766456658E-01	-5.59924836516E+01	3.39188756796E-05	-4.79497102285E+01	5.27422617605E-05	1.37321604366E+02	1.84868552534E-01	-9.96731849988E+01
7.64488977956E+10	1.64153257388E-01	-5.78606780370E+01	2.28488648194E-05	7.63100487855E+00	3.00726482609E-05	1.02784890897E+02	1.81994145906E-01	-9.82691414151E+01
7.64549098196E+10	1.62639415795E-01	-5.76245317159E+01	2.15789962351E-05	5.71648432286E+01	3.80142444817E-05	-6.60678498353E+01	1.82696166556E-01	-9.92826206886E+01
7.64609218437E+10	1.62888853653E-01	-5.78294390806E+01	3.22058716693E-05	-1.17492030795E+02	8.62497342136E-05	1.06518309292E+02	1.82659212911E-01	-1.00432639677E+02
7.64669338677E+10	1.63929062094E-01	-5.85377176153E+01	1.39862281968E-04	-5.30825758172E+01	3.44643708335E-05	3.31172911644E+00	1.82617708184E-01	-1.01344149972E+02
7.64729458918E+10	1.64398687692E-01	-5.77748254138E+01	7.00210095155E-05	6.80999536221E+01	4.12324441140E-05	7.13274132111E+01	1.83993713644E-01	-1.02259845551E+02
7.64789579158E+10	1.64822476399E-01	-5.72180111869E+01	2.27231190718E-05	-9.94366119163E+01	5.41292625949E-05	6.36839074104E+00	1.81045344506E-01	-1.01180994052E+02
7.64849699399E+10	1.64769758064E-01	-5.73282050860E+01	2.03316419788E-05	-8.94010790194E+01	5.29572289794E-05	9.20816001321E+01	1.80745491602E-01	-1.01144803006E+02
7.64909819639E+10	1.62078033728E-01	-5.62651390738E+01	3.79694657852E-05	5.40925662956E+01	8.54382336794E-05	7.20566482811E+01	1.82383860688E-01	-1.03512397224E+02
7.64969939880E+10	1.63588872155E-01	-5.93139775869E+01	5.02988791979E-05	-7.03245792749E+01	7.52560516375E-05	7.62641686681E+01	1.80676807379E-01	-1.03497680110E+02
7.65030060120E+10	1.62235582337E-01	-5.90534433565E+01	5.10162624753E-05	-5.87384412065E+01	6.10193811857E-05	-5.83917554954E+01	1.78256983015E-01	-1.02506132091E+02
7.65090180361E+10	1.63394548553E-01	-5.80107196892E+01	9.19012925274E-05	-5.94929297748E+01	6.19920746633E-05	-2.63726978021E+01	1.78080325472E-01	-1.03082130359E+02
7.65150300601E+10	1.63216419867E-01	-5.86676701887E+01	3.50032911638E-05	-3.66823110706E+01	1.35909808180E-04	-6.00404074569E+01	1.78850394428E-01	-1.04619625939E+02
7.65210420842E+10	1.62390452231E-01	-6.06421647988E+01	1.93758140785E-05	-1.73703093445E+02	8.30551843969E-05	-9.59907257265E+01	1.78217399778E-01	-1.04011702446E+02
7.65270541082E+10	1.61509220454E-01	-5.97368355453E+01	4.86244532221E-05	1.18653562772E+02	6.47553226837E-05	-3.47337234157E+01	1.78306921498E-01	-1.04710866391E+02
7.65330661323E+10	1.62184874560E-01	-5.81497527223E+01	2.12450585448E-05	-4.46418557783E+01	2.62316734118E-05	-1.23875169785E+02	1.78458504468E-01	-1.05534280776E+02
7.65390781563E+10	1.63692667408E-01	-6.01917111800E+01	1.52686030554E-04	-1.04838401824E+02	4.81876182401E-05	-1.16819481044E+01	1.76365722210E-01	-1.05597344039E+02
7.65450901804E+10	1.66070694548E-01	-6.09474913279E+01	1.11062230311E-05	-1.00188753797E+02	1.15820308707E-04	-9.43247421908E+01	1.74624179088E-01	-1.05166760274E+02
7.65511022044E+10	1.61778523636E-01	-5.81594825873E+01	1.00530155079E-04	-1.61961089582E+02	9.07922074236E-05	-1.49352660031E+02	1.75592619682E-01	-1.06770933835E+02
7.65571142285E+10	1.61085690524E-01	-5.84261540029E+01	3.04394183794E-05	1.42523831168E+02	3.52347769473E-05	1.07521079283E+02	1.75519031749E-01	-1.06965601423E+02
7.65631262525E+10	1.63166778192E-01	-6.02602342532E+01	4.32097135220E-05	1.53694089913E+02	3.03944922449E-05	-1.74204115297E+02	1.76318180050E-01	-1.07908409277E+02
7.65691382766E+10	1.62542375351E-01	-6.04827762000E+01	8.34478288184E-05	1.31496828298E+02	3.00287126825E-05	7.33983791242E+01	1.72930812358E-01	-1.07599547595E+02
7.65751503006E+10	1.62149027688E-01	-6.03430822540E+01	1.63290184805E-05	-3.47027787216E+01	4.66835921777E-05	1.19882882011E+02	1.72805460875E-01	-1.07236469149E+02
7.65811623246E+10	1.61822240814E-01	-6.04367415723E+01	1.74599598475E-05	1.39580464934E+02	1.06497079131E-04	-1.18118555116E+02	1.71958154292E-01	-1.07524836228E+02
7.65871743487E+10	1.60853275334E-01	-6.00161986757E+01	6.82750617145E-05	1.78557466030E+02	7.28357016071E-05	1.74609030696E+02	1.72565490949E-01	-1.09024228539E+02
7.65931863727E+10	1.62389893508E-01	-6.13454005947E+01	3.68724733107E-05	1.29227935162E+02	2.64058877580E-05	5.98058009283E+01	1.71798836720E-01	-1.09432352725E+02
7.65991983968E+10	1.61978737857E-01	-6.06202246180E+01	2.34599259271E-05	-1.72900863546E+02	9.95500159770E-05	1.35981454073E+02	1.71021487146E-01	-1.09599041475E+02
7.66052104208E+10	1.61890713272E-01	-6.17246590171E+01	3.99471360484E-05	1.28412722824E+02	5.55988566930E-05	-1.63954748947E+02	1.68410387897E-01	-1.08664874267E+02
7.66112224449E+10	1.60826566100E-01	-6.24681477160E+01	4.44559144581E-05	2.99280142513E+01	4.68756602266E-05	1.61212068740E+02	1.70372971257E-01	-1.10843469324E+02
7.66172344689E+10	1.61984461663E-01	-6.23342049919E+01	4.11365597126E-05	-1.68552358273E+01	8.55509929901E-05	1.18828768779E+02	1.69967377605E-01	-1.11151312581E+02
7.66232464930E+10	1.62397027575E-01	-6.25519793742E+01	3.24467900802E-05	1.37881618025E+02	9.78455152549E-05	1.62755033750E+02	1.68793196055E-01	-1.11197954786E+02
7.66292585170E+10	1.62091391171E-01	-6.22373204113E+01	1.81444006108E-05	-3.05765158193E+01	6.11831921900E-05	9.45442890884E+01	1.67031253489E-01	-1.11233960267E+02
7.66352705411E+10	1.61160240418E-01	-6.19636061961E+01	3.52582076419E-05	7.08347834515E+01	2.57231143151E-05	-1.29777757380E+02	1.65161123062E-01	-1.10658749628E+02
7.66412825651E+10	1.60550140033E-01	-6.22616850295E+01	2.68277313651E-05	4.55077631581E+01	5.28992271317E-05	1.89855532888E+01	1.65164471559E-01	-1.11878630539E+02
7.66472945892E+10	1.60603238257E-01	-6.27657151113E+01	3.84316784856E-05	1.06663330737E+02	7.65641506847E-05	1.34902547828E+02	1.64864109267E-01	-1.11476064587E+02
7.66533066132E+10	1.61048269082E-01	-6.26187142665E+01	1.01839592771E-04	3.56116072111E+01	2.42210633656E-05	-1.10827715841E+02	1.65649197228E-01	-1.12843329752E+02
7.66593186373E+10	1.59487061946E-01	-6.36792481224E+01	8.85728382811E-05	1.10582341610E+02	6.80091628193E-05	1.43952675381E+02	1.65254200081E-01	-1.14980658415E+02
7.66653306613E+10	1.59913344763E-01	-6.27928419710E+01	1.13707183085E-05	-5.12507920177E+01	5.51437461083E-05	-1.68930804176E+02	1.64880696010E-01	-1.15351395142E+02
7.66713426854E+10	1.61033051404E-01	-6.39119068905E+01	6.14709456128E-05	2.98425646420E+01	6.16359256250E-05	1.40739452741E+02	1.62421468499E-01	-1.14454025332E+02
7.66773547094E+10	1.62220536761E-01	-6.45753896752E+01	5.46890311189E-05	-1.57906186818E+02	5.90140181612E-05	1.78061993259E+02	1.60323835585E-01	-1.14115653330E+02
7.66833667335E+10	1.57886706546E-01	-6.18315556948E+01	1.30508227954E-05	7.66725836398E+01	5.63715667644E-05	1.21377990490E+02	1.62708676228E-01	-1.15218321698E+02
7.66893787575E+10	1.60056903108E-01	-6.55410369800E+01	1.97805948120E-05	1.54689380620E+02	7.93509816251E-05	8.16848835981E+01	1.60963797968E-01	-1.14907804411E+02
7.66953907816E+10	1.61051215891E-01	-6.55100656959E+01	5.79823116050E-05	1.39991199686E+02	1.04520425525E-04	5.19926804390E+01	1.60597218791E-01	-1.15438657322E+02
7.67014028056E+10	1.60208092542E-01	-6.39049904921E+01	2.15807001710E-05	1.65751236120E+02	5.66269101852E-05	3.94383268915E+01	1.60102030548E-01	-1.16584238697E+02
7.67074148297E+10	1.57875205334E-01	-6.28214743797E+01	1.09388819188E-04	6.05091330773E+01	9.25294682846E-05	4.59655985446E+01	1.59745811337E-01	-1.17713192957E+02
7.67134268537E+10	1.59266419100E-01	-6.53519800703E+01	1.94342802689E-05	-4.19388205731E+01	7.27387159489E-05	5.23297785397E+01	1.57578487879E-01	-1.17564164237E+02
7.67194388778E+10	1.61829886373E-01	-6.66407197320E+01	8.33285794005E-05	-5.28251808396E+01	3.57080941165E-05	-2.14535632794E+01	1.56661420934E-01	-1.17620105138E+02
7.67254509018E+10	1.62162941479E-01	-6.72919725227E+01	1.85042316584E-05	-2.54248486391E+01	1.54535703332E-04	5.00198762844E+01	1.56394241864E-01	-1.16902032492E+02
7.67314629259E+10	1.59384970446E-01	-6.61625104435E+01	1.36435686013E-05	-1.37523992925E+02	7.57001060141E-05	4.27040248103E+01	1.56983444635E-01	-1.18473971302E+02
7.67374749499E+10	1.58781023970E-01	-6.45604769708E+01	1.09205075204E-05	-1.31819826103E+02	6.48136147848E-05	3.94873331848E+01	1.54687004723E-01	-1.19297482073E+02
7.67434869739E+10	1.60458653590E-01	-6.50655992198E+01	6.73903071363E-05	1.79306020942E+02	3.42950861634E-05	8.38798602005E+01	1.53344516522E-01	-1.19061755732E+02
7.67494989980E+10	1.57383171911E-01	-6.42646837511E+01	4.72813786282E-05	-1.74134907862E+02	1.09186278015E-04	1.27888685670E+01	1.53046759224E-01	-1.19132749553E+02
7.67555110220E+10	1.57410947153E-01	-6.68015529423E+01	5.07555083435E-05	4.86754362405E+01	8.86383198293E-05	3.75703232278E+00	1.53213333296E-01	-1.19755490908E+02
7.67615230461E+10	1.58056408185E-01	-6.63219098247E+01	2.64463410286E-05	8.76998899656E+01	9.50624586003E-05	3.85730175074E+01	1.52544083123E-01	-1.21301485931E+02
7.67675350701E+10	1.58075054110E-01	-6.64964174105E+01	3.64042523179E-05	3.51144530774E+01	7.97904264412E-05	-5.62039834090E-01	1.50392022085E-01	-1.20489787940E+02
7.67735470942E+10	1.57009859153E-01	-6.49532795946E+01	3.55731969115E-05	8.17598999370E+01	7.17825486059E-05	-1.65403001597E+01	1.49722093994E-01	-1.19937827925E+02
7.67795591182E+10	1.59304897753E-01	-6.60785865373E+01	9.14895909886E-05	1.48809953975E+02	4.32431991002E-05	-1.00877785070E+02	1.49468430772E-01	-1.20826685890E+02
7.67855711423E+10	1.59822655940E-01	-6.64479852921E+01	7.31363118549E-05	1.78850381009E+02	7.30327514694E-05	-1.05192199255E+02	1.48089122529E-01	-1.20897972955E+02
7.67915831663E+10	1.58081819412E-01	-6.80665881681E+01	6.49569990973E-05	1.24200255032E+02	5.30700117196E-05	-6.97449953622E+01	1.48947856772E-01	-1.22716252997E+02
7.67975951904E+10	1.57131130139E-01	-6.58299942775E+01	8.41906913181E-05	6.39954941559E+01	4.57687593139E-05	-5.12007316117E+01	1.47776117353E-01	-1.22912485105E+02
7.68036072144E+10	1.55054393213E-01	-6.67750395196E+01	3.15713548903E-05	8.85468489649E+01	3.88770586297E-05	-1.61097478971E+02	1.47419765414E-01	-1.24105662566E+02
7.68096192385E+10	1.59382702506E-01	-6.87037779044E+01	5.84316258177E-05	1.74814598598E+01	5.15910375095E-05	-7.53887122134E+01	1.46745015247E-01	-1.24464608509E+02
7.68156312625E+10	1.58138836611E-01	-6.78135098993E+01	3.09991231939E-05	7.75194249609E+01	1.76637177122E-05	-1.31717122124E+02	1.45652636053E-01	-1.25265071559E+02
7.68216432866E+10	1.58078492781E-01	-6.85121088002E+01	3.60515275469E-05	-3.34586424905E+00	2.51008382700E-06	-1.40923937044E+02	1.43151778672E-01	-1.23887000616E+02
7.68276553106E+10	1.57422878336E-01	-6.89299550689E+01	6.13853424334E-05	-1.21977705041E+02	3.00864044439E-05	1.76590516460E+02	1.42651955448E-01	-1.23175652381E+02
7.68336673347E+10	1.58852273753E-01	-6.96455632470E+01	1.02086348450E-04	-1.36154976953E+01	3.60593228642E-05	-6.90453895471E+01	1.43130729335E-01	-1.24893163992E+02
7.68396793587E+10	1.58759495677E-01	-6.88936757427E+01	3.27453137871E-05	4.39752053957E+01	5.04875718169E-05	-8.30108682269E+01	1.42263315096E-01	-1.26579914287E+02
7.68456913828E+10	1.57233218632E-01	-6.78465152908E+01	2.46029727776E-05	3.96859528212E+01	7.77451097098E-05	-1.29516023786E+01	1.41292890260E-01	-1.25437623631E+02
7.68517034068E+10	1.56654625441E-01	-6.78168981960E+01	4.75912450093E-05	-3.18199891683E+01	2.02182841163E-05	-2.30002914726E+01	1.39540621062E-01	-1.25203190411E+02
7.68577154309E+10	1.55510720221E-01	-6.96568315131E+01	1.46559087705E-04	-6.76087554389E+01	7.23841116011E-05	-1.24563350500E+02	1.40059792253E-01	-1.26510264006E+02
7.68637274549E+10	1.59589384758E-01	-7.08603385447E+01	4.73544811849E-05	-1.00097510754E+02	5.14248793281E-05	-1.51142701154E+02	1.39724487037E-01	-1.27607819958E+02
7.68697394790E+10	1.56242648691E-01	-6.94405593270E+01	7.45500195647E-05	-3.31785926939E+01	2.76842196413E-05	-1.61020416106E+02	1.39262820304E-01	-1.27744160036E+02
7.68757515030E+10	1.57062082224E-01	-6.93939720177E+01	4.08661717329E-05	-1.14001119449E+02	2.70930563504E-05	1.37424285739E+02	1.36668632667E-01	-1.27192224357E+02
7.68817635271E+10	1.57403825776E-01	-6.90824949904E+01	9.44538964789E-05	-1.65664366644E+02	2.41388561300E-05	-1.57648912317E+02	1.35170431808E-01	-1.27938953254E+02
7.68877755511E+10	1.56712452163E-01	-7.01148391705E+01	7.46830709433E-05	-1.26737102242E+02	2.83803101916E-05	8.15675760941E+01	1.35568987062E-01	-1.29310621943E+02
7.68937875752E+10	1.58328743398E-01	-7.06882238834E+01	1.63932855748E-05	1.59972769165E+02	4.57793243139E-05	5.37413386788E+01	1.34106918244E-01	-1.27684906493E+02
7.68997995992E+10	1.53948857734E-01	-6.93184239280E+01	4.61970275808E-05	1.39135547527E+01	3.72189073860E-05	-1.19186897997E+02	1.34134473119E-01	-1.29347661751E+02
7.69058116232E+10	1.57524125294E-01	-7.18399993140E+01	9.31717784518E-05	-3.08872834287E+01	4.82822310478E-05	-4.61727580145E+01	1.33585077807E-01	-1.30686067853E+02
7.69118236473E+10	1.53471556769E-01	-7.04387106101E+01	8.63838389653E-05	-1.00887970238E+02	7.03330615864E-05	1.58664054739E+02	1.31583351244E-01	-1.28748114280E+02
7.69178356713E+10	1.56317241301E-01	-7.13001569221E+01	7.07124525889E-05	-1.44594869038E+02	1.19233676991E-04	-9.88237585407E+01	1.31091142787E-01	-1.30558066778E+02
7.69238476954E+10	1.55986427552E-01	-7.17723848986E+01	4.16678511985E-05	-8.70920823713E+01	7.30594215204E-05	-1.58227221572E+02	1.31073538836E-01	-1.31090634056E+02
7.69298597194E+10	1.59148422701E-01	-7.30870101485E+01	8.03337827548E-05	-1.65632927261E+02	1.04183181605E-04	-1.70491525813E+02	1.29735731450E-01	-1.30869992121E+02
7.69358717435E+10	1.54850846904E-01	-7.27850449921E+01	6.68017945315E-05	1.70295389445E+02	6.98824517353E-05	-1.78804164601E+02	1.29392817684E-01	-1.30933686356E+02
7.69418837675E+10	1.52667482674E-01	-7.09491033253E+01	8.71578592097E-05	-1.69870180073E+02	4.54784633644E-05	1.41757373727E+02	1.27982362482E-01	-1.32559169842E+02
7.69478957916E+10	1.55780756062E-01	-7.19578184440E+01	4.55778229089E-05	1.63550764198E+02	3.81201754163E-05	1.64627753796E+02	1.26687837818E-01	-1.32400444374E+02
7.69539078156E+10	1.54193906633E-01	-7.14711988243E+01	7.42016765497E-05	1.55328110958E+02	6.72763061959E-05	1.65373336726E+02	1.26456907521E-01	-1.31530667422E+02
7.69599198397E+10	1.53537167890E-01	-7.20145049978E+01	9.49297650029E-05	1.73112783904E+02	7.97954268410E-05	1.67727719034E+02	1.25863858282E-01	-1.32145629832E+02
7.69659318637E+10	1.55898084427E-01	-7.35174857072E+01	6.56956772883E-05	-1.78065193254E+02	4.66953834927E-05	1.17557494621E+02	1.24706805261E-01	-1.34117588865E+02
7.69719438878E+10	1.54720850619E-01	-7.42216949188E+01	6.41253203829E-05	1.43592104255E+02	1.03922114381E-04	9.42777726582E+01	1.23794059032E-01	-1.34186857730E+02
7.69779559118E+10	1.53528486248E-01	-7.32287835619E+01	5.58692643234E-05	1.26946380752E+02	4.83939487317E-05	2.46198585644E+00	1.22636934836E-01	-1.35199602012E+02
7.69839679359E+10	1.52322365728E-01	-7.26264148853E+01	5.28481485399E-05	-1.76117616284E+02	4.90298742559E-05	1.26269094164E+02	1.22028977048E-01	-1.35912839464E+02
7.69899799599E+10	1.51593835809E-01	-7.18420873921E+01	6.80629309446E-05	1.49011558517E+02	1.96779119339E-05	1.71331583536E+02	1.20567427256E-01	-1.35252132828E+02
7.69959919840E+10	1.51858575401E-01	-7.29415645260E+01	4.95552307200E-05	1.45622257123E+02	5.13108550173E-05	6.28381597867E+01	1.19643868119E-01	-1.34964626722E+02
7.70020040080E+10	1.53233463877E-01	-7.42220356116E+01	3.46426095744E-05	1.49241548552E+02	9.02799852386E-05	1.08577214477E+02	1.20307981105E-01	-1.37122113170E+02
7.70080160321E+10	1.55429928479E-01	-7.57200674149E+01	7.38233673185E-05	6.79028165427E+01	3.16877602831E-05	-1.76021019311E+02	1.19436975377E-01	-1.37896194559E+02
7.70140280561E+10	1.53502628733E-01	-7.30779562055E+01	1.12717312254E-04	1.29106359722E+02	6.44034516913E-05	7.92997826067E+01	1.18215563572E-01	-1.38042154675E+02
7.70200400802E+10	1.54454834936E-01	-7.49890932051E+01	1.52734629533E-04	1.04969036365E+02	6.80187406354E-05	1.31158161914E+02	1.16537304797E-01	-1.36123764342E+02
7.70260521042E+10	1.52763343202E-01	-7.57781581651E+01	1.05752804700E-04	7.29311677773E+01	5.48085323446E-05	8.53765368798E+01	1.14497994296E-01	-1.36530882583E+02
7.70320641283E+10	1.50869506954E-01	-7.39182282493E+01	1.18050020503E-04	6.56399728209E+01	9.83300619138E-05	9.74310539996E+01	1.14315755159E-01	-1.38146762974E+02
7.70380761523E+10	1.53498604851E-01	-7.51420784452E+01	7.60581529487E-05	6.04524989867E+01	1.00813486529E-04	6.86376117020E+01	1.15450803830E-01	-1.39987769652E+02
7.70440881764E+10	1.51964865027E-01	-7.62202263206E+01	1.14009689976E-04	5.75006936823E+01	1.05394140429E-04	1.20583483959E+01	1.13701115082E-01	-1.39432959101E+02
7.70501002004E+10	1.51418495354E-01	-7.48496850733E+01	6.26824879212E-05	5.07511203636E+01	1.40312085282E-04	2.39279423665E+01	1.11344598768E-01	-1.38147890902E+02
7.70561122244E+10	1.52846135412E-01	-7.49233427604E+01	7.39019644398E-05	2.10808698410E+01	4.72389796163E-05	-1.27917070444E+01	1.10800307936E-01	-1.39078434514E+02
7.70621242485E+10	1.53731196488E-01	-7.67396671616E+01	8.97482315565E-05	-4.76987089583E+01	4.81932849621E-05	4.40265415789E+01	1.10559271367E-01	-1.41416358722E+02
7.70681362725E+10	1.52498513316E-01	-7.75891054908E+01	4.48661419414E-05	5.52145689337E+01	6.79189706283E-05	2.41853025735E+01	1.10761315795E-01	-1.42132340761E+02
7.70741482966E+10	1.51712991262E-01	-7.63036140821E+01	8.11965740505E-05	-2.66815876370E+01	7.20688500302E-05	-3.96230479605E+00	1.09567020281E-01	-1.41513459173E+02
7.70801603206E+10	1.51558646847E-01	-7.60475748419E+01	3.38997371271E-05	2.19517492951E+01	4.76028670183E-05	1.28795781637E+02	1.07478471422E-01	-1.40242681867E+02
7.70861723447E+10	1.50187220015E-01	-7.70276594255E+01	3.28368254331E-05	3.89696328910E+01	3.21184112598E-05	3.21111201104E+01	1.06967399006E-01	-1.41523623788E+02
7.70921843687E+10	1.50495751417E-01	-7.70473678121E+01	2.01375512965E-05	4.50312664852E+00	8.17360365167E-05	-1.28687348082E+01	1.06705370175E-01	-1.43003768616E+02
7.70981963928E+10	1.52441309109E-01	-7.69153792383E+01	9.94590036264E-05	2.77943456985E+01	1.09618984791E-04	3.59986141970E+01	1.05993549116E-01	-1.43744450125E+02
7.71042084168E+10	1.52563691732E-01	-7.70403225559E+01	6.16934327283E-05	-1.38934406090E+01	6.38999357742E-05	6.56934667237E+01	1.05084902869E-01	-1.44093952554E+02
7.71102204409E+10	1.52701340966E-01	-7.68734190661E+01	7.04492077314E-05	1.48815905239E+01	9.29690848800E-05	-5.47795536951E+01	1.02382839413E-01	-1.40949619146E+02
7.71162324649E+10	1.49212429613E-01	-7.59641100975E+01	6.85247298752E-05	-4.26448215161E+01	5.75202377250E-05	1.50496847303E+01	1.03423408553E-01	-1.45411339607E+02
7.71222444890E+10	1.47249898536E-01	-7.64390253926E+01	6.31538961548E-05	-5.70344101629E+01	9.28267761983E-05	-6.00276598698E+01	1.03137346597E-01	-1.46051936880E+02
7.71282565130E+10	1.48307480142E-01	-7.62061502863E+01	4.69378975030E-05	-1.32722360823E+01	7.38827882867E-05	-2.94815142372E+01	1.00703924523E-01	-1.45098552447E+02
7.71342685371E+10	1.48806041262E-01	-7.68127750295E+01	7.58155139407E-05	-7.02910124285E+01	7.38157544295E-05	-1.14424051442E+02	9.90186707957E-02	-1.44207578209E+02
7.71402805611E+10	1.53678639165E-01	-7.96204796101E+01	1.23733467219E-04	-9.69491658427E+01	1.02053123268E-04	-2.37151617993E+01	9.96505309244E-02	-1.46322732380E+02
7.71462925852E+10	1.48252192467E-01	-7.94801336736E+01	9.47117887826E-05	-1.14527730619E+02	4.64793859053E-05	-6.38098549147E+01	9.94972510740E-02	-1.47499374775E+02
7.71523046092E+10	1.48855019140E-01	-7.89129413417E+01	1.25746511521E-04	-1.24050963287E+02	1.16621193638E-04	-9.55903659395E+01	9.65651588311E-02	-1.45736836856E+02
7.71583166333E+10	1.50068673525E-01	-7.75235938423E+01	4.53911319189E-05	-1.26519291430E+02	8.28695420783E-05	-8.10493317544E+01	9.61565745286E-02	-1.45676958388E+02
7.71643286573E+10	1.49617739812E-01	-7.91725100657E+01	3.66846712070E-05	-1.13600977427E+02	4.34646997389E-06	1.75460185868E+02	9.66067690125E-02	-1.48039368939E+02
7.71703406814E+10	1.48136319784E-01	-7.96539169250E+01	1.40807837672E-04	-1.33545163068E+02	4.13951180384E-05	-1.70752958427E+01	9.39488427634E-02	-1.47459299541E+02
7.71763527054E+10	1.47587597928E-01	-7.93762580831E+01	4.81020171572E-05	-1.37114518663E+02	4.62419857640E-05	-2.89195189244E+00	9.33881158061E-02	-1.46115273469E+02
7.71823647295E+10	1.45855068599E-01	-7.64929864329E+01	6.32225176995E-05	-1.33087980200E+02	8.22702509081E-05	-1.71167336304E+01	9.24477400020E-02	-1.47628614109E+02
7.71883767535E+10	1.47156152737E-01	-7.84788567754E+01	4.65115813964E-05	-1.47579451192E+02	6.68953782860E-05	-1.65749598743E+02	9.18556915574E-02	-1.48254305912E+02
7.71943887776E+10	1.46008706990E-01	-7.90601406456E+01	9.61413480824E-06	-7.88929929185E+01	5.50169490589E-05	-8.78366059353E+01	9.03127670649E-02	-1.47746593988E+02
7.72004008016E+10	1.45663215506E-01	-7.92205595098E+01	5.45569221686E-05	1.60959231456E+02	6.95669617421E-05	-1.06877859236E+02	9.11452125917E-02	-1.51035497046E+02
7.72064128257E+10	1.46799573713E-01	-7.93117846087E+01	2.18850668010E-05	-1.81120422607E+01	2.82867063762E-05	-5.62529243609E+00	8.94175775953E-02	-1.50239875287E+02
7.72124248497E+10	1.47257630421E-01	-8.10152774557E+01	4.92955275176E-05	-7.38629181036E+01	6.54177601756E-05	-9.38125618367E+01	8.68516470957E-02	-1.49109246956E+02
7.72184368737E+10	1.48506805116E-01	-8.23713597562E+01	5.12653499178E-05	-1.48422733305E+02	8.40215453352E-05	-1.08367431888E+02	8.67207104447E-02	-1.50159610640E+02
7.72244488978E+10	1.47322821353E-01	-7.98569713159E+01	9.08663346495E-05	-1.76933248993E+02	9.08898955834E-05	-1.47649276279E+02	8.69160815997E-02	-1.51095813371E+02
7.72304609218E+10	1.46464964821E-01	-8.00681731929E+01	9.27240168782E-05	-1.71998421443E+02	9.37773619687E-05	-1.65397922238E+02	8.56784813932E-02	-1.51608821601E+02
7.72364729459E+10	1.47050911938E-01	-8.12041824012E+01	1.30673012230E-04	-1.73362821275E+02	1.02460371519E-04	1.74526512622E+02	8.32566659096E-02	-1.49157141154E+02
7.72424849699E+10	1.47596637078E-01	-8.22268940354E+01	7.97561764384E-05	1.09152739072E+02	4.87118109903E-05	1.39985335274E+02	8.35430910818E-02	-1.51000184829E+02
7.72484969940E+10	1.47129408244E-01	-8.29237567386E+01	4.52695035709E-05	3.62413440463E+01	4.31533905205E-05	1.77126589501E+01	8.26318797692E-02	-1.51990272900E+02
7.72545090180E+10	1.46347920182E-01	-8.25699851764E+01	1.69256708023E-05	-2.32231005321E+01	4.06376635760E-05	-1.70434487732E+02	8.20144653911E-02	-1.52688875966E+02
7.72605210421E+10	1.44573666590E-01	-8.21051891581E+01	3.89198473561E-05	-6.89875207355E+01	4.67280301298E-05	-8.29250961645E+01	7.98405446944E-02	-1.51755745710E+02
7.72665330661E+10	1.47245842139E-01	-8.32116041779E+01	7.71124670198E-06	-1.61624676386E+02	1.39435749725E-04	-1.33900170558E+02	8.03191685580E-02	-1.53441150384E+02
7.72725450902E+10	1.45511861626E-01	-8.09644462891E+01	3.97772957143E-05	2.91726603214E+01	1.24838559028E-04	-1.73967743150E+02	7.95475585722E-02	-1.53361026278E+02
7.72785571142E+10	1.47565189247E-01	-8.31542212759E+01	4.85255491671E-05	-5.88758165041E+01	2.60855159615E-05	1.40121023355E+02	7.82496644476E-02	-1.53398538037E+02
7.72845691383E+10	1.45601023415E-01	-8.42752768736E+01	5.79677331796E-05	-9.00520263119E+01	3.44295545065E-05	1.12851518609E+02	7.80426670287E-02	-1.55462012893E+02
7.72905811623E+10	1.44447333922E-01	-8.34025512898E+01	3.93672390580E-05	1.73403003434E+02	1.96726218193E-05	1.14610819535E+02	7.72563532431E-02	-1.55855125551E+02
7.72965931864E+10	1.43444598710E-01	-8.15974834517E+01	1.58604406985E-05	9.81803892332E+01	9.62608896224E-05	-1.54310292018E+02	7.53874796685E-02	-1.55126591000E+02
7.73026052104E+10	1.43547098082E-01	-8.11155144752E+01	8.40781296388E-05	8.56908929813E+01	1.11591125703E-04	1.58999277463E+02	7.40272547623E-02	-1.54445600499E+02
7.73086172345E+10	1.44303131091E-01	-8.31835218140E+01	7.41599101492E-05	7.93973915597E+01	1.07329519663E-04	1.57127875742E+02	7.25794788124E-02	-1.54749754962E+02
7.73146292585E+10	1.44318174369E-01	-8.19864054260E+01	3.09110922235E-05	4.59220434887E+01	4.44359769644E-05	4.32763271996E+01	7.26247845161E-02	-1.56027786703E+02
7.73206412826E+10	1.45432423302E-01	-8.24616705703E+01	5.92062330081E-05	5.64240281522E+01	3.98174975563E-05	1.66920190694E+02	7.19627617568E-02	-1.56993772233E+02
7.73266533066E+10	1.42495055098E-01	-8.35225378979E+01	6.05550730120E-05	7.20818750241E+00	3.96753996776E-05	9.73342964463E+01	7.19367555392E-02	-1.57995771631E+02
7.73326653307E+10	1.44780403960E-01	-8.51335700337E+01	7.99367769325E-05	-1.56450617451E+02	5.16612952434E-05	1.48669710923E+02	6.97583267711E-02	-1.55994271554E+02
7.73386773547E+10	1.44385605563E-01	-8.34748143749E+01	4.43673062655E-05	-9.58354959793E+01	1.06643160458E-04	1.44841513566E+02	6.79624874420E-02	-1.56400032317E+02
7.73446893788E+10	1.43004501845E-01	-8.42628122468E+01	2.70475268612E-05	4.99228560092E+01	2.94077985425E-05	9.39234572747E+01	6.86063504470E-02	-1.58043863769E+02
7.73507014028E+10	1.44247458332E-01	-8.47692331535E+01	3.38102559415E-05	1.02726084968E+02	6.21873085447E-05	9.73276707507E+01	6.86249085086E-02	-1.59115513444E+02
7.73567134269E+10	1.41682232597E-01	-8.49531739651E+01	1.08189417835E-05	-1.36488420612E+02	6.88952281004E-05	8.10098504571E+01	6.74994338311E-02	-1.58969297432E+02
7.73627254509E+10	1.41489127283E-01	-8.50445901613E+01	4.61261320770E-05	-8.08668757475E+01	7.43113095414E-05	1.03427444924E+02	6.53378383285E-02	-1.57997271257E+02
7.73687374749E+10	1.45030460901E-01	-8.56681943061E+01	2.14110140524E-05	1.35909939296E+02	5.61619664328E-05	5.70119184096E+01	6.44897049998E-02	-1.58954309830E+02
7.73747494990E+10	1.43717505203E-01	-8.54405965021E+01	1.94250054418E-05	-6.83199421700E+01	8.74192911019E-05	1.36445520277E+02	6.47159769075E-02	-1.60432866406E+02
7.73807615230E+10	1.40010476310E-01	-8.20271851812E+01	1.45297246143E-05	-6.45430066575E+01	3.83627679291E-05	1.19155063667E+02	6.42129243825E-02	-1.60860653809E+02
7.73867735471E+10	1.41991497484E-01	-8.41961217238E+01	6.25168006765E-05	1.56987921460E+02	1.06218768175E-04	9.35040366951E+01	6.32804499618E-02	-1.61476909649E+02
7.73927855711E+10	1.43024514247E-01	-8.62288779765E+01	9.51900182361E-05	1.16726440755E+02	1.10757340587E-04	6.36607187297E+01	6.18141701746E-02	-1.61843057617E+02
7.73987975952E+10	1.41666435717E-01	-8.63055232474E+01	4.45712955748E-05	4.83080783069E+00	1.28409213466E-04	1.00143049513E+02	5.94196344411E-02	-1.59906665734E+02
7.74048096192E+10	1.41308541713E-01	-8.35618430163E+01	1.54619716964E-05	-1.25098446604E+02	5.86567057518E-05	-3.00320984030E+00	6.00381268467E-02	-1.60798107707E+02
7.74108216433E+10	1.41232143950E-01	-8.50900743298E+01	6.78815577736E-05	4.25729578855E+01	8.01090503636E-05	2.03790681025E+01	5.89995753989E-02	-1.61472244449E+02
7.74168336673E+10	1.40939332791E-01	-8.67643066889E+01	2.34288633405E-05	-1.45723860023E+02	5.86057825867E-05	5.45376461557E+01	5.70832664443E-02	-1.60625282093E+02
7.74228456914E+10	1.40274284739E-01	-8.64131815323E+01	6.52631208422E-05	1.52344921600E+02	7.04194172035E-05	3.97522002078E+01	5.77189106551E-02	-1.61601251168E+02
7.74288577154E+10	1.41094205028E-01	-8.67375337278E+01	4.29021562847E-05	3.31741703603E+01	1.06221703778E-04	4.98318211316E+01	5.72769624753E-02	-1.63179446330E+02
7.74348697395E+10	1.39423530738E-01	-8.50369714782E+01	5.90497150882E-05	8.06499013342E+00	5.49777955147E-05	4.14557432579E+01	5.70614817391E-02	-1.64384669113E+02
7.74408817635E+10	1.40119116563E-01	-8.64558443928E+01	5.87706001606E-05	-8.47352860728E+00	4.69176474382E-05	-3.80224985880E+01	5.52163595538E-02	-1.63868356598E+02
7.74468937876E+10	1.39877864032E-01	-8.75855859686E+01	1.37007714502E-05	1.49854854180E+02	4.52681053853E-05	-3.47426611336E+01	5.37763527333E-02	-1.62803732491E+02
7.74529058116E+10	1.39690518693E-01	-8.74158907694E+01	7.87375962908E-05	1.40650663732E+02	6.74913080384E-05	7.01093759312E+01	5.31511890261E-02	-1.62047397640E+02
7.74589178357E+10	1.38599455878E-01	-8.70584119000E+01	7.31273987547E-05	5.91797841070E+01	3.43148040061E-05	-6.70496339692E+01	5.29625789641E-02	-1.63699728269E+02
7.74649298597E+10	1.38119758323E-01	-8.58253585703E+01	6.33298858830E-05	6.37665954912E+01	6.79321271535E-05	8.86772529132E+01	5.22960744915E-02	-1.65306016691E+02
7.74709418838E+10	1.41288251626E-01	-8.64316919342E+01	1.23080815437E-05	-9.92974740925E+01	5.55658755971E-05	-1.22015695354E+00	5.21008377083E-02	-1.65724714043E+02
7.74769539078E+10	1.43577080095E-01	-8.93409930596E+01	8.41888838184E-05	8.70242578341E+01	7.42682110891E-05	4.97660572580E+01	5.03843739303E-02	-1.64648301263E+02
7.74829659319E+10	1.39531031027E-01	-8.78752865276E+01	4.48476273870E-05	2.84945116294E+01	8.03790010232E-05	1.50562636451E+01	4.90785652199E-02	-1.64139402154E+02
7.74889779559E+10	1.39028613052E-01	-8.77784156468E+01	1.04083942450E-04	-1.33534234226E+01	2.30241812987E-05	-6.98649414120E+01	4.78613642871E-02	-1.63632064729E+02
7.74949899800E+10	1.38348444046E-01	-8.72555414809E+01	5.63178729443E-05	-5.47979849742E+01	4.63995827764E-05	4.26478923206E+01	4.78374972490E-02	-1.65849708206E+02
7.75010020040E+10	1.36271840919E-01	-8.77290855670E+01	7.32600269919E-05	-4.28568355514E+00	5.16650221542E-05	-9.74517025924E+01	4.76201211308E-02	-1.65467005572E+02
7.75070140281E+10	1.39809738667E-01	-8.77577197121E+01	6.15965025897E-05	1.21640508925E+01	1.17163793529E-04	-4.24486686071E+01	4.72644682141E-02	-1.67267009445E+02
7.75130260521E+10	1.39013376458E-01	-8.74198254135E+01	4.46857385763E-05	-1.00536658482E+02	1.00370990781E-04	-1.04114676912E+02	4.56823743657E-02	-1.66794422191E+02
7.75190380762E+10	1.37412770318E-01	-8.76542736648E+01	6.26651038861E-05	-4.33664939719E+01	6.08948667469E-05	-1.48016102666E+02	4.48761630100E-02	-1.67131234896E+02
7.75250501002E+10	1.40025886882E-01	-8.91485647434E+01	6.59572212538E-05	-7.29266674449E+01	7.29132255321E-05	-1.26841658826E+02	4.37187268469E-02	-1.66328206857E+02
7.75310621242E+10	1.37339381381E-01	-8.93505606869E+01	8.28716120380E-05	3.02151726869E+01	4.27598859202E-05	-3.22178686337E+01	4.34168677128E-02	-1.66852610049E+02
7.75370741483E+10	1.37168841532E-01	-9.01212525866E+01	5.86434792674E-05	-1.45576726399E+01	5.45699500516E-05	-3.65465021129E+01	4.26206166908E-02	-1.66417948575E+02
7.75430861723E+10	1.38637317452E-01	-8.81914241928E+01	1.58769388714E-05	-5.19221768879E+01	4.45579796958E-05	-5.00020538214E+01	4.22386236237E-02	-1.67633152431E+02
7.75490981964E+10	1.39547589365E-01	-8.78245229365E+01	3.67357308215E-05	-7.97180974315E+01	9.58930380210E-05	-1.01802113649E+02	4.18580757256E-02	-1.69265431113E+02
7.75551102204E+10	1.38926662660E-01	-8.87090412069E+01	5.95287886475E-06	4.07376343576E+01	8.20562659640E-05	-7.18185191340E+01	4.01311617014E-02	-1.67959862090E+02
7.75611222445E+10	1.38147977882E-01	-8.95781040491E+01	3.82045164455E-05	-9.94598294155E+00	5.68605082691E-05	-1.33889868946E+02	4.03582154143E-02	-1.69488755486E+02
7.75671342685E+10	1.38275993215E-01	-9.01183555360E+01	9.54122416618E-05	-5.83712855320E+01	2.59119066401E-05	-1.18523500068E+02	3.80410883597E-02	-1.67616697384E+02
7.75731462926E+10	1.34458979310E-01	-8.57345946049E+01	3.53822939938E-05	-5.79785064419E+01	6.62024575190E-05	-5.44723692467E+01	3.83355909822E-02	-1.69317616833E+02
7.75791583166E+10	1.34933821367E-01	-8.63730608602E+01	9.98908891437E-05	-2.71900138232E+00	8.90203477454E-05	-1.34957487857E+02	3.81058623520E-02	-1.69699351097E+02
7.75851703407E+10	1.36453556924E-01	-9.13902370076E+01	7.58092276891E-05	-1.10311817478E+02	2.81094177934E-05	-4.47136368900E+01	3.61451829399E-02	-1.69322947448E+02
7.75911823647E+10	1.37774848247E-01	-9.16557243879E+01	4.84438040926E-05	-9.63323559209E+01	5.87913880288E-05	-1.57695952257E+02	3.56032220714E-02	-1.69578095480E+02
7.75971943888E+10	1.35212091383E-01	-9.06017610832E+01	6.24338048963E-05	-1.11445117870E+02	1.20793405664E-04	-1.43220288955E+02	3.55475528282E-02	-1.70409036009E+02
7.76032064128E+10	1.34545949775E-01	-9.00947196148E+01	1.11365829279E-04	-1.44582039561E+02	9.25011230523E-05	-1.68741619693E+02	3.57112347582E-02	-1.71509317642E+02
7.76092184369E+10	1.35357005587E-01	-8.94484988558E+01	8.68306233002E-05	-1.38167438236E+02	7.11045884802E-05	-1.37422784955E+02	3.47870737722E-02	-1.72070496641E+02
7.76152304609E+10	1.37613638211E-01	-8.95280651522E+01	3.22642502313E-05	-1.37472941476E+02	3.60166146184E-05	1.68079324211E+02	3.33303382392E-02	-1.72205577338E+02
7.76212424850E+10	1.35877830032E-01	-9.18688935365E+01	8.07039936514E-05	-1.06626949240E+02	7.19102193424E-05	1.49253506676E+02	3.25845175624E-02	-1.71932168191E+02
7.76272545090E+10	1.35395044920E-01	-9.06088006863E+01	6.31102963571E-05	-1.58326856083E+02	5.03572577062E-05	1.48512072640E+02	3.19443026201E-02	-1.71603490834E+02
7.76332665331E+10	1.37370377881E-01	-9.24656852937E+01	1.14162339537E-04	-1.72695680341E+02	9.10446556916E-05	1.57202863022E+02	3.14586781240E-02	-1.71420669476E+02
7.76392785571E+10	1.36445406122E-01	-9.21937760933E+01	5.46756719840E-05	-1.74660482682E+02	1.03684596700E-05	2.20662771780E+01	3.08603989656E-02	-1.72701893537E+02
7.76452905812E+10	1.35599857141E-01	-9.07911408972E+01	6.56313042999E-05	1.14868755743E+02	4.94175318328E-05	4.56571114119E+01	3.01252389684E-02	-1.74613756981E+02
7.76513026052E+10	1.35152757283E-01	-9.16583778376E+01	4.81448438116E-05	1.71045134179E+02	1.54517701558E-05	-1.18045895068E+02	2.84387411808E-02	-1.73091127031E+02
7.76573146293E+10	1.36994496164E-01	-9.07460001783E+01	1.18780292593E-04	-1.68514168514E+02	6.01050786367E-05	-1.27312684326E+02	2.84448727991E-02	-1.72756408192E+02
7.76633266533E+10	1.35859127303E-01	-9.24795333086E+01	1.02860564342E-04	-1.42999559001E+02	1.89359667808E-05	1.57525636844E+02	2.78741780498E-02	-1.73898952954E+02
7.76693386774E+10	1.36071152531E-01	-9.29202835193E+01	1.03100402403E-04	-1.69804514175E+02	5.04767195030E-05	9.76476688093E+01	2.68062754686E-02	-1.74151404098E+02
7.76753507014E+10	1.33962176169E-01	-9.19990398789E+01	1.15152697786E-04	1.64601866893E+02	7.84619506506E-05	1.57655685521E+02	2.61651248502E-02	-1.74626135673E+02
7.76813627255E+10	1.33626339140E-01	-9.03187235812E+01	1.19733637219E-04	1.03630665375E+02	8.31094107689E-05	1.31747598901E+02	2.55718921688E-02	-1.75568837329E+02
7.76873747495E+10	1.38072244543E-01	-9.39593062174E+01	5.40398240052E-05	1.38947900877E+02	8.73700819230E-05	8.87533319525E+01	2.48129281752E-02	-1.76627891521E+02
7.76933867735E+10	1.34011124602E-01	-9.32727071978E+01	7.76367652713E-05	1.02831107925E+02	3.76909265730E-05	8.85605515940E+01	2.38846780054E-02	-1.76560039696E+02
7.76993987976E+10	1.35164871855E-01	-9.29781643848E+01	1.01044165606E-04	8.38315030107E+01	3.70650887017E-05	7.43158230273E+00	2.35451199952E-02	-1.75635902849E+02
7.77054108216E+10	1.34247562021E-01	-9.24069327290E+01	9.43481531111E-05	1.16914469357E+02	3.84343983275E-05	2.22341806632E+01	2.24871120244E-02	-1.76836612654E+02
7.77114228457E+10	1.35715673209E-01	-9.38306636380E+01	1.05035104795E-04	1.04408274948E+02	2.76232798500E-05	3.95818477912E+00	2.18062726737E-02	-1.77250906029E+02
7.77174348697E+10	1.32451086989E-01	-9.13513337790E+01	7.98192812398E-05	9.37947771538E+01	6.12211480418E-05	1.08380053682E+02	2.15223098371E-02	-1.77655027233E+02
7.77234468938E+10	1.33022667217E-01	-9.45317273083E+01	9.54541426862E-05	5.32594164473E+01	7.25091968080E-05	1.11251544877E+01	2.06610212100E-02	-1.77740298473E+02
7.77294589178E+10	1.35918419873E-01	-9.53861776848E+01	3.04066427615E-05	8.86723689364E+01	5.85186100676E-05	7.22842468304E+01	1.95477172752E-02	-1.79351214319E+02
7.77354709419E+10	1.31992610021E-01	-9.23091584467E+01	6.59152472806E-05	5.46264301955E+01	5.61177346983E-06	-4.86713162734E+01	1.87602901426E-02	-1.79283023245E+02
7.77414829659E+10	1.33164984395E-01	-9.34031957473E+01	5.38714688050E-05	-3.93335205766E+00	3.63212694925E-05	-7.13577569458E+01	1.82805915568E-02	-1.79969196047E+02
7.77474949900E+10	1.34062533876E-01	-9.48200085169E+01	9.77489510017E-06	1.67005532705E+02	5.62838099729E-05	1.37393530198E+02	1.75439720967E-02	-1.78992772373E+02
7.77535070140E+10	1.33391864838E-01	-9.43180014152E+01	3.07410775929E-05	-1.95825524821E+01	4.97333276929E-05	3.87429357668E+01	1.68661707194E-02	1.79824887341E+02
7.77595190381E+10	1.33616499471E-01	-9.49444545629E+01	5.11730552129E-05	-5.24531048405E+01	2.86227109119E-05	4.26211653897E+00	1.62217369315E-02	1.79276198673E+02
7.77655310621E+10	1.31475021320E-01	-9.40352835014E+01	7.39576042053E-05	-2.64348501908E+00	8.95509153255E-05	6.64532496327E+01	1.55800881227E-02	1.77540003792E+02
7.77715430862E+10	1.31567658846E-01	-9.28285588767E+01	5.40077358735E-05	-3.06881159297E+01	6.26404974976E-05	-4.04156171646E+01	1.48046269972E-02	1.75837099327E+02
7.77775551102E+10	1.34179204180E-01	-9.58295784963E+01	3.99520796536E-05	-1.14436477878E+02	8.30780246334E-05	9.04993309653E+01	1.38221939357E-02	1.78995253051E+02
7.77835671343E+10	1.34543488511E-01	-9.71204650361E+01	5.05148086811E-05	-1.23758897966E+02	2.32131798702E-05	5.52173447509E+01	1.32812371203E-02	1.76257403211E+02
7.77895791583E+10	1.31185533741E-01	-9.31378424674E+01	3.86739074510E-05	-6.35654936803E+01	1.18354563699E-04	1.01942943518E+02	1.25832094301E-02	1.74716929450E+02
7.77955911824E+10	1.33825586688E-01	-9.65942184606E+01	6.33784169463E-05	-9.95852738809E+01	1.05676149873E-04	4.70592522068E+01	1.16477521471E-02	1.76308536718E+02
7.78016032064E+10	1.30475199553E-01	-9.35084238522E+01	4.11536991279E-05	-8.99957970081E+01	5.42175957639E-05	1.61057135866E+01	1.09439205333E-02	1.77374913539E+02
7.78076152305E+10	1.30095994724E-01	-9.36276469450E+01	4.75695214718E-05	2.46036239911E+01	3.65696849355E-05	1.33348705049E+02	1.00747285585E-02	1.75023610630E+02
7.78136272545E+10	1.32424151361E-01	-9.52871843958E+01	3.97146729603E-05	-9.35050902561E+01	4.16962939282E-05	-7.90695258691E+00	9.33494236107E-03	1.75443378754E+02
7.78196392786E+10	1.32222828332E-01	-9.51256075206E+01	3.78539186049E-05	1.41952320304E+02	4.72399981806E-05	6.38460821312E+01	8.72428254124E-03	1.75920128690E+02
7.78256513026E+10	1.33249651067E-01	-9.67646049279E+01	5.92153704087E-05	6.20351638384E+01	5.33616632837E-05	-7.01713703112E+01	8.42275808601E-03	1.70483724854E+02
7.78316633267E+10	1.29826839416E-01	-9.56180292365E+01	8.23753799699E-05	7.31604128110E+01	9.44490991156E-05	3.62146128664E+00	7.00191392894E-03	1.76955736354E+02
7.78376753507E+10	1.30774928857E-01	-9.55955037524E+01	3.64816144887E-05	2.90572894463E+01	7.63798914119E-05	2.55192179745E+01	6.50855911915E-03	1.75251385887E+02
7.78436873747E+10	1.31829175772E-01	-9.62963747181E+01	4.10957894244E-05	3.34965052855E+01	1.03538324530E-04	-2.57206326089E+01	5.74045143465E-03	1.76646817452E+02
7.78496993988E+10	1.33399950938E-01	-9.79287316246E+01	2.37340471327E-05	1.57448381258E+02	1.15995501808E-05	1.59964770584E+02	5.59326699609E-03	1.66897415996E+02
7.78557114228E+10	1.26824113234E-01	-9.32047478025E+01	5.76924672570E-05	1.07882313728E+01	3.11851333828E-05	-5.50456079143E+01	4.44858038832E-03	1.71019191525E+02
7.78617234469E+10	1.29971940159E-01	-9.68391568640E+01	6.85391433502E-05	-6.04715591883E+01	6.13072714336E-05	-5.96041427649E+01	3.76924702354E-03	1.71381169037E+02
7.78677354709E+10	1.29541127209E-01	-9.57726578454E+01	3.68903849783E-05	7.22096417964E+01	3.83935014583E-05	1.06602818589E+02	2.89408575177E-03	1.71542025408E+02
7.78737474950E+10	1.29730904567E-01	-9.58596777554E+01	7.91911719698E-05	8.61460999821E+01	2.79089667603E-05	-2.57884985962E+01	2.51354026521E-03	1.63833384130E+02
7.78797595190E+10	1.29491155849E-01	-9.66881357091E+01	1.46645143023E-05	-4.72539635243E+01	6.18816577993E-05	-6.48550124931E+01	2.26419719667E-03	1.49683324689E+02
7.78857715431E+10	1.28432576276E-01	-9.78038693384E+01	4.63278527193E-05	-6.41085723136E+01	4.52395217630E-05	-8.22407211872E+01	1.13391152520E-03	1.37620552928E+02
7.78917835671E+10	1.30256997199E-01	-9.79182402782E+01	5.09586939887E-05	-2.71620955950E+01	7.78703077556E-06	5.76288747394E+01	5.22063228865E-04	7.56278862054E+01
7.78977955912E+10	1.29858754069E-01	-9.77530876066E+01	8.30807081502E-05	-8.46243691733E+00	5.55491165427E-05	-1.50956871950E+02	8.45850944122E-04	7.16876703570E+01
7.79038076152E+10	1.30842513131E-01	-9.97915543333E+01	5.50054158632E-05	-8.75798860422E+01	4.88272800237E-05	-1.36307618561E+02	1.27459180049E-03	3.59585557366E+00
7.79098196393E+10	1.29971086717E-01	-9.79943431909E+01	1.18324516162E-04	-6.04926797468E+01	2.47439413532E-05	1.35405405555E+02	1.89426766835E-03	-3.43859568154E-01
7.79158316633E+10	1.29133195604E-01	-9.75227600454E+01	5.14563682240E-05	-6.12444005621E+01	1.47360213192E-05	1.17870933104E+01	2.50998105947E-03	-5.13547640302E+00
7.79218436874E+10	1.29366825537E-01	-9.84643378633E+01	1.01164701306E-04	-9.41296168672E+01	2.93497460369E-05	-1.42011108823E+02	2.80067419783E-03	5.61774475544E-01
7.79278557114E+10	1.29575462561E-01	-9.90293210995E+01	9.06394916690E-05	-9.01383547790E+01	3.37571064530E-05	-1.20706489066E+01	3.92918956608E-03	-3.58228305631E+00
7.79338677355E+10	1.32468599632E-01	-1.00305234351E+02	1.23494289175E-04	-6.78357496288E+01	3.75363259950E-05	-1.19335480405E+02	4.34690946448E-03	-3.36885790695E+00
7.79398797595E+10	1.28966879187E-01	-9.86432934764E+01	5.98896063982E-05	-1.46192080189E+02	1.12153312845E-04	-1.51452005020E+02	5.08298809820E-03	-3.11982669767E+00
7.79458917836E+10	1.28285176263E-01	-9.80894400085E+01	1.07908503101E-04	-1.60740552344E+02	9.25644001799E-05	-1.71698190231E+02	6.55854039292E-03	-7.25187109664E+00
7.79519038076E+10	1.27053363626E-01	-9.91076659030E+01	8.60542096038E-05	-1.72409478947E+02	7.02149049719E-05	9.60098403139E+01	7.29145922021E-03	-9.95990691634E+00
7.79579158317E+10	1.28436068708E-01	-9.87276284521E+01	1.14678543363E-04	-1.57800731079E+02	5.18294925823E-05	1.78122425377E+02	7.20962445812E-03	-7.05860394499E+00
7.79639278557E+10	1.30200833777E-01	-1.00117969329E+02	5.09494966872E-05	-1.32571382207E+02	2.17971346012E-05	-7.19696728892E+01	7.56496114232E-03	-5.18915101229E+00
7.79699398798E+10	1.29061192523E-01	-1.01429082300E+02	1.07161026790E-04	1.09499160795E+02	3.15709529865E-05	-2.09271540361E+01	9.66667554995E-03	-1.21232354931E+01
7.79759519038E+10	1.26987236049E-01	-9.94870077031E+01	4.41986548386E-05	-1.24635161119E+02	3.10558133232E-05	2.09298011291E+00	9.39992086095E-03	-9.98374838005E+00
7.79819639279E+10	1.27896385954E-01	-9.84724819352E+01	7.21204445273E-05	1.76876515595E+02	2.77196371002E-05	-3.76987474518E+01	9.82134991351E-03	-9.85026193370E+00
7.79879759519E+10	1.27284130285E-01	-9.93620349815E+01	4.16786770367E-05	4.16796509429E+01	1.49957640825E-04	-8.42759560437E+00	1.09839741524E-02	-1.14631284711E+01
7.79939879760E+10	1.29152702954E-01	-1.00821890356E+02	6.02058289642E-06	1.09697858840E+02	4.18258697626E-05	-8.53856917936E+01	1.10274918619E-02	-1.21694180773E+01
7.80000000000E+10	1.28354893514E-01	-1.01684795348E+02	6.48590393719E-05	1.18829216530E+02	9.38886532026E-05	-8.20491174874E+01	1.16849672413E-02	-1.29213534751E+01
