# Hz S MA R 50
! CMT, C4420, 21421029, 25.1.2/3
! Date: 8/7/2025 1:32:49 PM
! Data: Format (Calibration Info)
! Freq	S33:Mag/Ang(F2)	S43:Mag/Ang(F2)	S34:Mag/Ang(F2)	S44:Mag/Ang(F2)
7.50000000000E+10	1.98779188076E-01	-1.40821683243E+01	7.56818212117E-05	9.53425459443E+01	6.94877146212E-05	1.38036412125E+02	2.79964177887E-01	-2.95594157906E+01
7.50060120240E+10	1.99127276829E-01	-1.38901101366E+01	1.09766088927E-04	1.38718055691E+02	2.52000500838E-05	2.47835973366E+01	2.78013997644E-01	-2.97851432392E+01
7.50120240481E+10	2.00550615150E-01	-1.30598921752E+01	2.51892058341E-05	-1.62091657578E+02	1.15476857900E-04	1.65282168346E+02	2.78003580900E-01	-2.99734635706E+01
7.50180360721E+10	2.00676245473E-01	-1.51296886496E+01	7.45362842835E-05	1.67791898863E+02	4.84862079873E-05	1.02309052420E+02	2.74777816714E-01	-2.91667725852E+01
7.50240480962E+10	2.00427122095E-01	-1.56904253510E+01	2.13063423557E-05	6.98680315963E+01	6.90351882608E-05	1.36148551425E+02	2.77357678563E-01	-3.10504695754E+01
7.50300601202E+10	1.99826005020E-01	-1.51742026429E+01	8.62031776891E-05	1.33579757490E+02	9.66253517352E-05	1.77221531011E+02	2.78374797551E-01	-3.13806314563E+01
7.50360721443E+10	1.99750790185E-01	-1.32943561690E+01	5.19425313491E-05	1.02747040281E+02	6.44249560483E-05	1.52962820625E+02	2.76009419244E-01	-3.09105709144E+01
7.50420841683E+10	2.00832533808E-01	-1.56103613975E+01	1.58450044079E-05	1.54566612204E+02	4.73603067820E-05	-3.78806133820E+01	2.73614305535E-01	-3.00939084628E+01
7.50480961924E+10	1.98985814928E-01	-1.73064177755E+01	4.17820210694E-05	-1.72076584122E+02	7.98419773843E-05	1.53862143774E+02	2.68961477317E-01	-3.03387316302E+01
7.50541082164E+10	1.95814737585E-01	-1.47640963930E+01	4.23653633107E-05	1.44239132834E+01	8.12640036250E-05	1.13624638787E+02	2.73255472733E-01	-3.13677044787E+01
7.50601202405E+10	2.00765559804E-01	-1.63336925237E+01	5.33250703540E-05	-9.09915062122E+01	4.33803323702E-05	-1.39604112633E+02	2.77089489188E-01	-3.21152163456E+01
7.50661322645E+10	2.01203446488E-01	-1.58917252709E+01	2.80192962199E-05	1.45122880193E+02	4.78993012677E-05	1.50100137804E+02	2.72042330642E-01	-3.14793368057E+01
7.50721442886E+10	1.97797794051E-01	-1.54309733411E+01	2.52677994924E-05	-1.31281607825E+02	1.20715788480E-04	9.61403634402E+01	2.74006727187E-01	-3.26396507590E+01
7.50781563126E+10	1.98324967140E-01	-1.70338157395E+01	1.34862507239E-04	1.28248038894E+02	1.09166311736E-04	1.42731978938E+02	2.74627588680E-01	-3.30338814783E+01
7.50841683367E+10	1.97185060098E-01	-1.76522991749E+01	6.78212527409E-05	1.06641150078E+02	1.02840778387E-04	8.73461954911E+01	2.75944228307E-01	-3.29546009030E+01
7.50901803607E+10	1.99224024116E-01	-1.82919010075E+01	3.23201882027E-05	1.31988098608E+02	1.30649432999E-04	5.36595160522E+01	2.74714096569E-01	-3.21632784793E+01
7.50961923848E+10	2.00395949147E-01	-1.78264295110E+01	2.68499190287E-05	1.51987868274E+02	6.16826090493E-05	9.20372566668E+01	2.73766653471E-01	-3.40709665500E+01
7.51022044088E+10	1.95281854970E-01	-1.50741669604E+01	1.93715743652E-05	-1.53048096447E+02	5.50627137273E-05	1.16041378424E+02	2.75039589315E-01	-3.39221646942E+01
7.51082164329E+10	1.95136959099E-01	-1.73079281313E+01	7.31564167040E-05	7.10770729217E+01	1.04600794732E-04	7.93838399558E+01	2.76532986144E-01	-3.48744256128E+01
7.51142284569E+10	1.95183406442E-01	-1.78024079055E+01	7.50788806039E-06	-1.44825276487E+02	7.90895279583E-05	3.86782085760E+01	2.71212049395E-01	-3.37454236368E+01
7.51202404810E+10	1.96396196081E-01	-1.69282588210E+01	1.45360138663E-04	8.80232709118E+01	1.07372147707E-04	5.28706411355E+01	2.76264723743E-01	-3.55727591203E+01
7.51262525050E+10	1.96453934240E-01	-1.90505359898E+01	9.14975545509E-05	2.35126758467E+01	4.62339241819E-05	5.66778762387E+01	2.70000086358E-01	-3.48690585391E+01
7.51322645291E+10	1.97207034653E-01	-1.90572206925E+01	7.42870037769E-05	5.16172349698E+01	1.06388831829E-04	4.10133392386E+01	2.70058008170E-01	-3.38891861351E+01
7.51382765531E+10	1.96275106625E-01	-1.88838486117E+01	7.70334276464E-05	4.30119879533E+01	6.64577909230E-05	3.09751498016E+01	2.71986815012E-01	-3.60312020307E+01
7.51442885772E+10	1.93456359951E-01	-1.69021753685E+01	4.90748507393E-05	4.85594811450E+01	6.40501449778E-05	5.44393407389E+01	2.75161102859E-01	-3.59606742592E+01
7.51503006012E+10	1.92668048775E-01	-1.71071467307E+01	6.54811619085E-05	2.45219372621E+01	1.27725409471E-05	4.21899404013E+01	2.73679571165E-01	-3.70853364744E+01
7.51563126253E+10	1.93268822665E-01	-2.00504011176E+01	8.86694649694E-05	6.04027506569E+01	7.18268048139E-05	-4.75788126964E+01	2.67552910297E-01	-3.48253594988E+01
7.51623246493E+10	1.96084633748E-01	-1.96716871496E+01	2.66286553240E-05	1.55336802200E+02	6.25380772464E-05	-1.77314806116E+00	2.72906683215E-01	-3.65573394493E+01
7.51683366733E+10	1.91994082165E-01	-1.83725795139E+01	8.67735748049E-05	5.00565971905E+01	2.46533027324E-05	3.91848245332E+01	2.77633427227E-01	-3.78173779729E+01
7.51743486974E+10	1.96149110841E-01	-1.94701245818E+01	5.57707758642E-05	4.63840307077E+01	1.56318698001E-05	1.21117268731E+02	2.71057855602E-01	-3.67270271402E+01
7.51803607214E+10	1.94857968043E-01	-1.99699688016E+01	8.06144248288E-05	1.05408186382E+01	8.40181248144E-05	3.45993772449E+01	2.68964678980E-01	-3.71804636669E+01
7.51863727455E+10	1.94881568824E-01	-1.91963855096E+01	1.22891870047E-04	-6.26735094972E+00	4.13063472826E-05	-2.27602400840E+01	2.70292278222E-01	-3.74019575059E+01
7.51923847695E+10	1.91917848449E-01	-1.97066343319E+01	9.05075675369E-05	3.85022024640E+00	1.29166614712E-04	2.57634034922E+01	2.75658203761E-01	-3.87714075422E+01
7.51983967936E+10	1.93377414292E-01	-2.00678736864E+01	8.06241236862E-05	-4.19236251723E+01	1.55786333828E-04	-2.23434884900E+01	2.75175808093E-01	-3.89788107813E+01
7.52044088176E+10	1.97400025538E-01	-2.18942548485E+01	8.34240578592E-05	-4.83314246793E+01	7.25165978240E-05	-4.12545839147E+01	2.72204927207E-01	-3.87650727531E+01
7.52104208417E+10	1.93680738276E-01	-2.03272994875E+01	5.82554769462E-05	2.59583836015E+01	5.77169591336E-05	-2.43880348397E+01	2.66772521291E-01	-3.78240382722E+01
7.52164328657E+10	1.94478638994E-01	-2.06794787961E+01	4.82451171440E-05	-9.48908536483E+01	3.32169407874E-05	-7.45841078035E+00	2.73734296467E-01	-4.03604871910E+01
7.52224448898E+10	1.92569722023E-01	-2.01967567206E+01	7.33613426545E-05	5.36931461584E+01	7.92753880176E-05	7.40897568395E+01	2.70153397728E-01	-3.93965781843E+01
7.52284569138E+10	1.96865225049E-01	-2.11352128011E+01	1.76098469208E-05	1.45344479286E+02	6.17970173352E-05	1.27896307020E+02	2.66414783516E-01	-3.92433734985E+01
7.52344689379E+10	1.93891321892E-01	-2.26280867641E+01	6.33482301511E-05	-3.20329112179E+01	5.03909929573E-05	3.15882947458E+01	2.71538485397E-01	-4.08672857500E+01
7.52404809619E+10	1.96690690091E-01	-2.24541970436E+01	1.05852439159E-04	-2.83329273627E+01	1.05333020405E-04	6.48736272236E+00	2.68780191593E-01	-3.95926297608E+01
7.52464929860E+10	1.95196432644E-01	-2.27755227114E+01	5.88541528799E-05	-1.22533279182E+02	9.77623235048E-05	-4.40035600920E+00	2.69032060053E-01	-4.01346693603E+01
7.52525050100E+10	1.92727610450E-01	-2.33967859582E+01	9.26635818228E-05	-7.97142791167E+01	4.15921311924E-05	-3.64726917111E+01	2.72117674840E-01	-4.23882599396E+01
7.52585170341E+10	1.91997386417E-01	-2.20783196374E+01	5.02496880015E-05	-8.20156640496E+01	4.92499379845E-05	-4.30834200801E+01	2.73480748153E-01	-4.25496736480E+01
7.52645290581E+10	1.95059384737E-01	-2.26146197860E+01	4.69916801349E-05	-3.98030470855E+01	6.28049975224E-05	-1.00769018644E+01	2.72726800630E-01	-4.22970898487E+01
7.52705410822E+10	1.92333479294E-01	-2.23661817991E+01	7.87989204971E-05	-5.48409247438E+01	7.28787331024E-05	-7.39560586060E+01	2.66075667247E-01	-4.11199415796E+01
7.52765531062E+10	1.89719987716E-01	-2.11155559213E+01	7.55929356393E-05	-1.00651394746E+02	9.46936301598E-05	-6.82621030427E+01	2.65207950157E-01	-4.18970855010E+01
7.52825651303E+10	1.89332792460E-01	-2.25277839849E+01	6.01923038064E-05	-4.35483081399E+01	5.62147918184E-05	-5.05151723925E+01	2.65491650135E-01	-4.21214619946E+01
7.52885771543E+10	1.92269830869E-01	-2.31711530539E+01	3.85007182234E-05	-5.75656628714E+01	2.18855288619E-05	1.04876965466E+02	2.71010462995E-01	-4.37102222667E+01
7.52945891784E+10	1.91914851759E-01	-2.09650081242E+01	6.85131351899E-05	-1.38557816142E+02	6.76171411667E-05	-8.63995915581E+01	2.69965881679E-01	-4.32535474432E+01
7.53006012024E+10	1.93148371587E-01	-2.31219000901E+01	9.12653568921E-05	-9.40309327976E+01	8.94002868915E-05	-3.92302934737E+01	2.67363191614E-01	-4.32836247727E+01
7.53066132265E+10	1.89346087927E-01	-2.23599501347E+01	7.65368930409E-05	-9.88106696902E+01	6.92893899603E-05	-1.10503691447E+02	2.63116429525E-01	-4.23960158955E+01
7.53126252505E+10	1.88214951052E-01	-2.17502895855E+01	3.82974134303E-05	-8.00652943097E+01	1.69472266634E-04	-8.67860658623E+01	2.64102984901E-01	-4.39870535060E+01
7.53186372745E+10	1.94426190658E-01	-2.51797752565E+01	1.53061073371E-05	-1.75540407584E+02	8.14438799300E-05	1.69626944553E+02	2.68219493094E-01	-4.53029979941E+01
7.53246492986E+10	1.92852694416E-01	-2.41370007997E+01	8.87190281603E-05	-1.78113312273E+02	1.13576047728E-04	-1.43588843070E+02	2.69190234228E-01	-4.49316151967E+01
7.53306613226E+10	1.90842193355E-01	-2.28011552214E+01	3.57797830243E-05	-1.11433519349E+02	5.30457481890E-05	-2.42963381885E+01	2.67913738620E-01	-4.45783343382E+01
7.53366733467E+10	1.86174368138E-01	-2.12943774960E+01	4.05592417422E-05	-8.20674853035E+01	1.73292678072E-05	-5.59335614055E+01	2.63892665044E-01	-4.53863781170E+01
7.53426853707E+10	1.88273127373E-01	-2.25327323349E+01	4.13986526070E-05	-9.17916014945E+01	3.07069854523E-05	-9.62638942689E+01	2.63182486058E-01	-4.46604321964E+01
7.53486973948E+10	1.92456760217E-01	-2.34306995328E+01	5.34179546912E-05	-1.25168858442E+02	8.44598446657E-05	-1.06655248950E+02	2.63448918300E-01	-4.52723470050E+01
7.53547094188E+10	1.89326012838E-01	-2.30232168916E+01	6.59244850860E-05	-1.09100376781E+02	1.12954272189E-04	-1.22871251848E+02	2.67642959376E-01	-4.70772891244E+01
7.53607214429E+10	1.90421889514E-01	-2.45845252159E+01	7.56780033308E-05	1.68030742789E+02	9.79770581262E-05	-1.33053089120E+02	2.65396493766E-01	-4.67818110455E+01
7.53667334669E+10	1.90432712190E-01	-2.49304860016E+01	6.25407738208E-05	-1.62394328010E+02	1.25447680935E-04	1.62979506356E+02	2.60117774437E-01	-4.56899682740E+01
7.53727454910E+10	1.90315290328E-01	-2.40053002210E+01	6.55858159020E-05	1.08664893632E+02	1.45304641633E-04	1.59375170301E+02	2.62138515189E-01	-4.63478818506E+01
7.53787575150E+10	1.90892665847E-01	-2.68150548979E+01	1.99055367463E-05	-1.38115546567E+02	6.08275558330E-05	1.50688650111E+02	2.63481190770E-01	-4.74207868628E+01
7.53847695391E+10	1.91479446950E-01	-2.60307965089E+01	9.68300233688E-05	9.99077536017E+01	2.27321295765E-05	4.15551458031E+01	2.64153079353E-01	-4.79850838064E+01
7.53907815631E+10	1.89786708153E-01	-2.52751044393E+01	6.15130429819E-05	-1.09423893052E+02	4.66220062479E-05	-6.48707014659E+01	2.62691212825E-01	-4.83015512205E+01
7.53967935872E+10	1.88835962344E-01	-2.42299093708E+01	2.53026941693E-05	1.27298242068E+02	5.57804255087E-05	1.02927637463E+02	2.62358553663E-01	-4.72683096471E+01
7.54028056112E+10	1.90509978086E-01	-2.63523196820E+01	9.76763036089E-06	1.78372232147E+02	6.65183033351E-05	-1.13576623798E+02	2.61586956091E-01	-4.75477432335E+01
7.54088176353E+10	1.88896246307E-01	-2.65765408484E+01	9.44828613104E-06	6.41643056964E+01	5.58696638363E-05	1.43814422903E+02	2.60557464940E-01	-4.82681424690E+01
7.54148296593E+10	1.90398688029E-01	-2.65400051489E+01	6.43396242971E-05	-1.58360378858E+02	3.18705400809E-05	1.44807129448E+02	2.59135212574E-01	-4.97676805323E+01
7.54208416834E+10	1.91441609219E-01	-2.56108170448E+01	3.24671203717E-05	6.60877067038E+01	8.17194647551E-05	1.74389718209E+02	2.59475665932E-01	-4.86047656745E+01
7.54268537074E+10	1.90330917192E-01	-2.65772544597E+01	7.82887638242E-05	9.20887557506E+01	5.77726256087E-05	9.16085850500E+01	2.62363314165E-01	-4.96873538582E+01
7.54328657315E+10	1.89081322386E-01	-2.76604811727E+01	1.99469577555E-05	1.56846787400E+02	7.71009616693E-05	1.43781636406E+02	2.58087380867E-01	-4.91847158921E+01
7.54388777555E+10	1.88324137137E-01	-2.76248161077E+01	4.18949691791E-06	1.27792606166E+02	2.68460682996E-05	1.02229167695E+02	2.58033019249E-01	-5.05750688049E+01
7.54448897796E+10	1.86224875349E-01	-2.75967034090E+01	1.05043132183E-04	1.48262800637E+02	3.50793520450E-05	7.36483481829E+01	2.59878250146E-01	-5.11493421017E+01
7.54509018036E+10	1.91578675396E-01	-2.84697467278E+01	1.72405469626E-05	8.70488975314E+01	2.43584918280E-05	1.15297705487E+02	2.59789883871E-01	-5.13817251005E+01
7.54569138277E+10	1.87181586353E-01	-2.65152634943E+01	1.57253700605E-05	4.29314467063E+01	3.59673629562E-05	1.74160428883E+02	2.56779661779E-01	-5.10101684284E+01
7.54629258517E+10	1.88514512456E-01	-2.69393505632E+01	4.05792733724E-05	1.20114221802E+02	1.88268459167E-05	8.67700802392E+01	2.60370055703E-01	-5.22629617534E+01
7.54689378758E+10	1.86899059575E-01	-2.81712413933E+01	2.93029882541E-05	-9.16569843358E+01	1.38097475730E-05	-7.73393031436E+01	2.56852700235E-01	-5.07138794304E+01
7.54749498998E+10	1.86711889503E-01	-2.65026866942E+01	7.55846877609E-05	1.17310802956E+01	3.81406133597E-05	6.83485136343E+01	2.56397454766E-01	-5.11237456534E+01
7.54809619238E+10	1.89410364860E-01	-2.88336763685E+01	1.68993498005E-05	5.25763747738E+01	9.02289243828E-05	7.44301866957E+01	2.56493052472E-01	-5.20791310634E+01
7.54869739479E+10	1.89007786281E-01	-2.81692292431E+01	9.45596086267E-05	-1.29009993998E+02	6.45688065142E-05	4.29625377252E+01	2.57784995282E-01	-5.38057172129E+01
7.54929859719E+10	1.86064958475E-01	-2.74975747463E+01	5.80002702189E-05	-1.24178283664E+02	1.15532098878E-04	-8.59466752559E+01	2.60719657537E-01	-5.46846193457E+01
7.54989979960E+10	1.83816353706E-01	-2.74783942549E+01	1.03790708517E-04	-1.64826925722E+02	4.61514051697E-05	6.08123043571E+01	2.57788716771E-01	-5.38196599807E+01
7.55050100200E+10	1.88049819267E-01	-2.95447235558E+01	3.16363553125E-05	-1.74512591412E+02	6.62412257921E-05	3.30328064293E+01	2.56219608967E-01	-5.30732173003E+01
7.55110220441E+10	1.89021551902E-01	-2.89355522609E+01	4.13283748537E-05	1.12657679522E+02	5.49586215323E-05	-1.68388212531E+02	2.55608037325E-01	-5.41863696958E+01
7.55170340681E+10	1.87143459008E-01	-2.98266998369E+01	5.44376435911E-05	-1.68885175797E+02	3.81029248583E-05	1.27524965883E+02	2.56059682986E-01	-5.46199194054E+01
7.55230460922E+10	1.85939788908E-01	-2.95734207003E+01	7.54169969228E-05	1.47619944310E+02	7.51823267966E-05	9.91709162985E+01	2.56189875881E-01	-5.51216663210E+01
7.55290581162E+10	1.85091576682E-01	-2.93529973087E+01	4.33552580641E-05	1.64109094126E+02	3.17471622093E-05	8.58669834758E+01	2.54132213981E-01	-5.46067293477E+01
7.55350701403E+10	1.89829155275E-01	-3.16805972938E+01	2.15327289172E-05	1.76108600052E+02	3.52717363981E-05	9.83939768662E+01	2.51684966866E-01	-5.50708080171E+01
7.55410821643E+10	1.86828392997E-01	-3.00087849678E+01	9.97169828009E-05	1.41610020934E+02	4.93803638147E-05	8.68493207979E+01	2.54132396092E-01	-5.57507397910E+01
7.55470941884E+10	1.85772772827E-01	-2.88068883316E+01	1.01465525780E-04	1.14369471853E+02	6.81351447139E-05	9.10057620316E+01	2.52649755591E-01	-5.55646524049E+01
7.55531062124E+10	1.87150802069E-01	-3.05696897372E+01	6.42378819236E-05	1.18302576932E+02	3.68762074314E-05	7.22630731151E+01	2.53909490728E-01	-5.60954421289E+01
7.55591182365E+10	1.85122153966E-01	-3.14107263129E+01	2.88169909486E-05	1.59749655745E+02	6.39054213329E-05	9.05770649801E+01	2.51402325357E-01	-5.71150606974E+01
7.55651302605E+10	1.83001582614E-01	-2.94504601086E+01	1.29873080609E-05	6.99373104010E+01	2.24021430203E-05	1.52194922652E+02	2.51450944408E-01	-5.67941673667E+01
7.55711422846E+10	1.89042598181E-01	-3.13833272899E+01	3.59001861471E-05	6.48087596797E+01	9.42636829235E-05	3.44148980811E+01	2.52123281841E-01	-5.60650173780E+01
7.55771543086E+10	1.86424565661E-01	-3.11725123173E+01	4.06911803527E-05	-1.19731753397E+02	5.17700249793E-05	-4.15967328426E+01	2.52956211828E-01	-5.81936817230E+01
7.55831663327E+10	1.84571924690E-01	-3.23955696926E+01	4.73233822278E-05	1.39380773131E+02	8.32519308395E-05	-1.80205660721E+01	2.50125439040E-01	-5.84108157036E+01
7.55891783567E+10	1.84126878090E-01	-3.03841580786E+01	6.32215007639E-05	-1.77692953321E+02	6.00981721450E-05	1.17099089404E+02	2.49444661023E-01	-5.79938756610E+01
7.55951903808E+10	1.85706824363E-01	-3.21627671241E+01	6.77692172363E-05	9.74418537725E+01	1.91667510388E-05	1.28373624437E+02	2.51902372278E-01	-5.84563353551E+01
7.56012024048E+10	1.90589466999E-01	-3.35354957810E+01	5.56586701216E-05	8.95055183729E+01	3.58071844603E-05	8.58306941372E+01	2.48791626689E-01	-5.75804637944E+01
7.56072144289E+10	1.86825895880E-01	-3.25034140620E+01	7.20405770151E-05	-3.95221248165E+01	7.85208470830E-05	-1.31266988377E+01	2.47202247030E-01	-5.92950543311E+01
7.56132264529E+10	1.85856821122E-01	-3.24859891781E+01	1.42277130977E-04	-4.30048013812E+01	1.11411003093E-04	-1.57887307501E+01	2.50218121079E-01	-6.01659818262E+01
7.56192384770E+10	1.84742669311E-01	-3.35907205297E+01	3.05865064215E-05	9.12630384563E+01	1.64207717556E-05	1.06187338569E+02	2.48181721240E-01	-5.91980513946E+01
7.56252505010E+10	1.86158410453E-01	-3.37283791621E+01	2.64606877119E-05	9.86069745469E+01	9.38429718179E-05	7.34254011986E+00	2.47760359446E-01	-5.87795348560E+01
7.56312625251E+10	1.88107808879E-01	-3.40653948398E+01	2.03826380852E-05	1.03239931487E+01	8.90382537982E-05	1.54582894080E+01	2.45844368449E-01	-6.00131718054E+01
7.56372745491E+10	1.85001771385E-01	-3.29137753038E+01	3.91023083751E-05	2.22686897228E+00	5.78574733767E-05	1.82675741861E+01	2.46517617497E-01	-6.01099053335E+01
7.56432865731E+10	1.81446484427E-01	-3.26080284334E+01	7.96665949194E-05	-5.13162905867E+01	1.20752006369E-04	-5.54665588233E+01	2.49538057778E-01	-6.13166476316E+01
7.56492985972E+10	1.82915994141E-01	-3.29681191266E+01	4.24657883131E-05	-1.25181163877E+01	5.11093679091E-05	-9.99605108466E+01	2.47217625071E-01	-6.20201532451E+01
7.56553106212E+10	1.86075709603E-01	-3.40909985378E+01	3.12304871385E-05	1.66089680808E+02	4.76770621969E-05	-7.18899935581E+01	2.44767026733E-01	-6.06647935497E+01
7.56613226453E+10	1.87871539503E-01	-3.45144279376E+01	4.25862684967E-05	2.40411934323E+01	2.89153660876E-05	7.21783980823E+01	2.44161663187E-01	-6.08937193022E+01
7.56673346693E+10	1.85323844367E-01	-3.41114146676E+01	6.09162096523E-05	1.06181956387E+01	6.61096177080E-05	1.13136874300E+02	2.45880637846E-01	-6.16042441819E+01
7.56733466934E+10	1.84032111946E-01	-3.46732667043E+01	4.94474775373E-05	3.86481858665E+01	7.06374124315E-05	-7.16774743392E+01	2.44796659212E-01	-6.28900258629E+01
7.56793587174E+10	1.83292154558E-01	-3.49503113544E+01	4.58456541741E-05	3.42454947046E+00	8.39512264441E-05	-3.88064781235E+01	2.40800688394E-01	-6.16509599554E+01
7.56853707415E+10	1.82490959650E-01	-3.43699170810E+01	6.95892485041E-05	-1.34210127385E+01	1.73845788543E-05	-1.28002222441E+02	2.44916049019E-01	-6.23672709424E+01
7.56913827655E+10	1.83667073025E-01	-3.48738954964E+01	1.12131249546E-04	-1.49134467070E+01	6.63719562427E-05	-8.01709515702E+01	2.41650519229E-01	-6.21740880187E+01
7.56973947896E+10	1.86332921034E-01	-3.64981417273E+01	7.61246938262E-05	6.20806025633E+01	1.12720898957E-04	-2.34809995776E+01	2.40036754705E-01	-6.26068013833E+01
7.57034068136E+10	1.86992117902E-01	-3.58971345768E+01	7.16638246569E-05	-9.15076466354E+01	5.88381695707E-05	-1.01371174820E+01	2.39160911653E-01	-6.30431330686E+01
7.57094188377E+10	1.83334637848E-01	-3.60423901943E+01	5.79828951264E-05	-1.40850080406E-01	5.74558054018E-05	-2.63750593793E+00	2.39248554250E-01	-6.29458215265E+01
7.57154308617E+10	1.82034065660E-01	-3.48951471103E+01	6.79014521476E-05	-6.58837894710E+01	4.72904368029E-05	-8.60153283676E+01	2.40948431658E-01	-6.38812554637E+01
7.57214428858E+10	1.85049629214E-01	-3.55282365150E+01	1.05266557862E-04	-1.60451416606E+02	8.95842041999E-05	-6.76354167407E+01	2.43717432840E-01	-6.49457488874E+01
7.57274549098E+10	1.87110924347E-01	-3.69309930671E+01	2.27449161139E-05	1.60435083908E+02	6.93084471774E-05	-1.53794984601E+02	2.40485625266E-01	-6.55186902510E+01
7.57334669339E+10	1.84646251327E-01	-3.78296033450E+01	3.64402455208E-05	-1.10487582333E+02	3.92557425165E-05	-1.73924807379E+02	2.40770791712E-01	-6.45372224881E+01
7.57394789579E+10	1.81500197685E-01	-3.66906562075E+01	6.01099000649E-05	-7.81984809170E+01	9.73406912492E-05	-1.09238877163E+02	2.39832588707E-01	-6.53900961339E+01
7.57454909820E+10	1.78487668706E-01	-3.32448965814E+01	4.08505113887E-05	-8.64465547814E+00	3.89836894702E-05	-7.11183878494E+01	2.37309216429E-01	-6.55618393560E+01
7.57515030060E+10	1.85269101608E-01	-3.70539638548E+01	8.92194882746E-05	-3.73819571838E+01	2.75774359794E-05	1.70955968046E+02	2.41544779130E-01	-6.63373296829E+01
7.57575150301E+10	1.83044180696E-01	-3.67001042772E+01	7.76659062292E-05	-1.06739274933E+02	6.42517117341E-05	-6.45936333167E+01	2.37582281583E-01	-6.60807065322E+01
7.57635270541E+10	1.81335110277E-01	-3.74614362396E+01	5.77817264336E-05	-7.06031225864E+01	1.08189856055E-04	-1.10562482089E+02	2.34241496324E-01	-6.56706468360E+01
7.57695390782E+10	1.83053800462E-01	-3.85301806214E+01	5.32241632979E-05	1.78152269396E+02	4.81124844209E-05	-8.59045329549E+01	2.41201867788E-01	-6.76979716451E+01
7.57755511022E+10	1.84673463402E-01	-3.95828095361E+01	3.41089465751E-05	-8.66876938952E+01	4.30432820767E-05	-9.17490000782E+01	2.36038915832E-01	-6.54261455512E+01
7.57815631263E+10	1.80444129694E-01	-3.70150883078E+01	5.07444514274E-05	-1.37742678385E+02	3.65427791899E-05	-1.60297586395E+02	2.34713338418E-01	-6.62047245022E+01
7.57875751503E+10	1.79771573857E-01	-3.73691753194E+01	7.68115703866E-05	-7.99266725297E+01	8.80766677614E-05	-4.04620695236E+01	2.34742942736E-01	-6.81886247730E+01
7.57935871743E+10	1.83792875369E-01	-3.83545271039E+01	5.67724126229E-05	1.72959906365E+02	3.93874489116E-05	2.34551767934E+01	2.36595130531E-01	-6.85073833707E+01
7.57995991984E+10	1.79243122785E-01	-3.87677465218E+01	4.59734575965E-05	-4.20106058813E+01	5.31158801746E-05	-1.55323422444E+02	2.34938886575E-01	-6.73622638057E+01
7.58056112224E+10	1.82514725860E-01	-3.89944042357E+01	3.81599308312E-05	-1.47390104350E+02	6.45892586388E-05	-1.14876719794E+02	2.34588636168E-01	-6.84794403597E+01
7.58116232465E+10	1.85028404578E-01	-3.96858639948E+01	7.91603165221E-05	1.00178163261E+02	1.35096981163E-04	-1.66407704386E+02	2.32676735374E-01	-6.84665920444E+01
7.58176352705E+10	1.80962827862E-01	-3.89734192692E+01	3.56297093377E-05	1.73539530512E+02	1.09874171466E-04	-1.63420567385E+02	2.32660924010E-01	-6.95035169357E+01
7.58236472946E+10	1.82791854545E-01	-4.10137632573E+01	4.96071241508E-05	1.53107784440E+02	1.71302405209E-05	-8.69297271667E+01	2.33989913903E-01	-6.97455980101E+01
7.58296593186E+10	1.79900124882E-01	-3.91216760616E+01	1.51420053691E-05	-5.75797480284E+01	8.17425880772E-05	1.63122308205E+02	2.34495343644E-01	-6.96601626363E+01
7.58356713427E+10	1.79965714689E-01	-3.91903522286E+01	6.13681712500E-05	9.54626541152E+01	8.64689573820E-05	1.51122162248E+02	2.30591830360E-01	-6.85365324356E+01
7.58416833667E+10	1.79784775482E-01	-3.93743365135E+01	9.62664636261E-05	1.01012820744E+02	4.93152685099E-05	-1.39240679478E+02	2.29814589187E-01	-6.97407242703E+01
7.58476953908E+10	1.79252276233E-01	-4.09118418703E+01	5.80293995669E-05	-1.30885735754E+01	5.33794982783E-05	1.43340765006E+02	2.29599627102E-01	-7.11561719352E+01
7.58537074148E+10	1.81214874175E-01	-3.99733720094E+01	1.57239561490E-05	-1.62709961098E+02	5.64201108132E-05	7.66292158306E+01	2.34062265346E-01	-7.19167577642E+01
7.58597194389E+10	1.80707610854E-01	-3.93642214990E+01	4.70489637145E-05	-1.44211866960E+01	9.34115419410E-06	-9.14578359758E+01	2.30638616887E-01	-7.23149053085E+01
7.58657314629E+10	1.79005606774E-01	-3.93822931370E+01	1.64694330332E-05	1.74536154998E+02	4.67074697814E-05	6.86283934105E+01	2.29555924804E-01	-7.01207659901E+01
7.58717434870E+10	1.77079595627E-01	-4.06587350534E+01	4.23227584126E-05	-1.37659288610E+02	4.86327920677E-05	-9.43866968350E+00	2.29866295421E-01	-7.12481298526E+01
7.58777555110E+10	1.78507652490E-01	-4.00034738842E+01	7.96448636673E-05	-1.40970239684E+02	3.69403717017E-05	-6.90843818374E+01	2.32811479937E-01	-7.28515548914E+01
7.58837675351E+10	1.76323726706E-01	-4.06978228505E+01	3.28243248793E-05	-6.33331587769E+01	3.83506451803E-05	-5.96350318649E+01	2.27707043952E-01	-7.16236102024E+01
7.58897795591E+10	1.77937473941E-01	-4.06302443311E+01	3.03138728823E-05	1.76950581771E+02	5.49211989981E-05	8.83060096472E+01	2.27249836447E-01	-7.20889113607E+01
7.58957915832E+10	1.79263282446E-01	-4.22886414347E+01	3.38406914931E-05	-1.08908708809E+02	3.83546079565E-05	1.27678402396E+02	2.26345780021E-01	-7.30563685429E+01
7.59018036072E+10	1.79498157472E-01	-4.19034218782E+01	3.07257145936E-05	8.98309559094E+01	4.41027679025E-05	4.30383312744E+01	2.29426361185E-01	-7.48390857610E+01
7.59078156313E+10	1.78458133756E-01	-4.18916394181E+01	4.32999110068E-05	-1.01859172368E+02	7.12015533924E-05	1.96975964999E+01	2.28239618404E-01	-7.33807161667E+01
7.59138276553E+10	1.76530378482E-01	-4.17925934599E+01	5.84640472405E-05	-6.22929483313E+01	2.51820775820E-05	-1.15947730499E+00	2.25804654921E-01	-7.34229278694E+01
7.59198396794E+10	1.80875442016E-01	-4.30194768874E+01	7.90766984236E-06	4.59696910032E+01	6.95475941183E-05	1.37710842171E+02	2.26913988954E-01	-7.46709423480E+01
7.59258517034E+10	1.79292797319E-01	-4.27818602408E+01	5.29921149087E-05	-1.55516443102E+02	5.08621230686E-05	-8.55298790911E+01	2.27820223600E-01	-7.51086449855E+01
7.59318637275E+10	1.78817012965E-01	-4.36963083322E+01	1.58553853631E-05	1.38380959657E+01	5.39819194726E-05	-1.20242804509E+02	2.27328310299E-01	-7.47662762486E+01
7.59378757515E+10	1.76112206889E-01	-4.37548807494E+01	6.19256349446E-05	-1.45493649543E+02	4.87971345244E-05	-9.53095969035E+01	2.24076134207E-01	-7.43648639172E+01
7.59438877756E+10	1.79124423456E-01	-4.34091813835E+01	1.14379368994E-04	-8.18672241618E+01	3.59178063726E-05	6.70965351193E+00	2.24801842029E-01	-7.48349247690E+01
7.59498997996E+10	1.77765406536E-01	-4.15511992282E+01	8.84534199338E-05	-1.19556408653E+02	6.55752146911E-05	-1.02943735955E+02	2.25543877413E-01	-7.67876624509E+01
7.59559118236E+10	1.77646085101E-01	-4.23805261119E+01	1.38841134847E-04	-1.70333619447E+02	1.28145305982E-04	-1.63470866855E+02	2.24671661417E-01	-7.64945108406E+01
7.59619238477E+10	1.77460069867E-01	-4.49549950675E+01	1.18290246880E-04	1.30294096584E+02	7.53667695098E-05	1.23906560197E+02	2.20127213867E-01	-7.45545824127E+01
7.59679358717E+10	1.76048072922E-01	-4.27101170808E+01	3.00745913310E-05	-1.70897793799E+02	7.48963333603E-05	-1.45141346966E+02	2.22360538620E-01	-7.72101410175E+01
7.59739478958E+10	1.78626549488E-01	-4.35055563073E+01	5.99492479002E-05	1.69241545288E+02	6.20455885258E-05	1.14313726806E+02	2.22569612811E-01	-7.71089959514E+01
7.59799599198E+10	1.79384230966E-01	-4.50681655116E+01	1.15864283407E-04	1.37693653902E+02	2.54516196568E-05	9.32181779962E+01	2.21965824268E-01	-7.62498176389E+01
7.59859719439E+10	1.73410460454E-01	-4.32555878035E+01	3.54484437278E-05	1.18121897731E+02	1.01598507446E-04	1.32356775980E+02	2.20555236459E-01	-7.73010181796E+01
7.59919839679E+10	1.78079126074E-01	-4.57594145848E+01	4.00547086862E-05	4.57080953709E+01	4.09925170971E-06	-1.26513275284E+02	2.22955524419E-01	-7.85559646344E+01
7.59979959920E+10	1.79188819040E-01	-4.59773904622E+01	8.72274815244E-05	-1.66563839567E+02	4.57275468844E-05	6.06743190117E+01	2.19641566248E-01	-7.85417468101E+01
7.60040080160E+10	1.76513808676E-01	-4.56993177756E+01	1.24351127746E-05	-1.73020399745E+02	5.92633218454E-05	1.13302857141E+02	2.23676032779E-01	-8.02733108440E+01
7.60100200401E+10	1.77273896762E-01	-4.69443210467E+01	4.98771469653E-05	1.23954734932E+02	9.19619978295E-05	1.03295773879E+02	2.16179159967E-01	-7.72547945100E+01
7.60160320641E+10	1.73496624760E-01	-4.36493768601E+01	5.56581740277E-05	1.09406442599E+02	4.02816456455E-05	-1.71823891346E+02	2.21181712371E-01	-7.96211085717E+01
7.60220440882E+10	1.74771666977E-01	-4.57913072120E+01	6.25907035537E-05	-1.77739872503E+02	7.73035743086E-05	1.09460845710E+02	2.20368252222E-01	-7.95805370666E+01
7.60280561122E+10	1.75582219172E-01	-4.53873632873E+01	3.48339012498E-05	9.49247754195E+01	5.60789875731E-05	8.19324582703E+01	2.14899745661E-01	-7.87741186314E+01
7.60340681363E+10	1.75057948880E-01	-4.52812800816E+01	7.90240689837E-05	1.20242285703E+02	5.88521431459E-05	1.22351928878E+02	2.13919028605E-01	-7.92242106785E+01
7.60400801603E+10	1.74651797573E-01	-4.57774740975E+01	8.92719632839E-05	6.98753617657E+01	8.73011609943E-05	1.04664215607E+02	2.19307358570E-01	-8.20702609340E+01
7.60460921844E+10	1.74408896907E-01	-4.60359954817E+01	8.99578804674E-05	8.40729294663E+01	4.81721057555E-05	3.43208397494E+01	2.17753978501E-01	-8.13670752766E+01
7.60521042084E+10	1.72389219312E-01	-4.54833028684E+01	9.04036933193E-05	5.32312429546E+01	1.23905288797E-04	5.82580786057E+01	2.15450308786E-01	-8.04111226094E+01
7.60581162325E+10	1.73605860091E-01	-4.66508109450E+01	7.21809999966E-05	2.35384889159E+01	7.59729624862E-05	1.59106466583E+01	2.16419709936E-01	-8.13109554158E+01
7.60641282565E+10	1.75000228042E-01	-4.67036711649E+01	3.35432987973E-05	4.37144223536E+01	7.37449622929E-05	3.08182416026E+01	2.14053115017E-01	-8.16409592777E+01
7.60701402806E+10	1.71996276037E-01	-4.54754170629E+01	1.03283587018E-04	-7.26350891849E+00	9.87453141182E-05	1.20554428592E+01	2.13504730083E-01	-8.13920283637E+01
7.60761523046E+10	1.73372945834E-01	-4.78482694620E+01	7.54006124047E-05	-5.96920617047E+01	9.10906063066E-06	1.75717529860E+02	2.10708834800E-01	-8.00964526257E+01
7.60821643287E+10	1.73574263101E-01	-4.45911722333E+01	6.83213306281E-05	-7.01909492613E+01	5.96124224076E-05	4.63945579338E+00	2.11654732831E-01	-8.14698316350E+01
7.60881763527E+10	1.73924700471E-01	-4.63895347369E+01	1.22894922814E-04	-6.94960161261E+01	4.89873101549E-05	-5.19443095002E+01	2.15308477660E-01	-8.40749618178E+01
7.60941883768E+10	1.71391169351E-01	-4.73491004327E+01	2.35196754254E-05	-4.38665007948E+01	1.04198809544E-05	-1.03398776463E+02	2.10329680489E-01	-8.23703671111E+01
7.61002004008E+10	1.72482911354E-01	-4.77607614913E+01	5.79443495157E-05	4.57400499279E+01	4.50619192067E-05	-1.36737580628E+02	2.09953478393E-01	-8.23790397742E+01
7.61062124248E+10	1.75105903970E-01	-4.86715093619E+01	3.21879055534E-05	-1.44043562135E+02	7.76430371403E-05	-4.56339346511E+01	2.08797295855E-01	-8.21184939338E+01
7.61122244489E+10	1.71350265380E-01	-4.85489906141E+01	6.15713657513E-05	1.26810108829E+02	4.27176354984E-05	-9.00114611006E+01	2.10084864020E-01	-8.40661361599E+01
7.61182364729E+10	1.73997284439E-01	-4.77164528685E+01	2.66834968392E-05	-1.30617514828E+02	4.62644465504E-05	-4.25668142014E+01	2.12082612874E-01	-8.55240350190E+01
7.61242484970E+10	1.70469118389E-01	-4.81638109232E+01	4.99899725100E-05	6.98460280907E+01	4.47037623829E-05	1.12995648689E+02	2.10864910535E-01	-8.54347688711E+01
7.61302605210E+10	1.71133239990E-01	-4.75755318353E+01	7.00743564886E-05	2.67148652590E+01	6.31791205243E-05	2.56875839521E+01	2.06686632055E-01	-8.33916406257E+01
7.61362725451E+10	1.70026982465E-01	-4.67146877942E+01	5.94566046330E-05	1.42311234642E+01	1.07495570025E-04	9.99778381526E+00	2.06042647616E-01	-8.41918257129E+01
7.61422845691E+10	1.73278475711E-01	-4.99906655585E+01	4.87398631676E-05	-2.59939979751E+01	3.35517262035E-05	1.42150276391E+01	2.06606433628E-01	-8.51583228163E+01
7.61482965932E+10	1.69334245807E-01	-4.99745648603E+01	1.19830323774E-04	-6.14486250516E+01	1.31864799882E-04	1.06852242358E+01	2.10431514634E-01	-8.69551794581E+01
7.61543086172E+10	1.73736375248E-01	-5.03309089732E+01	5.06057604897E-05	-9.81911650191E+01	1.40197741124E-04	-6.57432829056E+01	2.08352133906E-01	-8.62317224911E+01
7.61603206413E+10	1.69989549616E-01	-4.81032517988E+01	1.03191702676E-04	-9.80755036500E+01	3.75861353818E-05	-6.03563356522E+01	2.08954105628E-01	-8.70496807970E+01
7.61663326653E+10	1.69386846761E-01	-4.75992745526E+01	7.11037282764E-05	1.64088063639E+02	4.56321661428E-05	-5.76534913700E+01	2.04693171470E-01	-8.57081218525E+01
7.61723446894E+10	1.72475170558E-01	-5.05141784618E+01	4.53209233746E-05	-3.43402917729E+01	4.64754052887E-05	-1.21643140786E+02	2.05658513525E-01	-8.68749405592E+01
7.61783567134E+10	1.72325800531E-01	-5.08944790388E+01	1.43461251881E-05	1.69729658952E+02	5.65899254170E-05	-1.77415410232E+02	2.06820457478E-01	-8.78561334900E+01
7.61843687375E+10	1.69586474694E-01	-5.03812740287E+01	7.71538569050E-05	-7.53085416629E+01	1.65075523595E-05	-5.81233943897E+01	2.06154978380E-01	-8.86573631452E+01
7.61903807615E+10	1.70118165450E-01	-4.93416171080E+01	3.20594647741E-05	1.40541231138E+01	3.04060260371E-05	-6.41010129646E+00	2.02990101164E-01	-8.72236259498E+01
7.61963927856E+10	1.70562966435E-01	-4.81741414896E+01	6.79302024702E-05	3.35575287169E+01	6.49590342364E-05	6.60460993853E+01	2.01879395135E-01	-8.70125578152E+01
7.62024048096E+10	1.68147851731E-01	-5.12138888775E+01	3.10654706981E-05	1.46625567661E+02	3.14442865666E-05	9.25220650144E+01	2.02574503290E-01	-8.75883580684E+01
7.62084168337E+10	1.68400551428E-01	-5.06634952990E+01	2.57439246141E-05	9.24478820178E-01	2.43980034251E-05	-2.98091467947E+01	2.02851383396E-01	-8.87878404215E+01
7.62144288577E+10	1.69440964299E-01	-5.10669735360E+01	2.15305732118E-05	7.91561311839E+00	5.75657506194E-05	-1.81471417688E+01	2.01906530454E-01	-8.82514478867E+01
7.62204408818E+10	1.70477350502E-01	-5.20201715822E+01	5.61567797675E-05	7.55544813869E+00	6.48170667593E-05	-2.40909963999E+01	2.02344320694E-01	-8.92426630435E+01
7.62264529058E+10	1.69784142574E-01	-5.23130956425E+01	1.16382641329E-04	-2.20679007566E+01	6.00469046113E-05	-1.17433815441E+02	2.00919507271E-01	-8.93327263979E+01
7.62324649299E+10	1.68355876747E-01	-5.14101898766E+01	8.04611020844E-05	-6.14549663423E+01	1.52478191084E-04	-7.46028025472E+01	2.01641729346E-01	-8.98107410014E+01
7.62384769539E+10	1.67479386205E-01	-5.01092129920E+01	2.45730611008E-05	-3.90960466566E+01	1.10312113445E-04	-1.20362501022E+02	2.00629234173E-01	-9.05687456012E+01
7.62444889780E+10	1.66828649363E-01	-5.05344115047E+01	4.54983343988E-05	1.44375657875E+02	8.53572818685E-05	-1.52269549276E+02	1.98942173166E-01	-9.00207545677E+01
7.62505010020E+10	1.69120783371E-01	-5.09349937638E+01	6.80988917967E-05	-1.49809461707E+02	9.02378659881E-05	-1.71878824113E+02	1.99086990258E-01	-9.04346159432E+01
7.62565130261E+10	1.68896239877E-01	-5.25242390841E+01	5.59781070464E-05	5.62352216128E+01	2.21677396227E-05	-1.76269873015E+02	1.98029795806E-01	-9.07694200490E+01
7.62625250501E+10	1.68372209789E-01	-5.38156181132E+01	8.63879549981E-05	1.19888008317E+02	6.40057189953E-05	-1.47004864023E+02	2.00718357507E-01	-9.15067343764E+01
7.62685370741E+10	1.68152127908E-01	-5.30398466569E+01	7.90841521687E-05	8.85339603285E+01	7.15813129050E-05	1.25480705105E+02	1.96012964413E-01	-9.05346530174E+01
7.62745490982E+10	1.66913844514E-01	-5.12568450089E+01	7.21601537647E-05	-4.86021834559E+00	4.78482543154E-05	-4.61291959533E+01	1.99570153969E-01	-9.20914806450E+01
7.62805611222E+10	1.69273756181E-01	-5.21094550363E+01	4.92089915316E-05	-6.28668712394E+01	9.39091225253E-05	-5.19377159683E+01	1.98560913223E-01	-9.30277931860E+01
7.62865731463E+10	1.68742612666E-01	-5.20899137528E+01	1.20468048395E-04	-4.32118328253E+01	8.02086253065E-05	-1.10610883716E+02	1.97794027290E-01	-9.31133443627E+01
7.62925851703E+10	1.66435157143E-01	-5.17369527040E+01	4.15492452102E-05	-1.53537458171E+02	6.74257546353E-05	-3.79151032177E+01	1.96371408325E-01	-9.27345888308E+01
7.62985971944E+10	1.68599306707E-01	-5.29844558933E+01	5.50522650564E-05	-1.59882666793E+02	3.23260083261E-05	-1.03690564572E+02	1.95049694131E-01	-9.23642540220E+01
7.63046092184E+10	1.67120174879E-01	-5.44360140872E+01	4.88578974462E-05	-9.55963561863E+01	6.82034160398E-05	-1.25030789729E+02	1.94320151373E-01	-9.24430721571E+01
7.63106212425E+10	1.67578245521E-01	-5.41666380899E+01	5.06883850270E-05	-9.81386774128E+01	5.79205045625E-05	-7.18642919411E+01	1.96146356615E-01	-9.41717678591E+01
7.63166332665E+10	1.65718861466E-01	-5.42283573090E+01	8.05864170738E-05	-1.50675618878E+02	6.13070796665E-05	-1.48517913808E+02	1.95965642683E-01	-9.48302654024E+01
7.63226452906E+10	1.68950276729E-01	-5.29350915036E+01	6.17877190478E-05	-1.67882318280E+02	1.13317604492E-04	-1.56221259734E+02	1.95122468149E-01	-9.48977366539E+01
7.63286573146E+10	1.64320479272E-01	-5.00066604239E+01	1.69951518664E-05	1.69567493351E+02	4.69773003935E-05	-1.56965978155E+02	1.91632861453E-01	-9.34733903640E+01
7.63346693387E+10	1.65253561481E-01	-5.49190693390E+01	4.48151884034E-05	1.46134777176E+02	7.85369827392E-05	1.49203435706E+02	1.94811843843E-01	-9.51283032660E+01
7.63406813627E+10	1.64855969108E-01	-5.25557477731E+01	2.41218013829E-05	-8.99208786270E+01	2.93521933234E-05	-1.42953272738E+02	1.92184474511E-01	-9.55455231250E+01
7.63466933868E+10	1.68511325199E-01	-5.45607051986E+01	2.86852494404E-05	3.46263320292E+01	6.47571838994E-05	1.27488895547E+02	1.92449991150E-01	-9.58575351519E+01
7.63527054108E+10	1.65376948932E-01	-5.42429170728E+01	4.04741173819E-05	9.00198439602E+01	7.41094729261E-05	1.55471771856E+02	1.93974075629E-01	-9.66568497589E+01
7.63587174349E+10	1.64643484748E-01	-5.35536055670E+01	9.52011207878E-05	1.44333411292E+02	5.91022692874E-05	6.48674114887E+01	1.92747528010E-01	-9.62045593869E+01
7.63647294589E+10	1.66174843612E-01	-5.37731189893E+01	7.21139224689E-05	-1.42095538726E+02	8.98334226657E-05	-1.36348063738E+02	1.90493713150E-01	-9.59975070884E+01
7.63707414830E+10	1.66397671411E-01	-5.43037264617E+01	7.04831303392E-05	1.24490448571E+02	5.33475920958E-05	1.44764778923E+02	1.89556957272E-01	-9.68945203688E+01
7.63767535070E+10	1.66172919673E-01	-5.46584525284E+01	5.13211923043E-05	1.22426717437E+02	2.71196602728E-05	-2.66885626957E+01	1.92039941640E-01	-9.79135700422E+01
7.63827655311E+10	1.65645027906E-01	-5.54454155763E+01	4.19689489559E-05	1.47648882471E+02	6.07062990009E-05	1.64836372620E+02	1.91012360519E-01	-9.80863689092E+01
7.63887775551E+10	1.66350362080E-01	-5.57230604940E+01	9.91421355180E-05	-1.41644175009E+02	3.67663606197E-05	1.01200354833E+02	1.87783939693E-01	-9.66094526888E+01
7.63947895792E+10	1.64356385728E-01	-5.34760092798E+01	3.09753821860E-05	8.09679553413E+01	5.69792080044E-05	1.62666812321E+02	1.89552157187E-01	-9.81007055036E+01
7.64008016032E+10	1.62406180475E-01	-5.55259951340E+01	5.92603770341E-05	-1.39444414507E+02	9.31620955007E-05	1.34764315849E+02	1.88667273253E-01	-9.90829519679E+01
7.64068136273E+10	1.66421916150E-01	-5.46863239880E+01	4.64370807640E-05	1.38334278317E+02	1.34817547803E-04	1.02007796021E+02	1.87231511136E-01	-9.91327409234E+01
7.64128256513E+10	1.65658127735E-01	-5.67783085162E+01	8.68871441188E-05	7.27920097195E+01	1.12710647177E-04	7.28259051448E+01	1.87444397481E-01	-9.96340188568E+01
7.64188376754E+10	1.64316318663E-01	-5.57230087215E+01	3.70173832650E-05	1.63971487239E+02	1.37359720970E-04	1.04627427666E+02	1.87378847149E-01	-9.94044874123E+01
7.64248496994E+10	1.63869122191E-01	-5.66922108385E+01	2.88583674914E-06	-1.27151169630E+01	1.14694894071E-04	4.99179760105E+01	1.85252909015E-01	-9.99083735812E+01
7.64308617234E+10	1.65299446594E-01	-5.73006921961E+01	7.82518184933E-05	1.68414921480E+02	1.33749257117E-04	6.08344542893E+01	1.84366178914E-01	-9.97324262783E+01
7.64368737475E+10	1.64392377498E-01	-5.62588320905E+01	4.21556478747E-05	8.48515403707E+01	4.83540790102E-05	3.60507636264E+01	1.86816438042E-01	-1.01044644036E+02
7.64428857715E+10	1.64704070637E-01	-5.67181642041E+01	4.04013452129E-05	2.08581178496E+01	9.14260100716E-05	6.00164254893E+01	1.83970757901E-01	-9.98513466258E+01
7.64488977956E+10	1.63044717064E-01	-5.66243500415E+01	4.58115360073E-05	3.61553102683E+00	1.23754476181E-04	7.84295066043E+01	1.84532995650E-01	-1.00964399964E+02
7.64549098196E+10	1.61006337401E-01	-5.55047154831E+01	9.17501157151E-05	3.77053838735E+01	6.40310783941E-05	1.84937681232E+01	1.83136204584E-01	-1.00408619912E+02
7.64609218437E+10	1.62319166188E-01	-5.70032251531E+01	3.16558186131E-06	6.94199451445E+01	1.28642799313E-04	2.48001936750E+00	1.82852326875E-01	-1.01407142008E+02
7.64669338677E+10	1.62071073692E-01	-5.62240783286E+01	5.70736542340E-05	5.28373009732E+01	8.78676652218E-05	2.86294361693E+01	1.84543036884E-01	-1.03760582552E+02
7.64729458918E+10	1.64189963942E-01	-5.72063655099E+01	3.60272600625E-05	-2.72195907950E+01	5.65699958277E-05	-5.15832284012E+01	1.84857011139E-01	-1.03822451176E+02
7.64789579158E+10	1.65838552092E-01	-5.87192280339E+01	7.71211852100E-05	3.93418007097E+01	2.28443084738E-05	-1.03948592538E+01	1.82829154747E-01	-1.03541115040E+02
7.64849699399E+10	1.66030823359E-01	-5.86207420994E+01	9.68714285341E-05	2.56727098649E+01	4.61137001159E-05	-3.08363724715E+01	1.82625337562E-01	-1.03849413233E+02
7.64909819639E+10	1.63345752354E-01	-5.80289537505E+01	3.02550662950E-05	7.24885928028E+00	1.04281951982E-04	5.00808003299E+01	1.81134787001E-01	-1.04005281625E+02
7.64969939880E+10	1.64151201590E-01	-5.91655479432E+01	1.53785810978E-04	1.80246682945E+01	1.88727601632E-05	-1.36682228069E+01	1.81000980228E-01	-1.05153889658E+02
7.65030060120E+10	1.61916884123E-01	-5.84576914889E+01	8.10759620377E-05	1.06294498108E+01	2.30853305406E-05	-2.83900729756E+01	1.78386880619E-01	-1.03891131312E+02
7.65090180361E+10	1.63568073679E-01	-5.82424163290E+01	6.36694858927E-05	-3.73762673988E+00	4.66487883298E-05	-8.24075108391E+01	1.77800933373E-01	-1.04319557565E+02
7.65150300601E+10	1.63029434740E-01	-5.89205329141E+01	2.61585255767E-05	1.45982372075E+02	4.82147886266E-05	1.95531297683E+01	1.77556510795E-01	-1.05056666481E+02
7.65210420842E+10	1.62155909859E-01	-6.00903888279E+01	8.87089532509E-05	8.55300836469E+01	7.14820321293E-05	-1.11184253333E+02	1.78814684697E-01	-1.06247552968E+02
7.65270541082E+10	1.59596931582E-01	-5.74337128638E+01	5.20667369380E-05	3.91428177712E+01	6.94335061661E-05	-9.64952166003E+01	1.77375256757E-01	-1.05493188193E+02
7.65330661323E+10	1.63434390146E-01	-5.98235305526E+01	2.90244999158E-05	1.02102119551E+01	2.84705570607E-05	1.10606833422E+02	1.77340768530E-01	-1.06459964580E+02
7.65390781563E+10	1.63262712973E-01	-5.98669213367E+01	8.54049270655E-05	-4.15554785288E+01	6.52055051293E-05	-8.84821497058E+01	1.76077451343E-01	-1.07327547939E+02
7.65450901804E+10	1.64995684795E-01	-6.00500170617E+01	1.39963535987E-04	-1.02550540121E+01	5.58481608474E-05	-7.66727744420E+01	1.75598517677E-01	-1.07923698311E+02
7.65511022044E+10	1.59925474548E-01	-5.64577033557E+01	3.46606254863E-05	-6.96414822648E+01	6.56502866777E-05	-6.69785083550E+01	1.73800488275E-01	-1.07290503015E+02
7.65571142285E+10	1.60708622522E-01	-5.80487566334E+01	1.22549100460E-04	-9.06590665726E+01	3.07835235249E-05	-9.86524098295E+01	1.73709562491E-01	-1.07341936488E+02
7.65631262525E+10	1.64267662089E-01	-6.17178213395E+01	5.16128178060E-05	-9.18311331703E+01	9.45975228516E-05	6.90717292255E+01	1.75812251374E-01	-1.09834047348E+02
7.65691382766E+10	1.63890748877E-01	-6.16452534469E+01	5.77107909687E-05	-1.04023234698E+02	8.37596218397E-05	1.41760193018E+02	1.73446972631E-01	-1.10102388424E+02
7.65751503006E+10	1.63499272144E-01	-6.15496552854E+01	9.26474306694E-05	1.68080785625E+02	1.96238392313E-05	-7.98387523935E+00	1.72845250333E-01	-1.09278745255E+02
7.65811623246E+10	1.62042889936E-01	-6.06890865143E+01	2.94195435704E-05	-9.78626944160E+01	2.84690758518E-05	-4.25423116281E+01	1.70523254807E-01	-1.08342645717E+02
7.65871743487E+10	1.60850098849E-01	-6.00235356954E+01	4.55382440205E-05	-4.92133039409E+01	5.56141658942E-05	-1.32442577795E+02	1.72641915778E-01	-1.11671616556E+02
7.65931863727E+10	1.60687562327E-01	-5.97214997402E+01	5.15689412232E-05	-1.24647538430E+02	3.64388544711E-05	1.59007906019E+02	1.71521094693E-01	-1.11651952483E+02
7.65991983968E+10	1.60809790028E-01	-5.93494087934E+01	4.57183871820E-05	-1.55012365961E+02	4.26300034591E-05	-1.39933332803E+02	1.69480265914E-01	-1.10390767482E+02
7.66052104208E+10	1.62110416838E-01	-6.23059471187E+01	2.90736647666E-05	1.36361329744E+02	3.62803520951E-05	-1.51460890823E+02	1.67494111175E-01	-1.10630261644E+02
7.66112224449E+10	1.60544179233E-01	-6.22926210694E+01	5.64736690320E-05	-1.65189065529E+02	7.55340563396E-05	-8.60576534943E+01	1.68978634000E-01	-1.12261566258E+02
7.66172344689E+10	1.60679178323E-01	-6.08386750547E+01	3.16919361989E-05	-1.40456416477E+02	6.27941846448E-05	-1.24691411514E+02	1.69278849330E-01	-1.13316538487E+02
7.66232464930E+10	1.60571101333E-01	-6.08762875607E+01	4.22270519885E-05	1.49130961483E+02	4.02672818471E-05	-5.18291471550E+01	1.68130000187E-01	-1.13221441505E+02
7.66292585170E+10	1.60916001208E-01	-6.10401205800E+01	3.20873781808E-05	4.15344363165E+01	3.70084923119E-05	-6.95245584090E+01	1.65883827165E-01	-1.13040158107E+02
7.66352705411E+10	1.60689311471E-01	-6.15754713720E+01	1.15273040747E-04	1.68751956626E+02	3.87116324668E-05	-6.61877390142E+01	1.64147828773E-01	-1.12571045722E+02
7.66412825651E+10	1.61698636640E-01	-6.29450262277E+01	9.15219836617E-05	-1.62361053910E+02	1.00465595413E-04	1.62905376869E+02	1.64206144185E-01	-1.13916554087E+02
7.66472945892E+10	1.59893646420E-01	-6.16587939223E+01	1.52681734430E-04	1.33578847856E+02	8.84181454481E-05	1.11311379369E+02	1.64589659220E-01	-1.14533642704E+02
7.66533066132E+10	1.62651868841E-01	-6.35756626347E+01	6.85053359377E-05	6.60466259116E+01	5.40689524238E-05	4.00783125260E+01	1.63998314481E-01	-1.14444660709E+02
7.66593186373E+10	1.60238192651E-01	-6.32815168483E+01	2.92574962488E-05	-1.34600690387E+02	3.75755436113E-05	5.25294308943E+01	1.62805335613E-01	-1.15244486591E+02
7.66653306613E+10	1.61672027992E-01	-6.37396970296E+01	7.51545702513E-05	5.98645089464E+01	6.63144903776E-05	-5.96706947292E+01	1.62413331003E-01	-1.15645873796E+02
7.66713426854E+10	1.58409493088E-01	-6.07143695916E+01	3.04345818171E-05	5.88205683861E+01	2.78043992355E-05	3.72793217689E+01	1.60236976165E-01	-1.15545901961E+02
7.66773547094E+10	1.61047617532E-01	-6.30815009772E+01	6.77672827251E-05	2.50135769185E+01	5.61027382183E-05	-8.53063723709E+01	1.59681846021E-01	-1.17314679906E+02
7.66833667335E+10	1.59732272004E-01	-6.28985706373E+01	6.50352115931E-05	1.38428416408E+01	8.25276357486E-05	-1.77716041038E+02	1.61359061267E-01	-1.17658135622E+02
7.66893787575E+10	1.60327131419E-01	-6.52777908899E+01	9.89502173600E-05	5.08114718670E+01	5.78519270339E-05	1.50123006387E+02	1.58541107228E-01	-1.15727559069E+02
7.66953907816E+10	1.61574476345E-01	-6.54524261476E+01	8.06472623709E-05	-9.15554800479E+00	2.91182441754E-05	4.50181031188E+01	1.59064155204E-01	-1.17824590344E+02
7.67014028056E+10	1.59568087862E-01	-6.30737445832E+01	3.05000656464E-05	1.03738629875E+01	7.45464236457E-05	-1.02747816596E+02	1.57981663041E-01	-1.18258290715E+02
7.67074148297E+10	1.59170674490E-01	-6.36906838019E+01	1.69666953101E-05	9.92248285111E+01	5.99065312331E-05	1.04213971972E+02	1.56805474164E-01	-1.17723120893E+02
7.67134268537E+10	1.58432851227E-01	-6.43426868952E+01	3.78790168320E-05	-4.45563835369E+01	1.95816710677E-05	5.28380296336E+01	1.54870384116E-01	-1.18197250535E+02
7.67194388778E+10	1.60688801794E-01	-6.58921056252E+01	8.85065784310E-05	-4.84551797097E+01	1.04890766651E-04	-4.71771168962E+01	1.54652878254E-01	-1.19337652918E+02
7.67254509018E+10	1.62104364221E-01	-6.72157758095E+01	8.82589768971E-05	-6.99273285360E+01	1.20194714198E-04	-7.48894141487E+01	1.54231177470E-01	-1.19218397366E+02
7.67314629259E+10	1.59536164803E-01	-6.62736748211E+01	4.48403263718E-05	-4.45294846985E+01	6.16684212374E-05	1.74661123034E+02	1.53618098936E-01	-1.18782873714E+02
7.67374749499E+10	1.58265981647E-01	-6.37849013010E+01	8.00317050627E-05	1.69229255786E+02	3.75376747577E-05	5.21516417477E+01	1.51199714747E-01	-1.19702744569E+02
7.67434869739E+10	1.60851627455E-01	-6.56368451290E+01	5.99992249001E-05	-1.88187850681E+01	1.20265171681E-05	1.45165680727E+02	1.50819559749E-01	-1.20682840987E+02
7.67494989980E+10	1.59826262825E-01	-6.62328471718E+01	8.40511876249E-05	-4.24445301138E+01	5.97240337883E-05	1.43057195398E+00	1.51395766654E-01	-1.22474326803E+02
7.67555110220E+10	1.54929795298E-01	-6.47771089681E+01	5.10770520188E-05	-6.88173468728E+01	5.62352247041E-06	5.83774803556E+01	1.50138815011E-01	-1.20628401433E+02
7.67615230461E+10	1.57727566678E-01	-6.64570691316E+01	3.96129394970E-05	-9.81020707684E+01	3.04465573773E-05	-1.00433161240E+02	1.48999904361E-01	-1.21413735600E+02
7.67675350701E+10	1.56666790168E-01	-6.56994766409E+01	4.03332974033E-05	-6.57047111422E+01	8.81117276175E-05	8.67736019789E+01	1.47571792244E-01	-1.22231998633E+02
7.67735470942E+10	1.57381803129E-01	-6.56345236976E+01	3.80296691220E-05	-9.16110293360E+01	3.19660497375E-05	-4.27591513541E+01	1.46916846735E-01	-1.21368079414E+02
7.67795591182E+10	1.58679305627E-01	-6.62020553772E+01	6.75937831501E-05	1.68272338681E+02	2.72001639334E-05	-1.44694648349E+02	1.46727554142E-01	-1.22275945748E+02
7.67855711423E+10	1.59589183504E-01	-6.69191186002E+01	5.40796602216E-05	1.67462371167E+02	3.77635692355E-05	1.21752121151E+01	1.45268931635E-01	-1.22434059268E+02
7.67915831663E+10	1.58293572173E-01	-6.88761606385E+01	7.04066119328E-05	1.59403599307E+02	5.92349868166E-05	9.94823298120E+01	1.46084255246E-01	-1.24416346065E+02
7.67975951904E+10	1.59204154380E-01	-6.78988985588E+01	4.96526172587E-05	-1.42373785763E+02	2.57658468583E-05	5.62317755890E+01	1.44782135352E-01	-1.24941391871E+02
7.68036072144E+10	1.56311050841E-01	-6.84347407455E+01	5.49184085276E-05	-5.17857801295E+01	1.81801764002E-05	-9.97315362151E+01	1.43198237002E-01	-1.23405125345E+02
7.68096192385E+10	1.57411228157E-01	-6.76350857328E+01	4.34689070136E-05	-1.63768607502E+02	3.08317493883E-05	-1.30794220615E+02	1.43015826236E-01	-1.25075817934E+02
7.68156312625E+10	1.55989206313E-01	-6.66821416383E+01	9.22602715054E-06	-2.38106898840E+01	2.46030986718E-05	8.95180959137E+01	1.42042826125E-01	-1.26322498268E+02
7.68216432866E+10	1.55517644778E-01	-6.68266045826E+01	8.46722811398E-05	-1.59618038904E+02	4.44668115705E-05	-9.06013026023E+01	1.39368603393E-01	-1.24571583015E+02
7.68276553106E+10	1.54208335031E-01	-6.68581002333E+01	2.89407986388E-05	-1.37697613496E+02	6.54676289846E-05	1.45970830977E+01	1.39165815247E-01	-1.24553687933E+02
7.68336673347E+10	1.56738516531E-01	-6.84903745102E+01	7.22729449165E-05	6.29601515607E+01	3.57899714079E-05	1.69358635767E+02	1.39442053219E-01	-1.26102725118E+02
7.68396793587E+10	1.56688139185E-01	-6.72077687869E+01	4.25169856252E-05	9.78813649248E+01	4.94743871965E-05	-6.30477270282E+01	1.38728087621E-01	-1.27978635556E+02
7.68456913828E+10	1.57635108573E-01	-6.84829184733E+01	2.10859379440E-05	9.13528512586E+01	9.88165136593E-05	-5.65133454563E+01	1.38181800898E-01	-1.28568584517E+02
7.68517034068E+10	1.58415092920E-01	-6.94200571036E+01	6.93075824092E-05	-1.92721271648E+01	6.18292764511E-05	-6.17565199309E+01	1.35373020410E-01	-1.25452646465E+02
7.68577154309E+10	1.55659999957E-01	-7.02394661619E+01	3.87092985694E-05	-1.17251725272E+02	5.15661394136E-05	-1.24481443069E+02	1.36388022903E-01	-1.27507362608E+02
7.68637274549E+10	1.58451110514E-01	-6.99290948626E+01	9.53024944029E-05	8.85672285942E+01	3.22864100094E-05	-2.06799386572E+01	1.35211004048E-01	-1.27246124666E+02
7.68697394790E+10	1.54369775584E-01	-6.77129849843E+01	7.33325584341E-05	-1.11339930086E+02	9.60947930083E-05	-1.00046290071E+02	1.34917184916E-01	-1.28035395840E+02
7.68757515030E+10	1.56037254213E-01	-6.87118215446E+01	5.61729458180E-05	5.22347515186E+01	4.14594758709E-05	1.29996495979E+02	1.32903471933E-01	-1.28342569483E+02
7.68817635271E+10	1.57225041564E-01	-6.89511163974E+01	5.49243219392E-05	3.96489601869E+01	6.66107353840E-05	-1.58218014465E+02	1.31668304453E-01	-1.29666253062E+02
7.68877755511E+10	1.56587975867E-01	-7.01402413424E+01	7.36407057011E-05	1.57796372740E+01	5.89446779834E-05	-1.47884007580E+02	1.31656246124E-01	-1.30464598037E+02
7.68937875752E+10	1.56502875278E-01	-6.92965253902E+01	6.32922951305E-05	1.33161939614E+01	2.98603248864E-05	1.71555394275E+02	1.30007900858E-01	-1.28030133947E+02
7.68997995992E+10	1.54271350843E-01	-6.96031521910E+01	8.68741053180E-05	6.54672621262E+01	2.85190153785E-05	-1.05927855629E+02	1.30616194494E-01	-1.30949849925E+02
7.69058116232E+10	1.56627755011E-01	-7.09373086743E+01	9.44780565927E-05	1.72720466486E+00	4.79591035754E-05	-1.48363239951E+02	1.29665322563E-01	-1.31918124266E+02
7.69118236473E+10	1.54189120494E-01	-7.07351410859E+01	9.96250576871E-05	-4.90671321417E+01	6.94741124416E-05	-1.73927808972E+02	1.28678906194E-01	-1.31968917408E+02
7.69178356713E+10	1.56697265901E-01	-7.13730498727E+01	4.69383705326E-05	-1.28240079345E+02	9.08258733684E-05	-1.46689054043E+02	1.27216359605E-01	-1.31990917597E+02
7.69238476954E+10	1.55465543404E-01	-7.10779760164E+01	9.42117591257E-05	-6.91745156735E+01	1.18815625233E-04	-1.64753603056E+02	1.26155431376E-01	-1.30361733552E+02
7.69298597194E+10	1.58753311604E-01	-7.25686074090E+01	5.89529187196E-05	-1.41295912502E+02	4.55824295652E-05	1.45508229738E+02	1.26483352185E-01	-1.33818829414E+02
7.69358717435E+10	1.54479166137E-01	-7.21379132054E+01	7.80193075577E-05	-9.99250535527E+01	1.16455720860E-04	1.68111289887E+02	1.26026337920E-01	-1.33491773461E+02
7.69418837675E+10	1.53747132904E-01	-7.15600432425E+01	4.06875432197E-05	8.62758193908E+01	1.11614181271E-04	1.27521047598E+02	1.23376956110E-01	-1.32720576183E+02
7.69478957916E+10	1.56341120505E-01	-7.19038227526E+01	7.21934739261E-06	-1.68386899057E+01	7.30496769044E-05	1.32312323049E+02	1.22039833823E-01	-1.32196747190E+02
7.69539078156E+10	1.54496002836E-01	-7.13891452650E+01	4.80191744147E-05	-2.70410023778E+01	1.17219035186E-04	1.14857001404E+02	1.22313312096E-01	-1.32512411962E+02
7.69599198397E+10	1.52962996992E-01	-7.13326767277E+01	6.95123171303E-05	-1.16854552014E+02	9.35840922847E-05	1.37037523931E+02	1.21209652423E-01	-1.32327429657E+02
7.69659318637E+10	1.56656107114E-01	-7.36947019681E+01	5.11326332434E-05	-1.31040423717E+02	9.48324999039E-05	7.88824660065E+01	1.20372412554E-01	-1.34958003982E+02
7.69719438878E+10	1.54089041184E-01	-7.34103964350E+01	4.01113114797E-05	1.53550010474E+02	2.91751542946E-05	1.12250912733E+02	1.20038915238E-01	-1.35254538319E+02
7.69779559118E+10	1.52545684722E-01	-7.19998226893E+01	3.07046565595E-05	-5.87312344150E+01	2.82728708770E-05	-3.44706957390E+00	1.18722180571E-01	-1.36260002349E+02
7.69839679359E+10	1.53003817043E-01	-7.33043723168E+01	4.17249752227E-05	-1.14386235751E+02	8.27390671491E-05	2.61563179721E+01	1.17045682563E-01	-1.35003845130E+02
7.69899799599E+10	1.53032360013E-01	-7.32015087523E+01	1.21765314635E-04	-1.70525262930E+02	2.80477954171E-05	-5.47416512114E+01	1.15656686030E-01	-1.34468693708E+02
7.69959919840E+10	1.52591919673E-01	-7.33906800711E+01	6.34848730511E-05	1.40323224113E+02	1.36479220566E-05	1.15659415016E+02	1.15665076745E-01	-1.35886420561E+02
7.70020040080E+10	1.53526761073E-01	-7.43917181768E+01	1.15429425360E-04	1.36263188874E+02	5.70009872620E-05	1.33839351424E+02	1.16164154795E-01	-1.37583171223E+02
7.70080160321E+10	1.52936401376E-01	-7.37697942073E+01	9.74999720006E-05	1.25246608281E+02	1.18173937434E-04	7.78261979754E+01	1.14827461487E-01	-1.37654161648E+02
7.70140280561E+10	1.54456202858E-01	-7.43129739636E+01	1.38324203214E-04	1.05137161038E+02	8.85633575872E-06	8.09111284626E+01	1.13384734328E-01	-1.36989316391E+02
7.70200400802E+10	1.54350255720E-01	-7.52460363124E+01	1.02088733348E-04	7.55377385362E+01	4.37879970221E-05	7.85765348033E+01	1.11537971361E-01	-1.35181658029E+02
7.70260521042E+10	1.52541758841E-01	-7.59085699804E+01	5.97308800041E-05	6.53114585279E+01	1.25458927475E-04	1.40540434918E+01	1.10281886437E-01	-1.36792106162E+02
7.70320641283E+10	1.51456029753E-01	-7.45389362511E+01	4.68780692441E-05	5.07666445895E+01	4.38486046630E-05	2.63439070757E+01	1.09376505250E-01	-1.36947496213E+02
7.70380761523E+10	1.52858907756E-01	-7.48095360949E+01	1.39638119482E-04	7.25263323255E+01	8.40586991675E-05	2.81367673947E+01	1.11180681440E-01	-1.39708593727E+02
7.70440881764E+10	1.50843648709E-01	-7.54183472666E+01	7.13482818862E-05	-1.32701900652E+00	2.36082083845E-05	-2.86500767130E+01	1.08763099952E-01	-1.37987419376E+02
7.70501002004E+10	1.50805332376E-01	-7.42322896744E+01	8.92413728117E-06	-6.05651458783E+01	4.33915842395E-05	1.46023109270E+02	1.07471951661E-01	-1.38413366563E+02
7.70561122244E+10	1.54026459023E-01	-7.62050310757E+01	8.54232575300E-05	3.66254268738E+01	6.26489219590E-05	-8.43522951473E+00	1.06471645080E-01	-1.38219732098E+02
7.70621242485E+10	1.53543259934E-01	-7.68838795550E+01	5.44027100423E-05	1.92149397371E+00	1.73259775024E-05	3.93089161284E+01	1.05760964806E-01	-1.39999176404E+02
7.70681362725E+10	1.50839145356E-01	-7.59704212113E+01	5.89643915109E-05	7.04758562211E+01	9.10865701286E-05	-4.36370485370E+01	1.05383534933E-01	-1.39024313593E+02
7.70741482966E+10	1.49897678154E-01	-7.47436867186E+01	6.05013156731E-05	5.78703687227E+01	3.58175711329E-05	-2.88254460513E+01	1.05509230228E-01	-1.40865609123E+02
7.70801603206E+10	1.51205985150E-01	-7.59275529727E+01	5.03255748620E-05	-1.51112470037E+01	5.80359157319E-05	4.30291744601E+01	1.03731120399E-01	-1.40009912020E+02
7.70861723447E+10	1.50534326779E-01	-7.71129762544E+01	7.13280191424E-05	1.73679029279E+01	6.69977200295E-05	8.85690602593E+01	1.02434213860E-01	-1.39646292686E+02
7.70921843687E+10	1.49120758208E-01	-7.60428398167E+01	4.02127701780E-05	1.88510905743E+01	4.20053268504E-05	-3.83584286085E+01	1.02682930177E-01	-1.41359956635E+02
7.70981963928E+10	1.52051853692E-01	-7.63368721525E+01	8.70844181409E-05	-2.56470303406E+01	8.98420334123E-05	-4.04400613056E+00	1.01675153080E-01	-1.41902818146E+02
7.71042084168E+10	1.52044102746E-01	-7.65403637887E+01	7.18284042861E-05	-2.63944593108E+01	8.70306563959E-05	-5.17448153175E+01	1.00171873504E-01	-1.40860175305E+02
7.71102204409E+10	1.53459280933E-01	-7.80356508310E+01	1.29232922872E-04	-3.36786379774E+01	8.03877848347E-05	-2.84706861868E+01	9.87221985502E-02	-1.39967991367E+02
7.71162324649E+10	1.51324853117E-01	-7.80047179453E+01	7.10419714135E-05	-8.06905684009E+01	7.15991574591E-05	-1.03567433801E+02	9.90380432763E-02	-1.42785442530E+02
7.71222444890E+10	1.48526232680E-01	-7.82279370624E+01	5.26048120834E-05	-1.39794648998E+01	5.49079198920E-05	-8.49871587613E+01	9.90541195372E-02	-1.44206295739E+02
7.71282565130E+10	1.49193686928E-01	-7.72182632704E+01	4.51084671756E-05	-5.25510822205E+01	9.33741779777E-05	-8.44950381715E+01	9.80027750065E-02	-1.44901748485E+02
7.71342685371E+10	1.48734286919E-01	-7.65908925170E+01	1.02143756807E-04	-7.53459030690E+00	2.43346551233E-05	-6.73539557867E+00	9.51637554979E-02	-1.42049379628E+02
7.71402805611E+10	1.52774721873E-01	-7.82672497068E+01	8.43686177670E-05	-9.56545075845E+01	7.37726147736E-05	-1.70202702784E+02	9.62292187980E-02	-1.44987004041E+02
7.71462925852E+10	1.47634744809E-01	-7.82448708159E+01	6.27499163431E-05	-1.40519877914E+02	2.66948217396E-05	-7.92550546567E+01	9.54480377558E-02	-1.44829649621E+02
7.71523046092E+10	1.48453486242E-01	-7.81735866562E+01	6.19216334822E-05	-1.45766636100E+02	1.07962267115E-04	-1.18917444826E+02	9.28183005008E-02	-1.43587863044E+02
7.71583166333E+10	1.50763347237E-01	-7.80010603957E+01	5.36923540447E-05	-2.05603425450E+01	6.01014228505E-05	-5.50616991190E+01	9.26333450493E-02	-1.43726438695E+02
7.71643286573E+10	1.48960587355E-01	-7.78773379511E+01	3.71865657257E-05	-1.00627073113E+02	1.94613067848E-05	-5.69548276503E+01	9.24812767966E-02	-1.44846371883E+02
7.71703406814E+10	1.47382203722E-01	-7.83155737196E+01	1.13121020673E-04	-6.23303901751E+01	7.43853348827E-05	-9.01073056900E+01	9.05970430193E-02	-1.45247118405E+02
7.71763527054E+10	1.47311757079E-01	-7.87304390200E+01	8.32593506914E-05	-9.81639224828E+01	1.18628405574E-04	-7.06849959957E+01	9.15024759943E-02	-1.46296461408E+02
7.71823647295E+10	1.48285122478E-01	-7.94041436869E+01	8.33638782473E-05	-1.20835978926E+02	1.01870751171E-04	-7.13103755179E+01	8.89194138560E-02	-1.44424666786E+02
7.71883767535E+10	1.47577465661E-01	-7.89478776557E+01	3.36961902190E-05	-2.46880497011E+01	8.83740855089E-05	-1.49784783957E+02	8.83600648067E-02	-1.45334170086E+02
7.71943887776E+10	1.47050742260E-01	-7.98555125049E+01	1.73911308928E-05	-5.55181390974E+01	9.84890912969E-05	-1.74155777988E+02	8.81378012114E-02	-1.46292717827E+02
7.72004008016E+10	1.46298817372E-01	-7.97894171216E+01	1.81344763391E-05	1.31284556875E+02	5.19711023991E-05	1.74957261850E+02	8.87705835997E-02	-1.48794420771E+02
7.72064128257E+10	1.46827079080E-01	-7.91790237383E+01	4.50588001652E-05	-1.50807275375E+02	7.37665810533E-05	1.55686237447E+02	8.70991452030E-02	-1.48485282215E+02
7.72124248497E+10	1.45789245776E-01	-7.81927489304E+01	1.89530694508E-05	-1.12151013775E+02	5.52393339097E-05	1.61641927715E+02	8.50574451407E-02	-1.47937697115E+02
7.72184368737E+10	1.48960789292E-01	-8.24745700099E+01	1.15035896127E-04	-1.42084810469E+02	4.77644723582E-05	-1.27341643031E+02	8.40813004769E-02	-1.46877907017E+02
7.72244488978E+10	1.47535977681E-01	-7.97454853067E+01	4.47879981984E-05	1.59582345177E+02	3.26648208700E-05	-9.08419681637E+01	8.46470241535E-02	-1.48420796791E+02
7.72304609218E+10	1.46875764924E-01	-8.02414663257E+01	7.92349876111E-05	1.61081951136E+02	4.54579757708E-05	1.74393538164E+02	8.30656750324E-02	-1.47937139150E+02
7.72364729459E+10	1.47505923334E-01	-8.11546028692E+01	7.91854861272E-05	1.58371954338E+02	1.00509021510E-04	-1.69185322671E+02	8.13240833224E-02	-1.46571762677E+02
7.72424849699E+10	1.47017018416E-01	-8.06753896221E+01	3.73145198412E-05	2.48373568851E+00	5.92317921676E-05	6.58844838090E+01	8.27945351999E-02	-1.49853711000E+02
7.72484969940E+10	1.46717342547E-01	-8.15019650453E+01	1.02335372067E-04	1.18609480743E+02	3.36098779886E-05	-2.74564920693E+01	8.20882399096E-02	-1.51095146519E+02
7.72545090180E+10	1.46405083982E-01	-8.17358174095E+01	3.08895869573E-05	-1.45185534096E+02	2.79584037450E-05	1.60779200949E+02	8.11607211524E-02	-1.50921006087E+02
7.72605210421E+10	1.44956450978E-01	-8.24548313750E+01	1.05409878711E-04	-1.15314320304E+02	8.51594915840E-05	-1.74877939196E+02	7.87840288733E-02	-1.49793693889E+02
7.72665330661E+10	1.47758569560E-01	-8.36380138858E+01	5.97934523772E-05	-1.39699113042E+02	2.64150023922E-05	1.69847165083E+02	7.83588098289E-02	-1.49726511191E+02
7.72725450902E+10	1.45854135411E-01	-8.18859085218E+01	7.24560014266E-05	1.71030932542E+02	5.57320994554E-05	-1.73369902101E+02	7.82020302044E-02	-1.50471922199E+02
7.72785571142E+10	1.46885055322E-01	-8.20021897818E+01	7.38070351765E-05	1.38131931275E+02	4.11456746538E-05	6.98104425589E+01	7.77394182909E-02	-1.51575496614E+02
7.72845691383E+10	1.44789711104E-01	-8.31294901236E+01	5.33425426005E-05	1.09492435207E+02	8.81896414054E-05	1.34372499069E+02	7.53251988659E-02	-1.49748583332E+02
7.72905811623E+10	1.43934437918E-01	-8.24580749308E+01	5.25018009936E-05	-7.21026669163E+01	3.81292063941E-05	-1.27306169022E+02	7.66326670851E-02	-1.53032148186E+02
7.72965931864E+10	1.43436591201E-01	-8.23452369282E+01	9.31500632226E-05	1.60467983272E+02	7.49038797175E-05	-1.71765774829E+02	7.54647260923E-02	-1.53343932974E+02
7.73026052104E+10	1.43865782797E-01	-8.30285443669E+01	7.36942830854E-05	-1.76906690134E+02	3.15466462815E-05	1.49393765011E+02	7.32281709958E-02	-1.51346943261E+02
7.73086172345E+10	1.44296483480E-01	-8.32503476132E+01	1.06236393616E-04	1.29294218607E+02	5.30245638792E-05	1.07284667434E+02	7.16061030070E-02	-1.50481337448E+02
7.73146292585E+10	1.44156014945E-01	-8.34061673143E+01	5.50222508263E-05	3.87993973785E+01	3.54570676734E-05	-7.39260984916E+01	7.21709102333E-02	-1.52757066754E+02
7.73206412826E+10	1.45428466264E-01	-8.37310297095E+01	4.27468803028E-05	1.10627168838E+02	5.93046174092E-05	2.96959367468E+01	7.10481680279E-02	-1.52695183593E+02
7.73266533066E+10	1.41755743261E-01	-8.24530495400E+01	5.49115886022E-05	-1.48873162959E+02	6.90617087934E-05	-1.13156462469E+02	7.13075102837E-02	-1.53917310134E+02
7.73326653307E+10	1.43715220543E-01	-8.32127209149E+01	3.80789638981E-05	1.14772692395E+02	6.87396828877E-05	-9.76530037643E+01	6.93779280839E-02	-1.52349023631E+02
7.73386773547E+10	1.44819652556E-01	-8.55219724958E+01	3.27664067132E-05	1.23458775463E+02	5.36557886284E-05	1.63315550128E+02	6.79184013486E-02	-1.52976243376E+02
7.73446893788E+10	1.42878351662E-01	-8.54053487800E+01	8.00761771669E-05	1.12162988504E+02	3.22090064196E-05	1.61415641550E+02	6.84485952810E-02	-1.54301016310E+02
7.73507014028E+10	1.43666359780E-01	-8.39703986324E+01	5.46069095466E-05	7.62751675299E+01	5.15442498236E-05	8.87668661980E+01	6.89136350111E-02	-1.55761657212E+02
7.73567134269E+10	1.40966914628E-01	-8.45745488606E+01	1.05167464213E-04	1.03308711778E+02	7.84919866605E-05	9.26921593273E+01	6.76319705821E-02	-1.55351845163E+02
7.73627254509E+10	1.40954621862E-01	-8.48555202767E+01	4.28085260139E-05	1.47421293515E+02	4.13494630242E-05	1.69060452278E+02	6.65258789969E-02	-1.56015714840E+02
7.73687374749E+10	1.43591334237E-01	-8.32391942605E+01	3.24210477275E-05	1.11680595813E+02	8.01204690657E-05	9.47702946088E+01	6.49094084642E-02	-1.55260533570E+02
7.73747494990E+10	1.43092796340E-01	-8.49809445005E+01	8.62385763385E-05	6.00178558216E+01	9.36831819551E-05	6.55302307190E+01	6.47801574946E-02	-1.55965591049E+02
7.73807615230E+10	1.40007065622E-01	-8.39104670723E+01	7.09505914023E-05	5.06623952373E+01	3.35997157439E-05	1.79075319046E+02	6.41897098373E-02	-1.56589919109E+02
7.73867735471E+10	1.41470497176E-01	-8.45354343318E+01	1.26490382742E-04	6.71640719289E+01	1.59197859593E-04	5.17179161754E+01	6.31321766064E-02	-1.56838286837E+02
7.73927855711E+10	1.42211697481E-01	-8.50133641924E+01	2.60325610642E-05	7.38823972206E+01	6.41172856795E-05	4.34893284032E+01	6.09129707862E-02	-1.55667982462E+02
7.73987975952E+10	1.41546854941E-01	-8.60704724670E+01	5.13836340222E-05	9.80684864868E+01	5.25965390774E-05	1.29112791527E+01	6.11571189087E-02	-1.58017093510E+02
7.74048096192E+10	1.41608748144E-01	-8.54590393509E+01	9.58374318717E-05	3.62202097112E+01	2.23324645212E-05	-9.42654071927E+01	6.17367607226E-02	-1.58625603862E+02
7.74108216433E+10	1.41591565193E-01	-8.61197932641E+01	3.37213571266E-05	6.18483047239E+01	5.60192425290E-05	1.33765962805E+02	5.88121084923E-02	-1.55927724756E+02
7.74168336673E+10	1.40665406459E-01	-8.59917180792E+01	5.89379151302E-05	8.60999820391E+01	6.56709985957E-05	9.68988804350E+01	5.87860828608E-02	-1.57964961519E+02
7.74228456914E+10	1.40274898636E-01	-8.60260583031E+01	7.73318412347E-05	6.75785722059E+01	1.08319628120E-04	1.10027253522E+02	5.93518467868E-02	-1.58686614828E+02
7.74288577154E+10	1.41114089948E-01	-8.62669514186E+01	7.84657698889E-05	7.65624086396E+01	1.25215921533E-04	9.30518315369E+01	5.83764406030E-02	-1.59606498568E+02
7.74348697395E+10	1.39793537349E-01	-8.50196777408E+01	1.22441468245E-04	1.05592696979E+01	1.29161611650E-04	5.10189241381E+01	5.65839105376E-02	-1.58249256255E+02
7.74408817635E+10	1.40250377101E-01	-8.66551678897E+01	6.11522057308E-05	-1.30309932302E+01	8.72871942571E-05	5.84948859556E+00	5.57075442077E-02	-1.58740897754E+02
7.74468937876E+10	1.39948166004E-01	-8.71136303813E+01	1.85026549029E-05	-8.65744867716E+01	5.83003828556E-05	-2.60560206130E+00	5.50507349389E-02	-1.58929711258E+02
7.74529058116E+10	1.39152549110E-01	-8.50133481332E+01	2.31978522680E-05	-2.81738180159E+01	6.01081178864E-05	9.61690400348E+00	5.53988781697E-02	-1.60136273496E+02
7.74589178357E+10	1.38458714476E-01	-8.62030840601E+01	4.09590705118E-05	9.99538559171E+01	7.38433085050E-05	-1.20394782229E+01	5.46998263211E-02	-1.60880252471E+02
7.74649298597E+10	1.38521099397E-01	-8.66564047272E+01	8.21350105035E-05	-1.05979784075E+01	9.88518145610E-05	-9.57109279973E+00	5.36543078118E-02	-1.61523258521E+02
7.74709418838E+10	1.41570885603E-01	-8.73961975725E+01	5.79721378494E-05	-4.01751386864E+01	4.76058777006E-05	-3.29564473106E+01	5.19666839469E-02	-1.59905149657E+02
7.74769539078E+10	1.44060139604E-01	-8.93463499109E+01	1.83047876231E-05	-6.17464332868E+01	9.47841786469E-05	2.33259652678E+01	5.11714011200E-02	-1.60238083585E+02
7.74829659319E+10	1.39951459970E-01	-8.78050314463E+01	7.53201355481E-05	-7.36467838732E+01	7.58146240108E-05	-1.62828882614E+01	5.10678144101E-02	-1.61433981616E+02
7.74889779559E+10	1.39293468008E-01	-8.65211507591E+01	4.65940382562E-05	-1.40292038803E+02	8.93843253652E-05	-2.81595252676E+01	5.05988272365E-02	-1.61936546883E+02
7.74949899800E+10	1.38342716124E-01	-8.64350237731E+01	5.59991214244E-05	1.75984175293E+02	1.63185907118E-04	-2.47355407518E+01	4.89847167012E-02	-1.61373298692E+02
7.75010020040E+10	1.37101924053E-01	-8.88958949344E+01	3.31754034735E-05	-8.77881852932E+01	8.07030353159E-05	3.70949845717E+00	4.80242578534E-02	-1.60523462184E+02
7.75070140281E+10	1.39937997950E-01	-8.67798316254E+01	1.15836752078E-04	-6.57037513213E+01	8.57170267697E-05	-3.75155526399E+01	4.77978746907E-02	-1.62226475075E+02
7.75130260521E+10	1.39776735242E-01	-8.85530079347E+01	4.89322623260E-05	-1.24379648942E+02	1.55977008582E-04	-9.28133886211E+01	4.70982738969E-02	-1.62950567732E+02
7.75190380762E+10	1.37946406974E-01	-8.77245522033E+01	7.24101688522E-05	-1.10437901980E+02	9.75474376641E-05	-1.19720537495E+02	4.67163921334E-02	-1.63719776359E+02
7.75250501002E+10	1.40589024916E-01	-8.95495837296E+01	6.78402160488E-05	1.33137930714E+02	3.71504100194E-05	-1.13024575467E+02	4.59879836517E-02	-1.63854380766E+02
7.75310621242E+10	1.36967787380E-01	-8.73951977171E+01	3.34639039508E-05	-2.74994608204E+01	6.03332079621E-05	-9.99031403012E+00	4.51032725398E-02	-1.63252001127E+02
7.75370741483E+10	1.37077115586E-01	-8.85434592457E+01	6.92363748239E-05	1.54413910395E+01	8.28529835533E-05	-7.86547456392E+01	4.45004300430E-02	-1.63136655772E+02
7.75430861723E+10	1.38947610985E-01	-8.79277380068E+01	3.92688739079E-05	-1.03690999974E+02	1.06759349301E-04	-1.26013107980E+02	4.30212135293E-02	-1.62474170285E+02
7.75490981964E+10	1.40426924081E-01	-8.99747340371E+01	3.66299191808E-05	-1.14800722657E+02	5.59280334914E-05	-1.31055890195E+02	4.30693071636E-02	-1.64838962817E+02
7.75551102204E+10	1.39036427047E-01	-8.97637977247E+01	8.27947818818E-05	-5.42692841567E+01	6.27463363245E-05	-1.12773131555E+02	4.22486273457E-02	-1.64800198215E+02
7.75611222445E+10	1.38211212244E-01	-8.91551505676E+01	5.31979682168E-05	-6.66924766906E+01	6.18298828275E-06	4.78555453783E+01	4.11905355481E-02	-1.63976018012E+02
7.75671342685E+10	1.37818683812E-01	-8.83670469433E+01	9.63875461116E-05	-4.77387627931E+01	1.01034792992E-04	-1.21162415216E+02	4.01896926792E-02	-1.64162292698E+02
7.75731462926E+10	1.36141651198E-01	-9.02506161505E+01	5.64347238947E-05	-2.12723171559E+01	5.09212650512E-05	-7.84666593500E+01	3.99061454667E-02	-1.64877120896E+02
7.75791583166E+10	1.35830583586E-01	-8.83432843999E+01	3.65887341049E-05	-2.20085570485E+01	3.76242452610E-05	-1.40252426721E+02	4.00416054012E-02	-1.66158855907E+02
7.75851703407E+10	1.36675591313E-01	-9.10363554617E+01	1.32448970482E-04	-7.16142865241E+01	6.33704456391E-05	-1.63359042863E+02	3.85023638767E-02	-1.66622186735E+02
7.75911823647E+10	1.37760696170E-01	-9.17489665741E+01	2.24803727816E-05	-1.54535627596E+02	5.98567251829E-05	1.78897557162E+02	3.71757733370E-02	-1.65236876323E+02
7.75971943888E+10	1.35585722861E-01	-9.10142332082E+01	6.65015844452E-05	-6.71556530698E+01	6.54628359903E-05	1.70489660655E+02	3.64667135000E-02	-1.64948320023E+02
7.76032064128E+10	1.34687108270E-01	-9.07083580548E+01	2.52449568892E-05	-4.51443130240E+01	4.79541422183E-05	-1.60908586273E+02	3.65777569609E-02	-1.66248507003E+02
7.76092184369E+10	1.35287872415E-01	-8.84969992269E+01	4.65711498390E-05	-6.27702119754E+01	7.10201159658E-05	-1.67385015269E+02	3.60094737099E-02	-1.66802462717E+02
7.76152304609E+10	1.37905578352E-01	-9.00547824863E+01	8.15597314529E-05	-1.40964175701E+02	1.01007751636E-04	1.61419135094E+02	3.44742881445E-02	-1.66690074945E+02
7.76212424850E+10	1.35744624862E-01	-9.16881624878E+01	1.00431453709E-04	-1.22397056730E+02	1.15320655182E-04	1.38378802493E+02	3.45368878104E-02	-1.67470880742E+02
7.76272545090E+10	1.35775335471E-01	-9.11737088241E+01	7.49707817099E-05	-1.34404671819E+02	4.01271598925E-05	-1.32077028849E+02	3.36841016769E-02	-1.67092657862E+02
7.76332665331E+10	1.37072380065E-01	-9.11474149648E+01	9.79655313357E-05	1.74743461859E+02	7.61746428997E-05	1.24488637592E+02	3.26923112314E-02	-1.66088883398E+02
7.76392785571E+10	1.35891988854E-01	-9.05936793328E+01	3.45065236499E-05	-1.57838565367E+02	6.98658375737E-05	1.29675672424E+02	3.19158117687E-02	-1.67036509988E+02
7.76452905812E+10	1.35983915562E-01	-9.16229087839E+01	5.58412057148E-05	1.68046781416E+02	4.61324532258E-05	-5.30619821372E+00	3.15810648649E-02	-1.69203775553E+02
7.76513026052E+10	1.35723227095E-01	-9.32168855616E+01	2.95619262560E-05	1.19771013231E+02	4.92992332415E-05	7.41687912672E+01	3.04776320714E-02	-1.68341371496E+02
7.76573146293E+10	1.37824576254E-01	-9.30019106096E+01	8.69291683038E-05	1.73392578938E+02	5.67988019076E-05	-1.47981978450E+02	2.95970969811E-02	-1.67012028511E+02
7.76633266533E+10	1.34808887427E-01	-8.93474231299E+01	1.01739937535E-04	-1.73440806025E+02	4.51482788076E-05	-1.24944336589E+02	2.91715107619E-02	-1.67659464118E+02
7.76693386774E+10	1.36166107196E-01	-9.23282354510E+01	1.33718922861E-04	-1.78476677170E+02	7.46469231018E-05	-1.43138498098E+02	2.90415197648E-02	-1.68654345754E+02
7.76753507014E+10	1.34727352129E-01	-9.36792752871E+01	1.19865741288E-04	1.50605892550E+02	8.39450844180E-05	1.32203768590E+02	2.81528040300E-02	-1.69326065338E+02
7.76813627255E+10	1.33231157685E-01	-8.96184050092E+01	1.44985624446E-04	1.43683494282E+02	7.31859758267E-05	1.06264185847E+02	2.69711337527E-02	-1.69246645773E+02
7.76873747495E+10	1.38408424873E-01	-9.37936083164E+01	8.69997879947E-05	1.32843998355E+02	4.06665419079E-05	2.16613789645E+01	2.62987994607E-02	-1.70041686788E+02
7.76933867735E+10	1.34756223620E-01	-9.40490381353E+01	1.29187973096E-04	1.42811521675E+02	3.22594843885E-05	-8.32001995225E+01	2.58393603015E-02	-1.70034488724E+02
7.76993987976E+10	1.36409617619E-01	-9.43086371768E+01	4.57402251164E-05	1.33509281596E+02	5.27977829930E-05	-8.64051476830E+00	2.53116836534E-02	-1.69675019349E+02
7.77054108216E+10	1.34522897746E-01	-9.36850054306E+01	6.75533663862E-05	1.10502826087E+02	1.14181317853E-05	-1.36304576429E+02	2.41774595108E-02	-1.70482591758E+02
7.77114228457E+10	1.35104776968E-01	-9.24601762392E+01	3.92250611001E-05	1.58817952259E+02	4.42292244894E-05	7.75360521906E+01	2.34412934334E-02	-1.70162038379E+02
7.77174348697E+10	1.33625553774E-01	-9.35937475349E+01	1.08334436517E-04	1.21603331346E+02	2.79621744752E-05	1.16480188161E+02	2.28524642496E-02	-1.70214682266E+02
7.77234468938E+10	1.32958257512E-01	-9.45764441620E+01	1.02580388831E-04	1.09237085512E+02	1.75818582694E-05	-1.67233902878E+02	2.21082559715E-02	-1.70148242311E+02
7.77294589178E+10	1.35439908721E-01	-9.50448696964E+01	8.19136701229E-05	9.14314222391E+01	5.27288007510E-05	1.17295310857E+02	2.13231272586E-02	-1.71185648809E+02
7.77354709419E+10	1.32566439946E-01	-9.40363352534E+01	1.18737360567E-04	9.89975671014E+01	3.57053184352E-05	1.61082476978E+02	2.06422047975E-02	-1.70689588076E+02
7.77414829659E+10	1.32477318699E-01	-9.31329105229E+01	8.02463729175E-05	5.41523593145E+01	3.07053553038E-05	1.57804713596E+02	2.02108036613E-02	-1.71580025545E+02
7.77474949900E+10	1.32987655446E-01	-9.39254306365E+01	6.39146877400E-05	1.15164864033E+02	6.62363994724E-05	1.48717849879E+02	1.93568900402E-02	-1.70708651364E+02
7.77535070140E+10	1.33005603082E-01	-9.40893907611E+01	8.93983818444E-05	8.38487807295E+01	5.65381609869E-05	1.07848689380E+02	1.85049903534E-02	-1.71783865408E+02
7.77595190381E+10	1.33704958501E-01	-9.59614072134E+01	1.08074548052E-04	2.28567119383E+01	5.25629307292E-05	9.27939339743E+01	1.77733833813E-02	-1.71483724436E+02
7.77655310621E+10	1.30887647229E-01	-9.41335773003E+01	7.94449050374E-05	2.98156673369E+01	1.02778564558E-04	7.02944651571E+01	1.72970673703E-02	-1.72023763506E+02
7.77715430862E+10	1.31326626214E-01	-9.29060546596E+01	1.29108209301E-04	-2.54919118893E+01	6.27329838986E-05	5.13031210458E+01	1.64987815193E-02	-1.73052523817E+02
7.77775551102E+10	1.33352461109E-01	-9.48831729283E+01	8.63147615913E-05	-1.07525067425E+01	5.77776554026E-05	1.23676584343E+01	1.55119557253E-02	-1.70338260716E+02
7.77835671343E+10	1.33512812572E-01	-9.56015904442E+01	3.46536304840E-05	7.40990197609E+01	9.10278940085E-06	2.35107592735E+01	1.48990675426E-02	-1.73467530231E+02
7.77895791583E+10	1.32208388172E-01	-9.48525487763E+01	5.85589430941E-05	-3.41251221082E+01	4.60309526986E-05	6.98473640965E+01	1.41865196483E-02	-1.72280383744E+02
7.77955911824E+10	1.34033740732E-01	-9.70542366255E+01	6.08672908289E-05	-3.22471460737E+01	2.14995316137E-05	1.01081200079E+02	1.33039102524E-02	-1.70806044222E+02
7.78016032064E+10	1.31879268439E-01	-9.63158610242E+01	8.19369729065E-05	-3.21545114147E+01	1.86320886830E-05	-3.08200725969E+01	1.27249930026E-02	-1.71223894052E+02
7.78076152305E+10	1.30887952430E-01	-9.57584708120E+01	3.76924209676E-05	-9.43083509846E+01	6.79665486039E-05	2.53500913283E+01	1.20225904949E-02	-1.71214857764E+02
7.78136272545E+10	1.32454820509E-01	-9.58053021392E+01	5.65419893300E-05	-8.33496795683E+01	9.59597340698E-05	4.72295963852E+01	1.11602783926E-02	-1.67947925458E+02
7.78196392786E+10	1.31624758639E-01	-9.47695959527E+01	4.41164113989E-05	1.35636524967E+01	6.66362004273E-05	4.15037878368E+01	1.05012293619E-02	-1.68488769931E+02
7.78256513026E+10	1.33244291175E-01	-9.70983473405E+01	5.01797266255E-05	1.30392108120E+02	1.85313332845E-05	1.84110611937E+01	9.77222582915E-03	-1.69380482213E+02
7.78316633267E+10	1.29578809176E-01	-9.55007187088E+01	8.78977063085E-05	-5.46228348008E+00	5.18126393462E-05	-3.03432440278E+01	9.09249196066E-03	-1.67106234815E+02
7.78376753507E+10	1.32500173064E-01	-9.79801359303E+01	2.03674847264E-05	6.73826037369E+01	1.12768326797E-04	4.61172482914E+00	8.60398530547E-03	-1.67743501269E+02
7.78436873747E+10	1.30114484858E-01	-9.37210367349E+01	3.96631713140E-05	-4.60765991724E+01	7.18351058748E-05	-1.79828179714E+01	7.82877498807E-03	-1.61673983962E+02
7.78496993988E+10	1.31902386958E-01	-9.58942501714E+01	6.73532626099E-05	-7.61325770987E+01	1.29965413671E-04	-1.16834681191E+01	7.21429345760E-03	-1.64608544363E+02
7.78557114228E+10	1.29229398107E-01	-9.64366336134E+01	3.67767826132E-05	-1.05015577057E+02	1.16551833881E-04	-4.44884875758E+01	6.36682491410E-03	-1.57760902569E+02
7.78617234469E+10	1.30349046446E-01	-9.67189697323E+01	6.22292801917E-05	-6.94280457296E+01	1.29986864412E-04	-8.50426313867E+01	5.96280869774E-03	-1.61998773091E+02
7.78677354709E+10	1.31277051192E-01	-9.76894579583E+01	3.59767131785E-05	-1.57707862950E+02	8.37002921672E-05	-9.86868620619E+01	5.22590746721E-03	-1.60000450461E+02
7.78737474950E+10	1.30586634723E-01	-9.68737921189E+01	3.49717615650E-05	-1.22312262060E+02	4.63394008960E-05	-8.53002798873E+01	4.57470650610E-03	-1.50786054851E+02
7.78797595190E+10	1.30382890226E-01	-9.73248264080E+01	4.53883938753E-05	1.17173545992E+02	7.91191664539E-05	-8.20472977650E+01	4.12002132298E-03	-1.50161154897E+02
7.78857715431E+10	1.28218333671E-01	-9.70143515657E+01	4.93371595030E-05	-1.37218025257E+02	6.23419343549E-05	-4.16065391240E+01	3.54522913248E-03	-1.32560524012E+02
7.78917835671E+10	1.30974444020E-01	-9.82297629565E+01	2.46786102519E-05	-3.52754875048E+01	7.60258439543E-05	-7.10365971619E+01	2.98254659651E-03	-1.35473004378E+02
7.78977955912E+10	1.31474913123E-01	-9.92821170545E+01	8.40312895211E-05	-1.22844755672E+02	1.07828175836E-04	-9.51529354231E+01	2.73782932933E-03	-1.19516888163E+02
7.79038076152E+10	1.31140309841E-01	-9.98176675135E+01	4.10344392007E-05	5.60124963122E+01	8.92093899831E-05	-1.16045663508E+02	2.44357076972E-03	-1.11351637897E+02
7.79098196393E+10	1.31357281310E-01	-9.90020816817E+01	4.51903707115E-05	-1.39243799857E+01	4.30060395575E-05	1.73157219990E+02	2.48855098256E-03	-9.55469855519E+01
7.79158316633E+10	1.29616028969E-01	-9.75456223340E+01	3.65694765909E-05	2.69006240703E+01	1.42055042129E-05	2.36882686677E+01	3.29764731130E-03	-7.80692740492E+01
7.79218436874E+10	1.29309662912E-01	-9.80461929357E+01	5.52131843854E-05	3.83883574984E+00	3.07706338262E-05	-5.29836488804E+01	3.93360696503E-03	-6.85661341963E+01
7.79278557114E+10	1.31555859045E-01	-1.00357411403E+02	6.70398460205E-05	-5.22712928541E+01	7.16724440498E-05	-8.59445016381E+01	3.78771390785E-03	-6.10019699779E+01
7.79338677355E+10	1.31783766344E-01	-9.88887003486E+01	7.54628771341E-05	-8.21368599117E+01	5.55464979776E-05	-8.00973758053E+01	3.69011458760E-03	-5.71018688767E+01
7.79398797595E+10	1.29534400848E-01	-9.87304710337E+01	6.06422912776E-05	-1.13819755976E+02	1.15608894462E-04	-1.18033139404E+02	4.11189646489E-03	-5.05067169411E+01
7.79458917836E+10	1.28858516436E-01	-9.82921619864E+01	7.60251329244E-05	-1.06924892660E+02	8.10462122613E-05	-1.34368123288E+02	5.61529632588E-03	-4.27071563614E+01
7.79519038076E+10	1.27569913739E-01	-9.92868484532E+01	6.44204703687E-05	1.63794730982E+02	1.20072110069E-04	-1.57007008985E+02	6.30503800962E-03	-4.04090920022E+01
7.79579158317E+10	1.28580032432E-01	-9.87593236419E+01	2.82998489398E-05	-1.09409705631E+02	7.96594211993E-05	1.72605270510E+02	7.14765169055E-03	-3.89818338666E+01
7.79639278557E+10	1.29864844774E-01	-9.98770624832E+01	3.38627884508E-05	-1.16061991229E+02	9.42213014644E-05	-1.16341163104E+02	6.56269997134E-03	-3.62841107285E+01
7.79699398798E+10	1.28776557642E-01	-1.00780500436E+02	3.97714471934E-05	1.40137842431E+02	6.20057239304E-05	-1.60426880082E+02	8.20937167189E-03	-3.60582792590E+01
7.79759519038E+10	1.28796191653E-01	-1.01057106342E+02	5.01093835097E-05	1.47921440743E+02	3.22234583216E-05	4.57510836181E+01	8.13075480474E-03	-3.44832089643E+01
7.79819639279E+10	1.31275590512E-01	-1.01977291792E+02	2.45688586590E-05	-7.28533750413E+01	3.69774524380E-05	9.13405505242E+01	8.94760629502E-03	-3.26652081832E+01
7.79879759519E+10	1.28952357074E-01	-1.00814828024E+02	3.81245544540E-05	-7.70650651388E+01	7.74688433522E-05	9.79063919042E+00	1.00545738545E-02	-3.25818699046E+01
7.79939879760E+10	1.27797200724E-01	-9.93789567967E+01	4.98149492562E-05	-1.32731485321E+02	3.84956019099E-05	-1.04689954252E+02	9.82826350561E-03	-3.31581464101E+01
7.80000000000E+10	1.27134645612E-01	-1.00371875843E+02	1.01299779636E-04	-1.60545903607E+02	2.93603415038E-05	-9.38249046246E+01	1.03109463108E-02	-3.29286088107E+01
