# Hz S MA R 50
! CMT, C4420, 21421029, 25.1.2/3
! Date: 8/7/2025 1:34:52 PM
! Data: Format (Calibration Info)
! Freq	S33:Mag/Ang(F2)	S43:Mag/Ang(F2)	S34:Mag/Ang(F2)	S44:Mag/Ang(F2)
7.50000000000E+10	1.97567294437E-01	-1.21891872656E+01	7.44576167062E-05	-1.28806807492E+02	4.88829322877E-05	3.63654052329E+00	2.72300627806E-01	-2.84010139628E+01
7.50060120240E+10	1.99234655459E-01	-1.36260760790E+01	3.40345590582E-05	1.49148851273E+02	4.39070900100E-05	2.67062498927E+01	2.72660297595E-01	-2.92311404247E+01
7.50120240481E+10	2.01776633662E-01	-1.51376940948E+01	5.17620466909E-05	-2.38750767605E+01	7.34646729974E-05	2.52682217028E+01	2.75352858301E-01	-3.08022359797E+01
7.50180360721E+10	2.01473614341E-01	-1.62278911402E+01	9.44006487780E-05	8.40229315459E+01	7.72122870275E-05	4.16786434605E+00	2.72484828934E-01	-3.00942620602E+01
7.50240480962E+10	1.98926024066E-01	-1.40592189260E+01	2.25895455120E-05	5.34882469436E+01	8.53262260637E-05	-5.34311958922E+01	2.70396546821E-01	-3.00015863089E+01
7.50300601202E+10	1.98939507092E-01	-1.39590305979E+01	2.24431629406E-05	-8.56056791635E+01	9.21026678090E-05	-3.77107873451E+01	2.71020519339E-01	-3.01101893512E+01
7.50360721443E+10	2.00028505411E-01	-1.36977276446E+01	4.29423064588E-05	-8.98021476559E+01	2.13102268224E-05	5.07346368243E+01	2.70470673209E-01	-3.05028281855E+01
7.50420841683E+10	2.00589152691E-01	-1.56249996172E+01	9.13487996402E-05	-8.76119121726E+01	6.91394837421E-05	1.77460847891E+01	2.70922652244E-01	-3.10234223226E+01
7.50480961924E+10	1.99725600660E-01	-1.77815479814E+01	3.42023606217E-05	-1.29171128796E+02	1.75862545511E-05	-1.42323412656E+02	2.67869655412E-01	-3.19146065357E+01
7.50541082164E+10	1.97343192796E-01	-1.69507280300E+01	5.06303586584E-05	-1.52241162368E+02	5.27691906768E-05	3.88669827749E+01	2.70052892571E-01	-3.19502399094E+01
7.50601202405E+10	2.00519224623E-01	-1.62417496075E+01	4.58755133323E-05	-8.04106917245E+01	4.67260986470E-05	-5.86693154132E+01	2.68137990280E-01	-3.07283641584E+01
7.50661322645E+10	2.01750581640E-01	-1.68220444911E+01	3.12738259648E-05	-1.71137189278E+02	4.75695810165E-05	-7.33155381830E+01	2.69682006444E-01	-3.24482325110E+01
7.50721442886E+10	1.98242894562E-01	-1.57936713872E+01	1.93690202071E-05	-1.76783210682E+02	6.61085004815E-05	-1.54272744719E+02	2.67189472152E-01	-3.17209803095E+01
7.50781563126E+10	1.98696953707E-01	-1.72882450610E+01	3.52043133667E-05	-1.16220205954E+02	3.65324964746E-05	-1.06440699704E+02	2.64700608358E-01	-3.09529636097E+01
7.50841683367E+10	1.95700429553E-01	-1.59631938844E+01	2.71367418558E-05	1.75344550199E+02	4.96358533539E-05	9.94988170713E+01	2.70658435620E-01	-3.27404419894E+01
7.50901803607E+10	1.98410047988E-01	-1.67404495274E+01	7.15595304067E-05	-1.19833943533E+02	9.47264699984E-05	-1.22279432933E+02	2.74170867801E-01	-3.39740297979E+01
7.50961923848E+10	1.99537815999E-01	-1.70783638188E+01	5.58525367628E-05	-1.06904105855E+02	2.45843509472E-05	-3.30289902385E+01	2.70761945212E-01	-3.47494651172E+01
7.51022044088E+10	1.97300691830E-01	-1.75957147161E+01	2.35026705487E-06	-1.17431241871E+02	4.24495435620E-05	-1.69279297558E+02	2.66076946387E-01	-3.25631715716E+01
7.51082164329E+10	1.93796806771E-01	-1.57158712983E+01	2.12155529966E-05	1.16692926415E+02	9.37129517395E-05	1.47017254325E+02	2.65287961553E-01	-3.26562341359E+01
7.51142284569E+10	1.94072859599E-01	-1.61740065631E+01	5.75868409092E-05	-1.36976086407E+02	7.73034987869E-05	1.22256043232E+02	2.68255741172E-01	-3.45527163478E+01
7.51202404810E+10	1.97367121203E-01	-1.81656155220E+01	3.36551350742E-05	-1.45138225913E+02	2.64804181708E-05	-8.84218792537E+01	2.70433496662E-01	-3.53082476466E+01
7.51262525050E+10	1.95237408895E-01	-1.75166963478E+01	5.09998254047E-05	1.22255716227E+02	2.29540396609E-05	-1.57321856137E+02	2.63107863173E-01	-3.42414441676E+01
7.51322645291E+10	1.96380586922E-01	-1.80285329692E+01	5.14851457910E-05	-1.65393308711E+02	1.76782500271E-05	1.36693538306E+02	2.64662988585E-01	-3.35956501204E+01
7.51382765531E+10	1.96263422020E-01	-1.87545124815E+01	2.35091232322E-05	-5.41621927180E+01	2.83824791363E-05	-4.90570821481E+01	2.64787059381E-01	-3.51766865796E+01
7.51442885772E+10	1.95517992497E-01	-1.86405411428E+01	3.40276611413E-05	1.32977404445E+02	3.48416217204E-06	5.32523199370E+01	2.69043577735E-01	-3.55825543724E+01
7.51503006012E+10	1.94473056671E-01	-1.88460608835E+01	3.46909965697E-05	8.25613974179E-01	1.09395162303E-04	-1.33998558779E+02	2.68313739818E-01	-3.69172671858E+01
7.51563126253E+10	1.92131294391E-01	-1.81893840005E+01	2.21184201081E-05	5.48319733833E+01	4.16048298151E-05	1.36852786762E+02	2.64877862324E-01	-3.55117327889E+01
7.51623246493E+10	1.96380783241E-01	-1.95905027173E+01	6.82297093040E-05	8.29142009098E+01	9.24929133748E-05	9.07949269450E+01	2.64733406569E-01	-3.55938104741E+01
7.51683366733E+10	1.92242394649E-01	-1.85474281741E+01	6.01216273198E-05	-1.73036566975E+02	4.35347339354E-05	8.53686741065E+00	2.67114676983E-01	-3.61053352879E+01
7.51743486974E+10	1.97766491598E-01	-2.06753987262E+01	7.91394880489E-05	4.66472894298E+01	2.71701458063E-05	-1.01883868662E+02	2.65870328133E-01	-3.66745941337E+01
7.51803607214E+10	1.95030855205E-01	-1.99612354277E+01	3.30570106701E-05	1.49319420877E+01	5.45134852040E-05	5.98632382348E+01	2.65117706449E-01	-3.75550664456E+01
7.51863727455E+10	1.94874342297E-01	-1.89321298375E+01	5.45460246811E-05	7.33283587175E-01	2.21870196399E-05	1.11881254048E+02	2.64635278129E-01	-3.72198585276E+01
7.51923847695E+10	1.92735519465E-01	-2.07645599691E+01	2.32847431731E-05	-4.60128285148E+01	5.93997305496E-05	2.44646684987E+01	2.65136755660E-01	-3.66292987665E+01
7.51983967936E+10	1.93375479645E-01	-2.04172004573E+01	4.67131047665E-05	-1.08894653466E+02	1.30033326749E-04	-4.77037078911E+01	2.64212725153E-01	-3.68990737150E+01
7.52044088176E+10	1.95199723236E-01	-1.92176831179E+01	5.31019740207E-05	-8.06015204497E+01	4.79572381588E-06	-3.63111721613E+01	2.65386858951E-01	-3.79427274379E+01
7.52104208417E+10	1.94184267956E-01	-2.08369043684E+01	4.45615360817E-05	-1.66711597871E+02	7.61082380849E-05	-6.38202489858E+01	2.65263130996E-01	-3.88435023515E+01
7.52164328657E+10	1.93972728280E-01	-2.00250666827E+01	3.58911321711E-05	2.33203332853E+01	4.22440220233E-05	-6.49777458707E+01	2.68677659395E-01	-4.00136495119E+01
7.52224448898E+10	1.93139719082E-01	-2.05062382102E+01	5.45517084610E-05	1.56442226314E+02	2.77999463765E-05	1.57209309461E+02	2.62691043398E-01	-3.84757445562E+01
7.52284569138E+10	1.96574395756E-01	-2.08011073289E+01	1.98638456547E-05	1.78889398428E+02	1.10540774732E-04	-4.13901883712E+01	2.60265453003E-01	-3.85066978273E+01
7.52344689379E+10	1.94529446797E-01	-2.27403621736E+01	5.83805714178E-05	-1.78192640374E+02	5.85282748259E-05	-8.39667649716E+01	2.63480171483E-01	-3.96134086995E+01
7.52404809619E+10	1.96905972937E-01	-2.23825791732E+01	1.62310181347E-05	1.59050562269E+02	4.01560974239E-05	-6.96886544321E+01	2.63474956113E-01	-3.94484130247E+01
7.52464929860E+10	1.92945012923E-01	-2.00881188815E+01	5.82925249431E-05	2.64401445082E+01	7.82579210590E-05	-1.18532625053E+02	2.64456597996E-01	-4.00514194398E+01
7.52525050100E+10	1.89912984900E-01	-2.07175778831E+01	9.49718701187E-05	-1.26255729515E+02	1.53473074297E-05	1.01227669437E+02	2.66295434256E-01	-4.16675582201E+01
7.52585170341E+10	1.92128460695E-01	-2.21726157295E+01	1.92126746751E-05	-5.96543903816E+01	6.25228126333E-05	-8.60166791082E+01	2.65396921913E-01	-4.11014130932E+01
7.52645290581E+10	1.95100539764E-01	-2.34188938240E+01	6.19354127273E-05	-1.57074687574E+02	9.37986934124E-05	-1.17828299991E+02	2.63186031705E-01	-4.05015048661E+01
7.52705410822E+10	1.93081865309E-01	-2.32564828788E+01	5.05085511558E-05	1.42655613460E+02	3.48823162810E-05	-9.91873456676E+01	2.59785277445E-01	-4.03644588833E+01
7.52765531062E+10	1.90117682902E-01	-2.13012802624E+01	3.37447381700E-05	1.22161435500E+02	5.19497908711E-05	-1.46381475340E+02	2.58907281682E-01	-4.10433393775E+01
7.52825651303E+10	1.88742767524E-01	-2.16453052362E+01	5.66650431582E-05	1.03637262880E+02	9.65729256631E-05	1.76120887296E+02	2.60406869297E-01	-4.15480589563E+01
7.52885771543E+10	1.90973503753E-01	-2.18812671461E+01	6.21216067574E-05	7.06138554776E+01	4.26887908361E-05	1.61591698923E+02	2.64385215514E-01	-4.26621586028E+01
7.52945891784E+10	1.94073954344E-01	-2.32262471013E+01	2.52690502435E-05	1.04230452139E+02	1.95676546415E-05	-1.68553125068E+02	2.63902545334E-01	-4.25737743755E+01
7.53006012024E+10	1.93540235456E-01	-2.37314824022E+01	5.62635979658E-05	1.79460742730E+02	9.99873579571E-06	-8.40578940573E+01	2.57695697669E-01	-4.08855235463E+01
7.53066132265E+10	1.90377181737E-01	-2.34310937212E+01	3.01564459677E-05	-1.02893938656E+02	5.73958632716E-05	-1.44670471189E+02	2.58115783331E-01	-4.18509326727E+01
7.53126252505E+10	1.87736119143E-01	-2.15284651900E+01	6.04577285372E-05	1.18356729617E+02	5.59989865559E-05	-3.93045419921E+01	2.58195856233E-01	-4.31550065937E+01
7.53186372745E+10	1.93626648898E-01	-2.45059512960E+01	3.45234997985E-05	8.10650873725E+01	1.67206366410E-05	1.14731099961E+01	2.60671032634E-01	-4.38148000073E+01
7.53246492986E+10	1.93296281055E-01	-2.46303564029E+01	3.39003555480E-05	-7.37172021075E+01	6.35893969043E-05	1.43832377927E+02	2.61853213871E-01	-4.36619450277E+01
7.53306613226E+10	1.89749823218E-01	-2.19919493163E+01	8.56341825300E-05	1.38297670901E+02	1.06502763546E-05	-1.45306982999E+02	2.59715258184E-01	-4.26071457383E+01
7.53366733467E+10	1.88386964809E-01	-2.35374926708E+01	3.35695010520E-05	6.25236236913E+01	5.87053970072E-05	8.82562537840E+01	2.59573043540E-01	-4.50273072687E+01
7.53426853707E+10	1.88761576062E-01	-2.27769577755E+01	4.23047781660E-05	5.86724861200E+01	5.93968904733E-05	-8.51165250818E+01	2.57559800726E-01	-4.35704468365E+01
7.53486973948E+10	1.95041714358E-01	-2.53856658661E+01	2.58656952558E-05	-6.96604315594E+01	4.53301235270E-05	-4.26081890366E+01	2.55596343834E-01	-4.32819292346E+01
7.53547094188E+10	1.90669395529E-01	-2.43376348332E+01	7.40237831075E-05	-1.60658799949E+02	1.57614009738E-04	1.72702582820E+02	2.58967940120E-01	-4.46951891841E+01
7.53607214429E+10	1.90580067742E-01	-2.48903531709E+01	1.35524854462E-05	-1.37524647408E+02	5.82058425174E-05	1.18682683827E+02	2.59255884801E-01	-4.56448696288E+01
7.53667334669E+10	1.91669393839E-01	-2.60189832463E+01	6.83744609134E-05	9.88679478619E+01	7.75174850727E-05	1.40637896371E+02	2.56751719966E-01	-4.54215228005E+01
7.53727454910E+10	1.93018628132E-01	-2.64203856216E+01	9.43955908756E-05	5.13808374700E+01	8.37085397259E-05	8.76549838928E+01	2.53849048149E-01	-4.40125968885E+01
7.53787575150E+10	1.89383924769E-01	-2.58460479854E+01	5.69179105923E-05	9.65186401094E+01	6.52426386113E-05	8.88894652357E+01	2.54881004045E-01	-4.50330764113E+01
7.53847695391E+10	1.89175190556E-01	-2.47630449267E+01	5.15695219525E-05	9.08423687391E+01	1.45144360675E-04	8.67231690509E+01	2.56006938447E-01	-4.57468514054E+01
7.53907815631E+10	1.87144819524E-01	-2.33980691919E+01	1.12036905700E-05	1.50536182081E+02	1.34411246704E-04	-8.89786655882E+00	2.57425378503E-01	-4.71128283373E+01
7.53967935872E+10	1.90814056685E-01	-2.58824594357E+01	8.02268761244E-05	-2.87674844176E+01	5.59847262319E-05	1.25537470665E+01	2.59110984470E-01	-4.69510794147E+01
7.54028056112E+10	1.92790337550E-01	-2.79309055524E+01	5.75453065377E-05	-1.61472752898E+02	2.59916400645E-05	-9.54960076133E+01	2.58043465308E-01	-4.68433796479E+01
7.54088176353E+10	1.88545893258E-01	-2.62227188385E+01	6.17349594286E-05	-8.74969616645E+01	9.06478564751E-05	-1.61566251991E+00	2.53082845794E-01	-4.58801241905E+01
7.54148296593E+10	1.88455219151E-01	-2.52557645770E+01	6.51676755274E-05	-1.43960332341E+01	2.26341026071E-05	-8.71862084307E+00	2.51145311891E-01	-4.69818608525E+01
7.54208416834E+10	1.92408771632E-01	-2.64075980012E+01	1.21436311753E-04	-3.04216191526E+01	1.24461079390E-05	1.66535932006E+02	2.55639080073E-01	-4.75686551515E+01
7.54268537074E+10	1.89383487175E-01	-2.57836647749E+01	3.64879232263E-05	1.21833346255E+01	1.06648695164E-04	-2.96979776315E+01	2.58582074251E-01	-4.87896288598E+01
7.54328657315E+10	1.87518995748E-01	-2.61642374064E+01	2.09490085334E-05	1.25856282488E+02	3.57956437917E-05	8.95941310585E+01	2.52873423136E-01	-4.72799657554E+01
7.54388777555E+10	1.86786297443E-01	-2.63403070715E+01	4.58708876783E-05	-1.00642607303E+02	4.02494597947E-05	2.31416372779E+01	2.50736185397E-01	-4.79131702263E+01
7.54448897796E+10	1.86731164893E-01	-2.79733353388E+01	5.60954173553E-05	9.84634668185E+00	3.61745795657E-05	-1.76769753578E+01	2.53077089204E-01	-4.88353828894E+01
7.54509018036E+10	1.92229999483E-01	-2.88721098424E+01	4.96008403579E-05	-1.28120552581E+02	6.37885145563E-05	1.55823072282E+01	2.54388729009E-01	-4.95181845271E+01
7.54569138277E+10	1.87240896806E-01	-2.66435239205E+01	5.41889158334E-05	-1.02373451208E+02	7.65890021682E-05	-2.64294427620E+01	2.53895049559E-01	-4.99153122084E+01
7.54629258517E+10	1.87532858954E-01	-2.61915415940E+01	7.25889496464E-05	1.64784102842E+02	3.31560855850E-05	-4.58954246302E+01	2.53189911181E-01	-4.93566071118E+01
7.54689378758E+10	1.88328214660E-01	-2.90707335624E+01	4.47592681391E-05	-1.48266218205E+02	6.67167783309E-05	-8.15103031131E+01	2.53632844033E-01	-4.96680222735E+01
7.54749498998E+10	1.90165068013E-01	-2.90003004166E+01	1.32114904436E-05	5.44156533996E+01	5.37887220204E-05	-7.71623557305E+01	2.52675258837E-01	-4.99111600377E+01
7.54809619238E+10	1.89932972777E-01	-2.87503224560E+01	2.02657175943E-05	-1.69833526200E+02	2.83831241534E-05	-2.08884328182E+01	2.50533346206E-01	-4.93217246713E+01
7.54869739479E+10	1.88678509289E-01	-2.76073388550E+01	3.46040025321E-05	-1.22170293281E+02	6.45523410101E-05	-7.05524219438E+01	2.52659695381E-01	-5.16239497085E+01
7.54929859719E+10	1.86076910866E-01	-2.67587857502E+01	7.48142690600E-05	-1.59134857579E+02	4.79877775283E-05	-7.23142407535E+01	2.56006155484E-01	-5.27185335321E+01
7.54989979960E+10	1.84616708981E-01	-2.78588411346E+01	1.97065704572E-05	-1.30526837652E+02	1.01594984460E-04	-1.47656135555E+02	2.50898402515E-01	-5.03554716770E+01
7.55050100200E+10	1.89049261807E-01	-3.00318130883E+01	6.68391211991E-05	-1.73255760633E+02	4.86703297413E-05	-1.27195246522E+02	2.53558104480E-01	-5.18258199364E+01
7.55110220441E+10	1.87518910150E-01	-2.75432126098E+01	5.10237813388E-05	1.44126482773E+02	1.01310941796E-04	-1.45692962221E+02	2.53233681975E-01	-5.31273977476E+01
7.55170340681E+10	1.88747254108E-01	-3.05431446483E+01	9.40467968456E-05	1.34878854032E+02	5.21470819791E-05	-1.20778836275E+02	2.54281887226E-01	-5.36275695438E+01
7.55230460922E+10	1.88723138131E-01	-3.11218864888E+01	8.29877412834E-05	1.06023977482E+02	2.93364281657E-05	-1.02320574461E+02	2.52232326519E-01	-5.31686742360E+01
7.55290581162E+10	1.88112530051E-01	-3.14389800496E+01	3.95090125671E-05	1.32577847296E+02	7.36597544396E-05	-8.32776185556E+01	2.50401542078E-01	-5.25655969625E+01
7.55350701403E+10	1.90211991681E-01	-3.17732805542E+01	4.43792945183E-05	1.58039440195E+02	2.18659293200E-05	1.75586362402E+02	2.46650586965E-01	-5.22886160884E+01
7.55410821643E+10	1.87883750237E-01	-3.09412502266E+01	1.56176133093E-05	9.98717484861E+01	2.11797402565E-05	1.08465608678E+02	2.50500028591E-01	-5.36327743984E+01
7.55470941884E+10	1.86959704053E-01	-2.97766360643E+01	3.82228555840E-05	-2.02244632607E+01	4.49157978885E-05	-1.73195323599E+02	2.50702453686E-01	-5.44357814939E+01
7.55531062124E+10	1.85944640662E-01	-2.98073013582E+01	5.97205739186E-06	-1.22339771619E+00	8.43460209102E-05	-1.12520414184E+02	2.51244866936E-01	-5.45736983525E+01
7.55591182365E+10	1.83293244319E-01	-3.02020181273E+01	1.71385501936E-05	4.97695600670E+01	4.18774979325E-05	1.71581282672E+02	2.49103549898E-01	-5.54763223936E+01
7.55651302605E+10	1.83274351218E-01	-2.96325386387E+01	1.12776546502E-04	-1.17982126077E+02	1.18930335270E-04	-1.64919143508E+02	2.46800465164E-01	-5.36591984797E+01
7.55711422846E+10	1.87897099602E-01	-3.07536705019E+01	7.69773351165E-05	-1.40667768357E+02	1.05116811701E-04	1.68954794115E+02	2.49843749037E-01	-5.44276234935E+01
7.55771543086E+10	1.86901385054E-01	-3.16452751604E+01	2.88761390439E-05	1.53667954159E+02	9.72064657859E-05	1.38117488032E+02	2.49247625241E-01	-5.55385362852E+01
7.55831663327E+10	1.84750332438E-01	-3.26196252778E+01	8.06273710506E-05	1.43179202502E+02	1.08044286994E-04	1.24000493029E+02	2.46784461353E-01	-5.58169722876E+01
7.55891783567E+10	1.83992009254E-01	-3.04375596399E+01	8.86308318371E-05	9.52630808131E+01	1.62117200469E-04	8.41447874821E+01	2.48698264916E-01	-5.69098669025E+01
7.55951903808E+10	1.86127381491E-01	-3.23656923162E+01	3.09736623801E-05	2.69048508031E+00	9.09958213373E-05	1.18268435333E+02	2.50395722775E-01	-5.64876580049E+01
7.56012024048E+10	1.91370158069E-01	-3.39709240048E+01	5.95175935450E-05	6.12599786874E+01	4.01543821892E-05	5.25517656855E+01	2.46177616370E-01	-5.52878560761E+01
7.56072144289E+10	1.87293594786E-01	-3.29655903032E+01	1.87377267794E-05	-7.53634884981E+01	7.89802777358E-05	1.22018252472E+02	2.44656646460E-01	-5.66777264224E+01
7.56132264529E+10	1.86187884665E-01	-3.29922359674E+01	5.81106031188E-05	-1.58478846485E+02	3.14056851542E-05	-1.61818528889E+02	2.48063664093E-01	-5.79507922767E+01
7.56192384770E+10	1.83343703168E-01	-3.27676919743E+01	2.65292829350E-05	-2.28033261492E+01	3.79106155604E-05	9.66833919740E+01	2.45508062165E-01	-5.64419422523E+01
7.56252505010E+10	1.82772394570E-01	-3.17659363368E+01	6.04087591809E-05	1.45235084304E+02	7.21783578851E-05	1.35963367141E+02	2.46552042333E-01	-5.73219198297E+01
7.56312625251E+10	1.87575560351E-01	-3.40262931231E+01	5.97838320495E-05	1.68783696792E+02	4.71700094182E-05	1.17521468765E+02	2.44052496546E-01	-5.78264772595E+01
7.56372745491E+10	1.81879576316E-01	-3.13523720550E+01	2.80462861282E-05	-1.30200509929E+02	1.26063821625E-04	1.02792738261E+02	2.44503821911E-01	-5.78468054771E+01
7.56432865731E+10	1.83321174708E-01	-3.42978621070E+01	4.90704854496E-05	-2.07530938167E+01	7.13970696649E-05	5.51163379701E+01	2.48246471650E-01	-5.95734398844E+01
7.56492985972E+10	1.85022773440E-01	-3.46307602964E+01	3.07016273104E-05	-4.40304475178E+01	6.81891308217E-05	8.90988905893E+01	2.43812502827E-01	-5.81931359883E+01
7.56553106212E+10	1.87379274466E-01	-3.52552751761E+01	1.75041947894E-05	1.54461373840E+02	4.92743734416E-05	4.40808807698E+01	2.44293497726E-01	-5.94406777083E+01
7.56613226453E+10	1.84927487571E-01	-3.30345088447E+01	7.57547365150E-05	1.59297932976E+02	1.39316560199E-05	5.42278168507E+01	2.44564700495E-01	-6.01851419144E+01
7.56673346693E+10	1.82548223296E-01	-3.26043598767E+01	5.06678754150E-05	1.52735595112E+02	3.84999527557E-05	5.08941133735E+01	2.44677849787E-01	-5.92876982756E+01
7.56733466934E+10	1.83917925080E-01	-3.49696807099E+01	4.79863328507E-05	-2.79504669104E+01	1.55665431313E-04	2.07278356018E+01	2.43481989358E-01	-6.01574325579E+01
7.56793587174E+10	1.82689010601E-01	-3.43811624316E+01	3.55294673746E-05	-4.01667095338E+01	2.85682988032E-05	5.52248181335E+01	2.40139330871E-01	-5.96949988322E+01
7.56853707415E+10	1.81553833209E-01	-3.37827639204E+01	6.26011508038E-05	-9.92373427483E+01	2.96576110072E-05	-3.94890785312E+01	2.45880879299E-01	-6.18946762085E+01
7.56913827655E+10	1.84882421011E-01	-3.57146117079E+01	1.12538437753E-04	-1.38027617538E+02	4.25872647651E-05	-7.15473060451E+01	2.41377243858E-01	-6.05313513912E+01
7.56973947896E+10	1.85909410186E-01	-3.64750886585E+01	2.84085304561E-05	-7.47909671828E+01	2.62161354541E-05	-2.52577326435E+01	2.39404160084E-01	-6.04417715524E+01
7.57034068136E+10	1.86847427308E-01	-3.58185432113E+01	7.76399899232E-05	1.53821119366E+02	7.83998805230E-05	1.78764604852E+02	2.37960619519E-01	-6.02533567356E+01
7.57094188377E+10	1.83141089167E-01	-3.64407256484E+01	4.26365382329E-05	-1.67817091548E+02	8.43059504529E-05	-1.10657341562E+02	2.39756684075E-01	-6.15393186683E+01
7.57154308617E+10	1.83864016749E-01	-3.65659671601E+01	4.62047092354E-05	1.66259366287E+02	1.03627847157E-04	-1.63888255211E+02	2.39895662560E-01	-6.04323668341E+01
7.57214428858E+10	1.84805787761E-01	-3.58936878471E+01	4.03976763373E-05	1.54198113335E+02	1.01038494805E-04	-1.67945941325E+02	2.43646172793E-01	-6.27354450515E+01
7.57274549098E+10	1.83516822839E-01	-3.46087212976E+01	4.95290181390E-05	9.72129057847E+01	7.33471564500E-05	-1.53031812348E+02	2.40271635610E-01	-6.29718222386E+01
7.57334669339E+10	1.83776462342E-01	-3.73266696380E+01	9.64289868210E-05	1.14877250703E+02	1.30998832745E-04	1.25081381660E+02	2.42387053747E-01	-6.33892438691E+01
7.57394789579E+10	1.82289231618E-01	-3.71073319920E+01	3.90511627512E-05	9.02065065903E+01	2.79767064466E-05	1.35808663624E+02	2.39824826717E-01	-6.32911556263E+01
7.57454909820E+10	1.81052094252E-01	-3.54412544012E+01	7.37171553454E-05	4.73830245454E+01	7.75300221504E-05	1.45282542564E+02	2.36989280850E-01	-6.29062504928E+01
7.57515030060E+10	1.84303899934E-01	-3.64589015091E+01	6.93451502725E-05	9.91105985626E+01	5.14742662440E-05	9.46590672562E+01	2.42187551179E-01	-6.44074615667E+01
7.57575150301E+10	1.83309329852E-01	-3.69404302168E+01	1.58054827649E-05	1.15341719216E+02	1.07506406207E-04	1.20958473426E+02	2.39635707005E-01	-6.52634499974E+01
7.57635270541E+10	1.81934739014E-01	-3.76687290591E+01	3.56793774598E-05	1.58739579694E+02	8.83501108793E-06	-1.72729783519E+02	2.37158969053E-01	-6.57383049112E+01
7.57695390782E+10	1.83495754881E-01	-3.84107094398E+01	3.93157667141E-05	1.31509785242E+02	7.11462655548E-05	1.38436581612E+02	2.41513995722E-01	-6.52348817565E+01
7.57755511022E+10	1.83191291469E-01	-3.83237230814E+01	6.19630696399E-06	-3.15226684745E+01	9.46307674349E-05	1.49113722187E+02	2.37524591378E-01	-6.42941486955E+01
7.57815631263E+10	1.80667481563E-01	-3.68157873013E+01	4.02381065888E-05	7.23277455333E+01	9.79631264299E-05	1.43922587043E+02	2.35788453551E-01	-6.44500091207E+01
7.57875751503E+10	1.81882750775E-01	-3.86163166019E+01	5.07787973108E-06	1.56357696277E+02	7.28373500741E-05	1.20371337189E+02	2.35659224585E-01	-6.62440363264E+01
7.57935871743E+10	1.85336481942E-01	-3.92791044556E+01	4.31986775685E-05	4.05986078681E+01	1.31730280078E-04	9.70987806592E+01	2.37749143239E-01	-6.66374641077E+01
7.57995991984E+10	1.79870849419E-01	-3.93547238857E+01	2.49794594716E-05	-1.01631232421E+02	1.02490502305E-04	5.88382105591E+01	2.36686797167E-01	-6.60298814199E+01
7.58056112224E+10	1.82155386786E-01	-3.85893779973E+01	6.46428856448E-05	3.84151977872E+01	5.96948625513E-05	6.39692781936E+01	2.35049258455E-01	-6.60577963596E+01
7.58116232465E+10	1.84153333108E-01	-3.86411116023E+01	6.24229994569E-05	2.68764028250E+00	9.06934056661E-05	-4.39692549144E+01	2.34054188943E-01	-6.69938894352E+01
7.58176352705E+10	1.79374993733E-01	-3.76164178379E+01	2.47462514553E-05	1.58206073628E+02	6.42468016062E-05	8.54680195499E+01	2.32044269935E-01	-6.65064972381E+01
7.58236472946E+10	1.82062293555E-01	-3.99357464529E+01	6.12039590379E-05	3.48160779425E+01	4.76255283684E-05	-1.90415227511E+01	2.34378279580E-01	-6.77745623390E+01
7.58296593186E+10	1.80852030041E-01	-3.95929419220E+01	3.54168473550E-05	6.63171781041E+01	6.35327318216E-05	-7.55944029461E+01	2.37208703739E-01	-6.95333436001E+01
7.58356713427E+10	1.81825703075E-01	-4.03981147866E+01	6.02783202578E-05	1.03115694766E+02	3.58024522621E-05	1.01536776684E+02	2.31418541683E-01	-6.69007567059E+01
7.58416833667E+10	1.81247718065E-01	-4.01833772159E+01	5.60754778970E-05	4.26660213237E+01	8.48777986522E-05	1.23582113064E+01	2.30397348487E-01	-6.75391605806E+01
7.58476953908E+10	1.80749425672E-01	-4.17501593563E+01	8.60110535107E-05	6.20434771582E+01	2.44845335852E-05	-8.19585541397E+00	2.30824523423E-01	-6.95732070648E+01
7.58537074148E+10	1.80458600079E-01	-3.91594788976E+01	7.57935951406E-05	5.47224070852E+01	3.06756338641E-05	-1.16142909200E+01	2.34974420991E-01	-7.06395128834E+01
7.58597194389E+10	1.81895851796E-01	-4.02256049971E+01	1.19182415252E-04	9.79992547716E+00	2.66935829135E-05	1.70886501300E+02	2.31703851158E-01	-7.07866968269E+01
7.58657314629E+10	1.80388828428E-01	-4.05331904158E+01	3.51555692767E-05	-2.20327481325E+01	7.58986608748E-05	4.77741950768E+01	2.31589987146E-01	-6.91249211287E+01
7.58717434870E+10	1.77804329115E-01	-4.13133188240E+01	4.02627459668E-05	-2.44995199235E+01	9.21665084937E-05	-9.50539137959E+01	2.29939662770E-01	-6.86485831444E+01
7.58777555110E+10	1.77408530963E-01	-3.90460444256E+01	4.24097831149E-05	-7.10446438328E+01	6.48713188756E-05	-1.24203982413E+02	2.33156248030E-01	-7.11067222597E+01
7.58837675351E+10	1.77945200526E-01	-4.22845925194E+01	6.80392990955E-05	-8.21902518445E+01	4.23792905275E-05	1.68266134707E+02	2.31594701945E-01	-7.22643925494E+01
7.58897795591E+10	1.78041530299E-01	-4.05578639229E+01	5.27007837856E-05	-7.48471112258E+01	5.77446035132E-05	-4.02653947184E+01	2.30474682677E-01	-7.20878240837E+01
7.58957915832E+10	1.78996700610E-01	-4.21852295456E+01	7.35413320185E-05	-3.41231514232E+01	3.40099045815E-05	-3.22862385372E+01	2.27914887523E-01	-7.19977824390E+01
7.59018036072E+10	1.79187060777E-01	-4.14587724401E+01	5.78474581932E-05	-1.44365304000E+01	5.22321794448E-05	-6.79754499052E+01	2.29851059746E-01	-7.27162044518E+01
7.59078156313E+10	1.79001995800E-01	-4.22353040388E+01	2.45986457857E-05	-6.40483359668E+01	6.52922729179E-05	-8.15923809040E+01	2.27820685733E-01	-7.12646389130E+01
7.59138276553E+10	1.78532040433E-01	-4.36788265979E+01	6.54393679039E-05	-7.83452952658E+00	7.30686584162E-05	-1.14576011968E+02	2.29168523071E-01	-7.36300282107E+01
7.59198396794E+10	1.80991970457E-01	-4.27749074713E+01	8.29441808222E-05	-4.49502455927E+01	4.89207750549E-05	-9.24723409578E+01	2.29257475886E-01	-7.38678841958E+01
7.59258517034E+10	1.78744215165E-01	-4.23276448348E+01	1.20114815172E-05	2.62958860779E+00	7.28770089659E-05	1.63165384812E+02	2.27795353637E-01	-7.28568717593E+01
7.59318637275E+10	1.77975536519E-01	-4.29568310840E+01	1.65815412225E-05	3.93045089758E+01	4.12769774706E-05	1.71448608421E+02	2.27495524308E-01	-7.28727963142E+01
7.59378757515E+10	1.75167187849E-01	-4.23616128200E+01	3.67924076021E-05	-1.15464138086E+02	4.01674968447E-05	1.64778506979E+01	2.25547937790E-01	-7.32547075244E+01
7.59438877756E+10	1.79272324872E-01	-4.30042111696E+01	6.14571145568E-05	-1.56621187050E+02	3.04203235889E-05	3.48842561163E+01	2.27989515120E-01	-7.45638491350E+01
7.59498997996E+10	1.79255360590E-01	-4.33022883865E+01	1.44416609577E-05	1.04260561791E+02	4.44435351874E-05	1.40854777713E+02	2.25052113238E-01	-7.40843900721E+01
7.59559118236E+10	1.79156485358E-01	-4.39445461357E+01	5.78111662867E-05	1.31125634657E+02	1.94725176839E-05	-1.34612867345E+02	2.24373608427E-01	-7.40859915228E+01
7.59619238477E+10	1.77926968711E-01	-4.56649259807E+01	4.08721616404E-05	-3.96715104287E+01	5.99575157533E-05	1.57893875189E+02	2.22548274477E-01	-7.43778439764E+01
7.59679358717E+10	1.76772779221E-01	-4.37172589345E+01	6.55151697829E-05	-1.78503004423E+02	3.72307443500E-05	1.47914765326E+02	2.23699317833E-01	-7.61449385649E+01
7.59739478958E+10	1.78350557156E-01	-4.33975470110E+01	3.13942998040E-05	-1.48790571832E+02	4.76670620434E-05	-1.67478935468E+02	2.24734330472E-01	-7.64607475723E+01
7.59799599198E+10	1.77158570547E-01	-4.21692702139E+01	3.78839038667E-05	1.73783429094E+02	1.46238944620E-05	7.24966826885E+01	2.23095892846E-01	-7.49665060844E+01
7.59859719439E+10	1.74167652468E-01	-4.43370081410E+01	2.68884794996E-05	1.72333687373E+02	5.21984172998E-05	1.73197241779E+02	2.21290104666E-01	-7.55893430526E+01
7.59919839679E+10	1.77637416155E-01	-4.53890453815E+01	4.13652051828E-05	-5.28724522568E+01	1.90698548116E-05	1.36798039024E+02	2.23724342301E-01	-7.71351143911E+01
7.59979959920E+10	1.78892717240E-01	-4.55003348931E+01	4.78920902461E-06	1.29058254875E+02	5.43741988195E-05	-1.21010650152E+02	2.20742925368E-01	-7.73422205795E+01
7.60040080160E+10	1.76091699660E-01	-4.53565813956E+01	7.20591880464E-05	-1.07018794066E+02	2.49140113025E-05	-1.68863075180E+02	2.24770356266E-01	-7.89501610228E+01
7.60100200401E+10	1.76577876533E-01	-4.64375485599E+01	5.30760639911E-05	-1.53529669937E+00	1.63578634089E-05	1.67984428514E+02	2.18681128469E-01	-7.68243762083E+01
7.60160320641E+10	1.74932730142E-01	-4.53971063322E+01	4.93954947570E-05	-5.50495571251E+01	8.48363574605E-05	-1.64373052333E+02	2.20936272648E-01	-7.72173951127E+01
7.60220440882E+10	1.74935415625E-01	-4.58444704318E+01	5.10960140792E-05	1.70077735013E+02	1.44590963934E-05	-1.28849573971E+02	2.19654644014E-01	-7.74770271265E+01
7.60280561122E+10	1.75663375173E-01	-4.56179258835E+01	8.95804710293E-05	-1.64776395696E+02	1.60727318745E-05	-1.58521256853E+02	2.17930381340E-01	-7.88742277928E+01
7.60340681363E+10	1.74686845183E-01	-4.45863768626E+01	8.41707178245E-05	1.73088082409E+02	5.46310757231E-05	-1.49669086136E+02	2.17113721016E-01	-7.91202344982E+01
7.60400801603E+10	1.74374974332E-01	-4.55132171634E+01	2.73931603362E-05	-1.13744711297E+02	6.00189838748E-05	5.14435000976E+01	2.18237229172E-01	-7.95762755872E+01
7.60460921844E+10	1.73635009784E-01	-4.54843275154E+01	4.62856026512E-05	1.39587920262E+02	4.23875138575E-05	-1.64702707021E+02	2.16032436778E-01	-7.84076254972E+01
7.60521042084E+10	1.72389549309E-01	-4.59885033123E+01	7.35061059200E-05	1.76070478302E+02	1.52392125047E-05	1.56849189125E+01	2.16698893507E-01	-7.95467805942E+01
7.60581162325E+10	1.73145780103E-01	-4.60078068745E+01	6.41534728114E-05	3.93897111421E+01	2.70189123039E-05	1.28773159490E+02	2.19208944583E-01	-8.11592231089E+01
7.60641282565E+10	1.75465866390E-01	-4.77515872212E+01	5.59665276348E-05	4.14301040103E+01	4.09252918867E-05	-8.09561055267E+01	2.17546977638E-01	-8.20103914097E+01
7.60701402806E+10	1.72787566945E-01	-4.68885613975E+01	8.20866237964E-05	1.11538747388E+01	6.05476950816E-06	-9.52335490011E+01	2.13025042520E-01	-7.90702426065E+01
7.60761523046E+10	1.73531280967E-01	-4.81448649992E+01	1.87611779236E-05	-1.16708233551E+02	8.66052647062E-05	-1.68075557889E+02	2.13188261784E-01	-7.97089086723E+01
7.60821643287E+10	1.74675777082E-01	-4.66972090539E+01	1.38630311991E-05	-1.40943757988E+02	2.99521323894E-05	-4.37271464486E+01	2.12927972646E-01	-8.06410666864E+01
7.60881763527E+10	1.74267626297E-01	-4.67268164018E+01	2.50384316616E-05	-1.39691992217E+02	3.98845631041E-05	1.14026379342E+02	2.16906176351E-01	-8.33226510778E+01
7.60941883768E+10	1.71513368032E-01	-4.71901362477E+01	1.07828964175E-04	7.41228699680E+01	1.75032798604E-05	7.63527297161E+01	2.11689892997E-01	-8.12542131079E+01
7.61002004008E+10	1.72682180093E-01	-4.69844793637E+01	4.18731081637E-05	1.60457582501E+02	1.80343802901E-05	1.38977667759E+02	2.10529755087E-01	-8.11705147873E+01
7.61062124248E+10	1.75171596710E-01	-4.77875133901E+01	5.63977848076E-05	-5.79310498922E+01	2.46562378773E-05	-1.24461058201E+02	2.09377110149E-01	-8.10540328067E+01
7.61122244489E+10	1.71862469230E-01	-4.87858605111E+01	5.34740296127E-05	1.29748590299E+02	7.93373551769E-05	-1.14057712082E+02	2.10913378914E-01	-8.30887240801E+01
7.61182364729E+10	1.74430179672E-01	-4.77742250179E+01	7.74021866268E-05	-1.07445358332E+02	3.40427848612E-05	2.33920536727E+01	2.12516230975E-01	-8.39949127811E+01
7.61242484970E+10	1.70421758981E-01	-4.78759672153E+01	4.96896623859E-05	-1.42312416896E+02	3.06425704945E-05	1.50424124398E+02	2.08922550993E-01	-8.25807698521E+01
7.61302605210E+10	1.70833406631E-01	-4.66110534209E+01	7.90513291998E-05	7.73038760616E+01	9.20368546504E-05	1.25853624709E+02	2.08990162086E-01	-8.31374729635E+01
7.61362725451E+10	1.71439748888E-01	-4.99069403774E+01	7.01364391055E-05	3.50433897968E+01	8.18317100900E-05	5.80105272242E+01	2.09375772079E-01	-8.44530881943E+01
7.61422845691E+10	1.73939145170E-01	-5.11225957702E+01	6.13512750800E-05	2.34934889127E+01	2.24173438642E-05	9.36278515826E+01	2.06870474188E-01	-8.38800898115E+01
7.61482965932E+10	1.69077471600E-01	-4.98921480193E+01	2.68730262447E-05	-1.37274256377E+01	5.36933616614E-05	3.86174349224E+01	2.09503102574E-01	-8.50486079445E+01
7.61543086172E+10	1.73255455897E-01	-4.95771322792E+01	4.35169283934E-05	3.58940304743E+01	3.04105555925E-05	-1.19874675087E+02	2.07036837165E-01	-8.38618934080E+01
7.61603206413E+10	1.69579861508E-01	-4.62051544401E+01	2.10698316709E-05	7.96428178619E+01	4.01986593098E-06	-2.46464461067E+01	2.09608247776E-01	-8.57748803811E+01
7.61663326653E+10	1.69845913995E-01	-4.91089669968E+01	4.32146511088E-05	2.12405060244E+01	2.09854594580E-05	-1.11756912757E+02	2.08179650340E-01	-8.60443574817E+01
7.61723446894E+10	1.72616789036E-01	-5.04382460289E+01	5.14761507698E-05	5.10185413713E+01	3.89449162847E-05	-1.30274299990E+02	2.08361112325E-01	-8.68047332784E+01
7.61783567134E+10	1.71850979073E-01	-5.00380283941E+01	2.01794686645E-05	8.76165892120E+01	7.57649425426E-06	-1.78899856337E+02	2.06244736801E-01	-8.62381559276E+01
7.61843687375E+10	1.69797710203E-01	-5.02328867433E+01	4.91968978863E-05	3.78148006017E+01	5.91229097597E-05	-7.34264777502E+01	2.04859606645E-01	-8.66612012497E+01
7.61903807615E+10	1.70220639743E-01	-5.03504417777E+01	5.12114008945E-05	7.99215527003E+01	4.27669825591E-05	3.58419877701E+01	2.03329284706E-01	-8.62517683899E+01
7.61963927856E+10	1.70877729997E-01	-4.90863174718E+01	2.52313223448E-05	-1.05812266159E+02	2.35311463067E-06	1.57047909383E+02	2.03666233353E-01	-8.66810348054E+01
7.62024048096E+10	1.67718189400E-01	-5.05023190627E+01	2.81508770345E-05	1.16800197654E+02	4.54813671329E-05	-2.46218338592E+01	2.02211583619E-01	-8.59598586970E+01
7.62084168337E+10	1.68085995794E-01	-5.04522902702E+01	9.07064561113E-05	2.37739889706E+01	8.93869318654E-05	-7.11824881691E+01	2.01948772652E-01	-8.69218619351E+01
7.62144288577E+10	1.69154353511E-01	-5.12024118058E+01	7.84516023711E-05	-1.79439300162E+00	6.26990003046E-05	-1.72551552293E+02	2.04516326144E-01	-8.83038523499E+01
7.62204408818E+10	1.69987133258E-01	-5.19040312961E+01	1.03814069323E-04	-3.11224818109E+01	2.95307227062E-05	-1.54967063440E+02	2.02492543076E-01	-8.82004588907E+01
7.62264529058E+10	1.69737330044E-01	-5.28038060388E+01	6.30129883959E-05	-2.75372849183E+01	3.04015003735E-05	7.41096722422E+01	1.99856046368E-01	-8.75798000123E+01
7.62324649299E+10	1.68111833585E-01	-5.21853233910E+01	9.48445500846E-05	-8.02295125973E+01	2.05308064545E-05	-9.32353093937E+01	1.99647973828E-01	-8.75711712916E+01
7.62384769539E+10	1.66946168150E-01	-4.97441118631E+01	5.22675753687E-05	-4.12457911826E+01	9.24103237854E-05	-4.67098188977E+01	2.00339766282E-01	-8.90584995909E+01
7.62444889780E+10	1.66891469165E-01	-5.16793159500E+01	4.69464921008E-05	1.62299957590E+02	1.60226170017E-05	2.25371260675E+01	2.01074031214E-01	-8.98330722462E+01
7.62505010020E+10	1.69446041245E-01	-5.20814061178E+01	1.24100812388E-05	-1.71740839119E+01	1.29673424660E-05	1.04973357925E+02	2.01996419453E-01	-9.04707832938E+01
7.62565130261E+10	1.68377103729E-01	-5.21269649246E+01	2.57480290151E-05	-1.69389884248E+02	1.87364053683E-05	1.11598755193E+02	1.99173611467E-01	-8.99882303011E+01
7.62625250501E+10	1.67473277681E-01	-5.31650421010E+01	3.62509631810E-05	-1.66997524387E+02	3.25445616181E-05	1.17949911415E+02	1.99860676065E-01	-8.96737487081E+01
7.62685370741E+10	1.66930347100E-01	-5.10271347861E+01	4.07649092410E-05	5.38806198969E+01	4.19370330975E-05	-4.65906776683E+01	1.97022472714E-01	-8.97362381590E+01
7.62745490982E+10	1.66976281208E-01	-5.22432061073E+01	2.69715989028E-05	-1.61605689325E+01	4.48233994517E-05	-4.89056832746E+01	1.97788602201E-01	-8.99034848947E+01
7.62805611222E+10	1.69093205440E-01	-5.26470427825E+01	1.01340190443E-04	-1.07165044964E+02	7.95609813315E-05	-6.03612661282E+00	1.98302945440E-01	-9.16870056061E+01
7.62865731463E+10	1.67621949884E-01	-5.04204859584E+01	6.32374937825E-05	-1.28088904712E+02	1.24127108141E-04	-5.64147191077E+01	1.97854083435E-01	-9.18544672462E+01
7.62925851703E+10	1.66961211667E-01	-5.36825249019E+01	4.24784689167E-05	1.10514954886E+02	9.44162940292E-05	-1.27351768403E+02	1.94567060604E-01	-9.03580588557E+01
7.62985971944E+10	1.67816027339E-01	-5.20437016802E+01	4.68498858243E-05	4.17520018344E+01	1.37201151237E-05	-1.58409113497E+02	1.93389361046E-01	-9.02860504928E+01
7.63046092184E+10	1.66418963852E-01	-5.36440736510E+01	5.59194606428E-05	7.69885077196E+01	4.15887797141E-05	-7.75854118651E+01	1.95619429596E-01	-9.17965742251E+01
7.63106212425E+10	1.66828593765E-01	-5.31274576748E+01	6.14692404954E-05	4.26482564210E+01	5.70370332942E-05	-8.60790066212E+01	1.97526601837E-01	-9.35489081249E+01
7.63166332665E+10	1.64963152432E-01	-5.37761699410E+01	9.92622661342E-05	-1.60257791903E+02	1.52041016269E-05	-1.10478468407E+01	1.96257729864E-01	-9.35256077966E+01
7.63226452906E+10	1.69445859013E-01	-5.45460670528E+01	8.30311810571E-05	1.30907330134E+02	5.35204244557E-05	1.06796049552E+02	1.94937382258E-01	-9.33667824123E+01
7.63286573146E+10	1.65548692919E-01	-5.40124003576E+01	5.69167421366E-05	9.91796072356E+01	2.13556978443E-05	-8.28827680838E+01	1.92852353761E-01	-9.26538953760E+01
7.63346693387E+10	1.64878510770E-01	-5.49849338223E+01	7.11878002600E-05	1.52347867081E+02	2.71115803950E-05	6.82285259449E+01	1.95372520107E-01	-9.38711022088E+01
7.63406813627E+10	1.65410809516E-01	-5.46547972992E+01	7.13619952833E-05	1.23484551752E+02	3.84249864296E-05	-3.57250227661E+01	1.91919660553E-01	-9.39360854179E+01
7.63466933868E+10	1.68039512663E-01	-5.37604257931E+01	4.31039219645E-05	8.67143763528E+01	4.33022020082E-05	-1.09343307244E+02	1.92778443275E-01	-9.45167846406E+01
7.63527054108E+10	1.64725554997E-01	-5.29431751052E+01	7.87601417376E-05	1.37616137970E+02	2.30724047212E-05	1.24740183465E+02	1.93253518109E-01	-9.45899298140E+01
7.63587174349E+10	1.64177760727E-01	-5.31216732774E+01	6.25182341840E-05	-1.39794326634E+02	3.58704399098E-05	-1.58353333463E+01	1.91632964299E-01	-9.39230089525E+01
7.63647294589E+10	1.66058391894E-01	-5.36169243804E+01	4.80921750810E-05	3.86467269364E+01	2.84485236800E-05	-1.59453672050E+02	1.91814240854E-01	-9.49247629446E+01
7.63707414830E+10	1.66539863733E-01	-5.49624628486E+01	8.99971765167E-05	3.38384974110E+01	1.05467182299E-05	-8.99130161604E+01	1.92082795349E-01	-9.64641034909E+01
7.63767535070E+10	1.67085018099E-01	-5.62575855423E+01	9.26480701067E-05	4.81800814541E+01	3.31913954803E-05	-6.36616428159E+01	1.92052633648E-01	-9.62107035056E+01
7.63827655311E+10	1.65538280120E-01	-5.51301996542E+01	5.86776421736E-05	5.06786089977E+01	3.36235239049E-05	4.28663467358E+01	1.91744593529E-01	-9.66969347641E+01
7.63887775551E+10	1.65255287384E-01	-5.40359218714E+01	1.13933792164E-05	-1.71010463073E+02	2.24341028922E-05	-9.49502152310E+01	1.89700241424E-01	-9.59021136937E+01
7.63947895792E+10	1.64946460094E-01	-5.43562534091E+01	1.44360724803E-05	-1.73405369452E+02	3.26028287687E-05	-1.26329458067E+02	1.88252299252E-01	-9.55461196131E+01
7.64008016032E+10	1.62442024657E-01	-5.56690665569E+01	3.57653621929E-05	1.75302420883E+02	3.14813395393E-05	4.94544982604E+01	1.88034885861E-01	-9.67059771074E+01
7.64068136273E+10	1.67089532935E-01	-5.56605238753E+01	4.85082901318E-05	1.47670510183E+02	9.37357581215E-06	-1.37527295383E+01	1.88726994578E-01	-9.80710853488E+01
7.64128256513E+10	1.66353277890E-01	-5.79126939112E+01	3.08794750773E-05	6.81820509873E+01	1.27924163506E-04	1.73904473360E+02	1.88165488174E-01	-9.80197350264E+01
7.64188376754E+10	1.64606739626E-01	-5.66248681082E+01	5.69152522662E-05	8.18494113223E+01	2.43643047557E-05	-1.78241395087E+02	1.87282889391E-01	-9.73530393641E+01
7.64248496994E+10	1.63132443457E-01	-5.53928731800E+01	4.75321256170E-05	5.34556263514E+01	5.91166157625E-05	1.49122947195E+02	1.86918703475E-01	-9.88334716312E+01
7.64308617234E+10	1.64182909977E-01	-5.53923852673E+01	2.23628695335E-05	9.22395757661E+01	8.65306264654E-05	1.43036579399E+02	1.87544381881E-01	-9.94325422594E+01
7.64368737475E+10	1.64432986849E-01	-5.58397747894E+01	5.96998490483E-05	3.68088731327E+01	9.20899786051E-05	7.27697892693E+01	1.88596883027E-01	-9.98384622753E+01
7.64428857715E+10	1.65573459515E-01	-5.77312961049E+01	3.22150660608E-05	-6.49597660747E+01	4.15996973459E-05	6.83654700104E+01	1.86037497621E-01	-9.88776804483E+01
7.64488977956E+10	1.64573987802E-01	-5.86539857645E+01	4.54823161271E-05	6.60443216434E+01	1.69785974007E-05	1.07094216180E+02	1.84441931261E-01	-9.82635946370E+01
7.64549098196E+10	1.62869654549E-01	-5.78737253677E+01	2.85122570088E-05	1.49608128150E+02	3.33139982777E-05	-1.43495072574E+02	1.83710434798E-01	-9.82418258847E+01
7.64609218437E+10	1.61860176562E-01	-5.67030831649E+01	8.51422211930E-05	-1.01416774423E+02	4.82782137115E-05	2.18474382150E+01	1.86188503151E-01	-1.00961174017E+02
7.64669338677E+10	1.62986866060E-01	-5.72611232128E+01	3.40624740262E-05	-9.76919297432E+01	7.10101876223E-05	1.30117919250E+02	1.85170332776E-01	-1.01473798395E+02
7.64729458918E+10	1.64347108255E-01	-5.71646200554E+01	4.89615025646E-05	5.19008314439E+01	2.88617506186E-06	1.26126752093E+02	1.85191589734E-01	-1.01433378709E+02
7.64789579158E+10	1.64743156802E-01	-5.69557249959E+01	3.41284886797E-05	1.05952770087E+02	2.32101431729E-05	-4.99156911135E+01	1.82711825067E-01	-1.00572511830E+02
7.64849699399E+10	1.64837064852E-01	-5.72171954811E+01	3.39889411555E-05	-5.38610588073E+00	8.72656088963E-05	1.48138338881E+02	1.84442965055E-01	-1.02144455055E+02
7.64909819639E+10	1.63254808561E-01	-5.74366465632E+01	4.40134750371E-05	1.76490238827E+02	9.73508929420E-05	4.49728980665E+01	1.83162437190E-01	-1.02292264721E+02
7.64969939880E+10	1.64069914400E-01	-5.96338703395E+01	1.06906216432E-04	1.20734642102E+01	3.06125273502E-05	-2.56798270324E+01	1.82109610208E-01	-1.02883650131E+02
7.65030060120E+10	1.61933467387E-01	-5.80463261852E+01	4.61044209587E-05	1.41265817899E+02	5.52981367004E-05	2.78937951321E+01	1.81087023557E-01	-1.02751291907E+02
7.65090180361E+10	1.64125234692E-01	-5.84763205981E+01	4.50065182401E-05	-9.76440303363E+00	5.68863047973E-05	3.93004104520E+01	1.80565817957E-01	-1.03214354417E+02
7.65150300601E+10	1.63428219419E-01	-5.87958172370E+01	7.57943825274E-06	-1.73957262214E+01	5.39498134215E-05	1.29054940839E+01	1.80689385814E-01	-1.04125971587E+02
7.65210420842E+10	1.62630791515E-01	-6.05254586483E+01	1.07566360701E-04	1.86309228802E+01	6.10087986739E-05	-8.15250455930E+00	1.81613988455E-01	-1.04535429672E+02
7.65270541082E+10	1.61636310205E-01	-5.96030907706E+01	1.40231024555E-05	-4.55257442484E+01	2.27676556268E-05	1.28607191785E+01	1.79909454318E-01	-1.03943503991E+02
7.65330661323E+10	1.64410241345E-01	-6.07810476244E+01	1.25857296923E-04	-8.49856718228E+01	4.97353746963E-05	-1.49365839830E+02	1.79259722844E-01	-1.04264335786E+02
7.65390781563E+10	1.63353247443E-01	-5.96484967803E+01	6.92594155870E-05	-1.24892728916E+02	7.67587134015E-05	-8.59050753562E+01	1.77946094247E-01	-1.05002753027E+02
7.65450901804E+10	1.63918658108E-01	-5.86216274953E+01	1.15999796908E-04	-1.74993692750E+02	1.15369624453E-04	-8.69114724325E+01	1.77415594158E-01	-1.05636727622E+02
7.65511022044E+10	1.63384298663E-01	-6.00985419883E+01	3.33433624772E-05	-1.43113117303E+02	3.50312731560E-05	1.54484696156E+02	1.76997523650E-01	-1.06137353006E+02
7.65571142285E+10	1.62462471077E-01	-6.00711557810E+01	8.19268757826E-05	-1.72272329104E+02	5.22865600189E-05	-2.02839833335E+01	1.76158716449E-01	-1.05496728562E+02
7.65631262525E+10	1.63338509830E-01	-6.06747117113E+01	2.52136665531E-05	7.00655369649E+01	7.28895375526E-05	-1.22934614351E+02	1.77750796034E-01	-1.07340870778E+02
7.65691382766E+10	1.62520148343E-01	-6.03559012886E+01	2.54225779567E-05	-1.03024389257E+01	2.78563724242E-05	3.32319502480E+01	1.75870420882E-01	-1.08026611818E+02
7.65751503006E+10	1.62729923902E-01	-6.05557384390E+01	4.06844904610E-05	-4.70694852653E+00	9.38214016636E-06	1.17017879044E+02	1.76280734165E-01	-1.08012824156E+02
7.65811623246E+10	1.61664959747E-01	-6.01936341244E+01	4.69061736997E-05	4.46725872766E+01	1.02389314026E-04	-9.68353170520E+01	1.73756916420E-01	-1.07097632552E+02
7.65871743487E+10	1.62727378556E-01	-6.18682975292E+01	7.06476565963E-05	-8.74493227811E+01	4.77803945156E-05	-5.00418075482E+01	1.75184280163E-01	-1.09370140227E+02
7.65931863727E+10	1.61973486016E-01	-6.12697252338E+01	5.35231017055E-05	-1.20854700658E+02	4.83365008633E-05	-4.49252866204E+01	1.73599161743E-01	-1.08988447345E+02
7.65991983968E+10	1.63586236580E-01	-6.25512586763E+01	4.90511902372E-05	-5.52068037195E+01	3.75494543435E-05	-1.06943374785E+02	1.73537781664E-01	-1.09413798606E+02
7.66052104208E+10	1.62208218547E-01	-6.21748611707E+01	1.90872747288E-05	-8.52750510208E+01	5.59918983195E-05	-1.22751869699E+02	1.70757645138E-01	-1.08940171104E+02
7.66112224449E+10	1.58753722186E-01	-6.05476271656E+01	7.82769363763E-05	-1.45648283703E+02	5.95577417544E-05	-1.20035974882E+02	1.72089971556E-01	-1.10211382871E+02
7.66172344689E+10	1.61470872191E-01	-6.17767391430E+01	5.61580498441E-05	-1.58015233453E+02	1.67719577402E-05	-1.22350325014E+02	1.71831056942E-01	-1.10978816485E+02
7.66232464930E+10	1.61726096054E-01	-6.21225640040E+01	3.65719594548E-05	1.36139526555E+02	5.73108410380E-05	-1.36422503921E+02	1.71469144361E-01	-1.11639697643E+02
7.66292585170E+10	1.62222775389E-01	-6.25257981438E+01	4.09780066570E-05	-1.78118349054E+02	7.30421055010E-05	-1.62607983400E+02	1.70045473511E-01	-1.12177825006E+02
7.66352705411E+10	1.61716545172E-01	-6.26850690656E+01	6.45449614752E-05	1.67099015774E+02	5.77375956159E-05	1.39627928915E+02	1.67942557823E-01	-1.11178243305E+02
7.66412825651E+10	1.61823280269E-01	-6.34329939287E+01	5.85218081448E-05	4.44489066529E+00	6.01677556536E-05	-1.23758821820E+02	1.66795637679E-01	-1.11095016059E+02
7.66472945892E+10	1.61138120573E-01	-6.33554486822E+01	6.40972215084E-05	5.15284148488E+01	1.12348715848E-04	1.11733105051E+02	1.67223948319E-01	-1.11817340389E+02
7.66533066132E+10	1.61405155495E-01	-6.27607783185E+01	4.66245701114E-05	-4.59162568912E+00	1.31024284159E-04	1.05386671645E+02	1.68162826389E-01	-1.13155529989E+02
7.66593186373E+10	1.58281363710E-01	-6.22595556852E+01	7.38350001733E-05	2.15343062247E+00	2.64991987279E-05	6.95182678421E+01	1.66783956248E-01	-1.13967588716E+02
7.66653306613E+10	1.60964528184E-01	-6.33890755598E+01	3.56914760058E-05	-1.19881569471E+02	2.02555425747E-05	1.63211774617E+02	1.66225306550E-01	-1.14075378055E+02
7.66713426854E+10	1.61400437610E-01	-6.36432188088E+01	5.82447788236E-05	1.09322491079E+02	3.56439502393E-05	1.53884257712E+02	1.63519652326E-01	-1.13169200643E+02
7.66773547094E+10	1.62591928187E-01	-6.45020811385E+01	2.46333578203E-05	-1.51216235164E+02	1.12588497907E-04	7.19580839698E+01	1.63090776530E-01	-1.14992427420E+02
7.66833667335E+10	1.59998793091E-01	-6.33499079826E+01	3.04497038387E-05	-1.79462705127E+02	4.63854387509E-05	-1.75869087600E+02	1.65191126850E-01	-1.15629103471E+02
7.66893787575E+10	1.58436197567E-01	-6.37294294567E+01	6.02954308257E-05	-1.77863355560E+02	7.04590922999E-05	1.24935975131E+02	1.63112852346E-01	-1.14969907548E+02
7.66953907816E+10	1.61724690240E-01	-6.55813350604E+01	2.19636820790E-05	-3.85389504612E+01	1.13755349369E-04	1.09961168746E+02	1.62687844835E-01	-1.15457814222E+02
7.67014028056E+10	1.62018852004E-01	-6.52987344070E+01	4.42844240473E-05	6.96896438620E+01	5.63560350056E-05	-3.25743706430E+01	1.61836407789E-01	-1.16076911732E+02
7.67074148297E+10	1.60842400506E-01	-6.50471721326E+01	1.15125555118E-04	7.12920767916E+01	3.37044216985E-05	-1.63507683499E+02	1.61435226624E-01	-1.17159065617E+02
7.67134268537E+10	1.59265684887E-01	-6.52681235243E+01	9.23463009886E-05	2.48328043155E+01	6.84998765796E-05	5.02019715231E+01	1.58736588708E-01	-1.15859015017E+02
7.67194388778E+10	1.60504237657E-01	-6.57036659775E+01	5.14766154455E-05	2.97195766620E+01	5.72439333964E-05	5.40393218520E+01	1.58967410312E-01	-1.17891626562E+02
7.67254509018E+10	1.59729757776E-01	-6.51960352023E+01	1.31069188460E-05	-5.37106123153E+01	2.49241092359E-05	-2.29494518978E+01	1.59127204867E-01	-1.18100928711E+02
7.67314629259E+10	1.58684248934E-01	-6.56498950918E+01	3.43907284977E-05	-8.64101819502E+01	7.14394912181E-05	3.89019886658E+01	1.58842898939E-01	-1.18626722740E+02
7.67374749499E+10	1.58389503785E-01	-6.38657647675E+01	2.23563305812E-05	1.76012130521E+02	6.94189296293E-05	-1.01561259819E+02	1.56010401261E-01	-1.17982127225E+02
7.67434869739E+10	1.61391268993E-01	-6.59887858273E+01	7.55705328870E-05	1.45709276043E+02	5.24595670507E-05	6.57361024380E+01	1.54714149800E-01	-1.18004182334E+02
7.67494989980E+10	1.59839533674E-01	-6.61507727096E+01	2.52986787990E-05	3.75475689012E+01	2.69805334909E-05	1.15759877101E+02	1.55341263862E-01	-1.19905761373E+02
7.67555110220E+10	1.57694156106E-01	-6.68166196877E+01	3.10041789265E-05	-8.16028993435E+01	1.01529894225E-04	1.52421681866E+02	1.55711824682E-01	-1.20577032016E+02
7.67615230461E+10	1.56116810018E-01	-6.48239085257E+01	9.88368906385E-05	9.74889444341E+00	6.33068078493E-05	3.63025158857E+01	1.54793676182E-01	-1.21536962522E+02
7.67675350701E+10	1.59014740883E-01	-6.71755850454E+01	5.82486216896E-05	-9.64829133332E+00	3.53430450386E-05	6.22128030986E+01	1.52121043187E-01	-1.20063245960E+02
7.67735470942E+10	1.58846258762E-01	-6.62812076722E+01	4.33372162094E-05	-2.34672396411E+01	5.22961006882E-05	8.17203725912E+01	1.51640107140E-01	-1.19700273298E+02
7.67795591182E+10	1.58111822009E-01	-6.56211671819E+01	8.01421578826E-05	1.32552952076E+01	2.78109211170E-05	-1.20127810901E+02	1.51795178723E-01	-1.21606347054E+02
7.67855711423E+10	1.57512469739E-01	-6.51332005448E+01	7.47720632242E-05	-2.42332199417E+01	3.97867053474E-05	8.45135882252E+01	1.50788189357E-01	-1.22142919943E+02
7.67915831663E+10	1.57407079164E-01	-6.80009426619E+01	6.23574192858E-05	3.84525502768E+01	6.75039613761E-05	1.37682044729E+01	1.50564400741E-01	-1.21857877358E+02
7.67975951904E+10	1.58554627271E-01	-6.75469689209E+01	2.21075086040E-05	3.36815537775E+01	4.53633573034E-05	-5.64511070599E+01	1.49840884320E-01	-1.23348636686E+02
7.68036072144E+10	1.55369039025E-01	-6.79943887865E+01	1.09772054208E-04	-5.36081662713E+01	8.91211331146E-05	-4.25566487354E+01	1.49651018388E-01	-1.24296439807E+02
7.68096192385E+10	1.57006174956E-01	-6.72852196769E+01	4.38708822929E-05	-9.97380041523E+00	1.00813963832E-05	5.60680031408E+01	1.48498525518E-01	-1.24093674227E+02
7.68156312625E+10	1.57545664526E-01	-6.78717701024E+01	8.75094883926E-05	-3.19071857064E+01	8.71860781566E-05	4.26586275335E+01	1.46459841868E-01	-1.23023448069E+02
7.68216432866E+10	1.52797732769E-01	-6.49402639873E+01	9.59339217718E-05	-5.08113420312E+01	4.46433887057E-05	-6.33512448249E+00	1.45071858527E-01	-1.23905718228E+02
7.68276553106E+10	1.54955339879E-01	-6.73972121373E+01	1.10680276816E-04	-7.47096219692E+01	8.12933684130E-05	-2.80049279070E+01	1.44935264617E-01	-1.24255595507E+02
7.68336673347E+10	1.54580893173E-01	-6.67849252168E+01	1.84448007594E-05	-1.10743820099E+02	7.93132733638E-05	-2.43225183769E+01	1.45274456445E-01	-1.25351377575E+02
7.68396793587E+10	1.58430293690E-01	-6.89749041191E+01	3.58224460702E-05	-1.41871968905E+02	6.63504905011E-05	-8.19457880971E+01	1.43387695905E-01	-1.24978739216E+02
7.68456913828E+10	1.57765447163E-01	-6.87566702918E+01	3.50616450471E-05	-1.18898459082E+02	4.91304679346E-05	-7.23939143139E+01	1.43200027426E-01	-1.25517529959E+02
7.68517034068E+10	1.55745668577E-01	-6.74051296531E+01	2.49583894203E-05	-1.59622288715E+02	1.47143660389E-05	1.64208031633E+02	1.41616917077E-01	-1.25661915746E+02
7.68577154309E+10	1.54652501167E-01	-6.91683575995E+01	2.74410074684E-05	-9.89502955042E+01	5.08969701535E-05	1.09634995051E+02	1.42314106191E-01	-1.26841714061E+02
7.68637274549E+10	1.59582642946E-01	-7.09609581462E+01	2.44640785686E-05	-8.03353203872E+01	5.33902269867E-05	-1.21414144911E+02	1.41089109722E-01	-1.26336651920E+02
7.68697394790E+10	1.56316497239E-01	-6.95189696378E+01	4.82981817955E-05	-1.34310041755E+02	8.19030931094E-05	-1.55180754052E+02	1.40624526881E-01	-1.27095033770E+02
7.68757515030E+10	1.56998611138E-01	-6.93175919103E+01	5.87614082346E-05	-5.27045819400E+01	1.96592270324E-05	-1.53504363440E+02	1.38546335082E-01	-1.27214115623E+02
7.68817635271E+10	1.58230021746E-01	-6.97108053145E+01	7.21462856140E-05	-1.26776861119E+02	7.64541952974E-05	-1.31993788778E+02	1.37272123523E-01	-1.28411991975E+02
7.68877755511E+10	1.55136445976E-01	-6.91197274076E+01	1.55952986712E-05	-1.70939235340E+02	2.73107270611E-05	9.63030902140E+01	1.37296936441E-01	-1.29115768484E+02
7.68937875752E+10	1.57315389069E-01	-7.00048350103E+01	4.45430316318E-05	-1.65782412624E+02	6.00992863834E-05	-1.72274322284E+02	1.36051749589E-01	-1.27645131216E+02
7.68997995992E+10	1.54709343184E-01	-6.99211149755E+01	3.04485356756E-05	-1.27385336797E+02	1.09314890701E-04	-1.63634901866E+02	1.36278555846E-01	-1.29638210650E+02
7.69058116232E+10	1.56664230707E-01	-7.12522385406E+01	4.19772632809E-05	1.31655836420E+01	8.95519539007E-05	7.17408242624E+01	1.35123558015E-01	-1.30028505195E+02
7.69118236473E+10	1.55822831283E-01	-7.20518872522E+01	5.67505811044E-05	-5.60170101998E+01	8.13556977332E-05	-1.25535489745E+02	1.34570525139E-01	-1.30765835181E+02
7.69178356713E+10	1.57067895733E-01	-7.19370289862E+01	1.10403019469E-04	-1.18631526818E+02	7.88252646094E-05	-1.26772631956E+02	1.32029384791E-01	-1.28734049189E+02
7.69238476954E+10	1.53245255375E-01	-6.93012337054E+01	4.52694486594E-05	-8.46750582393E+01	1.07650557968E-04	-1.66459862564E+02	1.33006050639E-01	-1.30910049966E+02
7.69298597194E+10	1.58306664376E-01	-7.24609728315E+01	9.19107872534E-05	-1.65434219923E+02	4.49105366208E-05	-1.11065219170E+02	1.31955143315E-01	-1.31235320171E+02
7.69358717435E+10	1.53657968763E-01	-7.14512472404E+01	9.91044154476E-05	1.67137295364E+02	3.14239858919E-05	-1.39940803899E+02	1.31383694489E-01	-1.31447844215E+02
7.69418837675E+10	1.53318450725E-01	-7.13212822970E+01	1.20274720933E-04	1.30177310491E+02	5.57330946590E-05	-1.55823754917E+02	1.30098921827E-01	-1.32825470385E+02
7.69478957916E+10	1.56408169637E-01	-7.20571034845E+01	5.82451971300E-05	1.02985539792E+02	1.08775034170E-04	-1.48989175415E+02	1.29142582064E-01	-1.33377119812E+02
7.69539078156E+10	1.54845908767E-01	-7.17728657912E+01	3.04379941754E-05	1.35801315563E+02	5.24144195627E-05	1.71485415093E+02	1.29521024778E-01	-1.33380775562E+02
7.69599198397E+10	1.54099546346E-01	-7.25274309373E+01	5.50976221092E-05	1.76577607359E+02	7.85444531729E-05	-1.41503566713E+02	1.28190924202E-01	-1.32748647839E+02
7.69659318637E+10	1.57160645701E-01	-7.42334115375E+01	5.21518019294E-05	8.93263433764E+01	5.62781360730E-05	1.66741888261E+02	1.26422608331E-01	-1.33840199931E+02
7.69719438878E+10	1.53546538869E-01	-7.30149358273E+01	7.68423401235E-05	1.66541676343E+02	4.36278935664E-05	1.67209299266E+02	1.26167409193E-01	-1.34810219482E+02
7.69779559118E+10	1.53265104744E-01	-7.27493244842E+01	2.12856221127E-05	8.89187037961E+01	6.72792688389E-05	1.35849986467E+02	1.24188585762E-01	-1.34579087669E+02
7.69839679359E+10	1.52004229455E-01	-7.22101644465E+01	5.15750043246E-06	5.93325497720E+01	3.96318800768E-05	-1.77064099361E+02	1.22539916586E-01	-1.33428706313E+02
7.69899799599E+10	1.52762037241E-01	-7.29637589044E+01	1.49282157582E-05	-9.23722486765E+01	5.86160536040E-05	1.47478560368E+02	1.22846994771E-01	-1.35998017190E+02
7.69959919840E+10	1.51688431230E-01	-7.27634551162E+01	3.50181096945E-05	1.72949494907E+02	7.21327093735E-05	1.41885196447E+02	1.22147664136E-01	-1.36248716071E+02
7.70020040080E+10	1.53870588195E-01	-7.47710624220E+01	4.77271929892E-06	-1.46420697153E+02	8.79058846496E-05	8.07130509415E+01	1.21373810015E-01	-1.35486450586E+02
7.70080160321E+10	1.55069489140E-01	-7.58769923289E+01	7.55513020257E-05	1.03673125787E+02	7.28714853840E-05	1.14378800587E+02	1.20618185945E-01	-1.36709008848E+02
7.70140280561E+10	1.54445717128E-01	-7.43295428129E+01	1.38108804172E-04	5.75353038608E+01	1.19487951726E-04	1.09796875460E+02	1.19929907872E-01	-1.37730858459E+02
7.70200400802E+10	1.52623477613E-01	-7.39243428063E+01	9.65995554793E-05	1.20326018716E+02	5.84290833414E-05	7.01844189741E+01	1.18616981495E-01	-1.36648551497E+02
7.70260521042E+10	1.50595506529E-01	-7.41122022463E+01	2.05198680971E-05	-1.28071020403E+02	7.35848891156E-05	9.69484226604E+01	1.16177990091E-01	-1.36316093295E+02
7.70320641283E+10	1.52618886706E-01	-7.57377773504E+01	4.40946310369E-05	1.25999190385E+02	8.51426368894E-05	5.54149081118E+01	1.16361081883E-01	-1.38391357404E+02
7.70380761523E+10	1.54349013814E-01	-7.62141827348E+01	4.64063515979E-05	-2.62207826151E+01	8.64431808057E-05	6.08245162542E+01	1.16351534419E-01	-1.37914533613E+02
7.70440881764E+10	1.50045694620E-01	-7.45616270982E+01	2.05460483134E-05	1.66288924631E+02	1.22445443777E-04	8.15849029839E+01	1.14871236235E-01	-1.38599605199E+02
7.70501002004E+10	1.51464259257E-01	-7.46382365777E+01	5.95566750255E-05	4.05491293574E+01	9.68407198905E-05	7.13511419269E+01	1.14512637706E-01	-1.40120207430E+02
7.70561122244E+10	1.53590227201E-01	-7.55930101266E+01	9.47444165730E-05	-9.63329254076E+00	7.36934323418E-05	-4.65481056417E-01	1.13342081709E-01	-1.40208641064E+02
7.70621242485E+10	1.53654664296E-01	-7.64256555228E+01	8.37081656409E-05	-2.65107935896E+01	4.62343866722E-05	1.67546630092E+01	1.12594176133E-01	-1.41689676556E+02
7.70681362725E+10	1.52432143627E-01	-7.73275202500E+01	9.18071979752E-05	-1.17653732299E+02	6.91181673258E-05	4.06324703010E+01	1.12056340878E-01	-1.41297713962E+02
7.70741482966E+10	1.50335723772E-01	-7.52445093712E+01	8.29966798176E-05	2.95378465930E+01	4.53907107815E-05	-1.22514348957E+01	1.10851705185E-01	-1.40264617336E+02
7.70801603206E+10	1.50092166652E-01	-7.45585135558E+01	7.88329978533E-05	6.65154082861E+01	3.02743764988E-05	3.52919699647E+01	1.09466530408E-01	-1.40371226590E+02
7.70861723447E+10	1.49205666989E-01	-7.54691627137E+01	6.44349423135E-05	5.69906246032E+01	1.00753753003E-04	5.53384888685E+01	1.09620233731E-01	-1.42904141184E+02
7.70921843687E+10	1.50499535318E-01	-7.72016864779E+01	3.04704940897E-05	-3.54344523438E+01	1.30575612496E-04	4.76400843439E+01	1.09141900508E-01	-1.43848113266E+02
7.70981963928E+10	1.51652465921E-01	-7.56211211785E+01	1.87402439067E-05	2.59866921100E+01	1.02632692194E-04	1.64065779025E+01	1.08149927653E-01	-1.43775902383E+02
7.71042084168E+10	1.52585868771E-01	-7.69976804580E+01	8.42100143895E-05	5.32715959746E+01	1.13402411458E-04	2.87884612003E+01	1.05412200875E-01	-1.41149890790E+02
7.71102204409E+10	1.53825717589E-01	-7.80491838297E+01	3.58774009212E-05	-5.72027064943E+01	1.38476135582E-04	-1.26620766091E+01	1.05348214492E-01	-1.42701102826E+02
7.71162324649E+10	1.51166483822E-01	-7.78779205378E+01	3.29475045432E-05	-7.96153787001E+01	6.83066789701E-05	-4.89681936960E+01	1.04395132107E-01	-1.43354025347E+02
7.71222444890E+10	1.48554835191E-01	-7.83597483071E+01	1.20090901051E-04	7.04101997888E+00	6.61332640378E-05	-2.04038971110E+01	1.03729276855E-01	-1.44476724622E+02
7.71282565130E+10	1.49878107700E-01	-7.79638642408E+01	9.57321960697E-05	1.05408314821E+01	1.22521196747E-04	-1.73252939634E+01	1.03260980603E-01	-1.45562358749E+02
7.71342685371E+10	1.49032217779E-01	-7.68768587933E+01	1.08371828852E-04	-4.23441985186E+01	1.66551490457E-04	-6.59086599739E+01	1.01893647752E-01	-1.46119853248E+02
7.71402805611E+10	1.52934847059E-01	-7.83816203715E+01	1.05258895934E-04	-2.57704423167E+01	1.04227079598E-04	-5.23304022380E+01	1.00431491108E-01	-1.44657749776E+02
7.71462925852E+10	1.47667962345E-01	-7.79368934146E+01	8.62100201812E-05	-8.67899508223E+01	1.37635735077E-04	-4.98208574446E+01	1.00512479142E-01	-1.46012643713E+02
7.71523046092E+10	1.48332452350E-01	-7.76595483649E+01	3.09538249132E-05	-9.37960256771E+01	1.09529178813E-04	-7.00501511239E+01	9.89611103551E-02	-1.46920547175E+02
7.71583166333E+10	1.51916942427E-01	-7.90425018127E+01	1.58502835362E-05	-1.77240811882E+02	5.32248526539E-05	-7.78796620700E+01	9.89431787225E-02	-1.47256244730E+02
7.71643286573E+10	1.50419735317E-01	-7.94347515084E+01	6.03512544945E-05	-1.48518404615E+01	9.80877033378E-05	-1.04395126406E+02	9.77405109711E-02	-1.47175946947E+02
7.71703406814E+10	1.48349905653E-01	-7.91146151108E+01	9.64655065766E-05	-6.82747084782E+01	1.35477103707E-04	-9.63088047222E+01	9.52962623723E-02	-1.46556384863E+02
7.71763527054E+10	1.47598737889E-01	-7.89781054973E+01	7.66356208909E-05	-1.02808388952E+02	1.18656409055E-04	-7.00650372792E+01	9.65355993493E-02	-1.48237133667E+02
7.71823647295E+10	1.47391275997E-01	-7.80040850325E+01	1.05922394195E-04	-4.94377712181E+01	4.96529328614E-05	-1.04954339401E+02	9.34803718166E-02	-1.46132945405E+02
7.71883767535E+10	1.48175918534E-01	-7.96938224116E+01	7.77421220868E-05	-1.11862928096E+02	1.75707050854E-04	-1.12495781608E+02	9.29904107351E-02	-1.48027569966E+02
7.71943887776E+10	1.47565082801E-01	-8.07288833342E+01	1.11158357724E-04	-1.35669252418E+02	5.85941452327E-05	-1.50751087047E+02	9.37015610511E-02	-1.50147328371E+02
7.72004008016E+10	1.46762677136E-01	-8.04140381246E+01	2.44840845418E-05	-1.75898956561E+02	7.64116521513E-05	-8.12001992076E+01	9.26738735477E-02	-1.50026251235E+02
7.72064128257E+10	1.47182827593E-01	-7.96967976827E+01	1.96605009714E-05	-1.28393333372E+02	8.07244675513E-05	-1.25710645061E+02	9.05550208415E-02	-1.49038749355E+02
7.72124248497E+10	1.46573707314E-01	-7.95017126878E+01	5.47069351406E-05	-1.02730656841E+02	4.85546680581E-05	-1.60942679876E+02	8.87621785962E-02	-1.49389714338E+02
7.72184368737E+10	1.48501638568E-01	-8.20320136762E+01	1.26245759177E-05	3.96935168493E+01	6.47072004675E-05	-1.27744189489E+02	8.88299822353E-02	-1.50601268854E+02
7.72244488978E+10	1.47576726020E-01	-7.97999292593E+01	6.37812131280E-05	-1.50332571107E+02	1.04753821846E-04	1.62490165951E+02	8.94652405779E-02	-1.52505983353E+02
7.72304609218E+10	1.46763264720E-01	-8.05516037959E+01	1.14593572084E-04	-1.52470317730E+02	1.65072907269E-04	-1.76744485448E+02	8.61624753896E-02	-1.49172701132E+02
7.72364729459E+10	1.47489658426E-01	-8.16185327786E+01	7.40104763197E-05	-1.69426305010E+02	1.29201674456E-04	-1.73287417671E+02	8.63303013528E-02	-1.51341132415E+02
7.72424849699E+10	1.47916864028E-01	-8.24130847014E+01	6.06529652254E-06	-1.41116727176E+02	5.01291195584E-05	1.38296563516E+02	8.54106144249E-02	-1.50750697013E+02
7.72484969940E+10	1.47438763453E-01	-8.28985172838E+01	8.95950477633E-05	9.46983381386E+01	3.68437365357E-05	-1.47264896680E+02	8.46916542287E-02	-1.52206310873E+02
7.72545090180E+10	1.45918454490E-01	-8.13902587058E+01	3.88349376190E-05	-1.76163205163E+02	1.94808614935E-05	-1.29192104540E+01	8.45182862838E-02	-1.53829065204E+02
7.72605210421E+10	1.44157997293E-01	-8.05764916672E+01	4.19694675483E-05	-1.54883307772E+02	5.34501994242E-05	-1.74727791510E+02	8.36215236959E-02	-1.54838112916E+02
7.72665330661E+10	1.47739182528E-01	-8.34732598943E+01	2.93149933291E-05	1.59680872718E+02	1.15283828995E-04	-1.29459858353E+02	8.31185382149E-02	-1.55008936518E+02
7.72725450902E+10	1.45608440440E-01	-8.10058443784E+01	6.39813616093E-05	1.25321763817E+02	1.44710245088E-04	1.54578758440E+02	8.15632854786E-02	-1.54191360962E+02
7.72785571142E+10	1.47673588355E-01	-8.34509322159E+01	3.42057732293E-05	-3.72333482114E+01	6.86185277468E-05	9.29015049713E+01	8.08254853339E-02	-1.54208371221E+02
7.72845691383E+10	1.45456170780E-01	-8.39648722429E+01	2.25082964739E-05	1.74267766976E+02	2.60311678480E-05	1.19031407992E+02	7.91566810853E-02	-1.54425169081E+02
7.72905811623E+10	1.44068949687E-01	-8.28649184070E+01	5.07871230580E-05	-1.14647579145E+02	6.70312063682E-05	1.22623245239E+02	7.93404752586E-02	-1.55824762513E+02
7.72965931864E+10	1.43062071763E-01	-8.09886784009E+01	1.70911088952E-05	-1.52747008700E+02	7.75416312762E-05	1.54302924335E+02	7.77179607666E-02	-1.56013892762E+02
7.73026052104E+10	1.43790762306E-01	-8.21089034859E+01	5.16959426974E-05	1.50498768401E+02	5.73356096356E-05	1.39483338710E+02	7.65399798149E-02	-1.55696717599E+02
7.73086172345E+10	1.44181962648E-01	-8.30539204086E+01	9.39538898438E-05	1.36520958332E+02	1.48868069346E-04	1.17283702749E+02	7.45834973043E-02	-1.55120283855E+02
7.73146292585E+10	1.44426033726E-01	-8.31151792336E+01	3.17841669344E-05	1.07803807863E+02	2.11319126047E-05	-2.79560481040E+01	7.45600818093E-02	-1.56317717508E+02
7.73206412826E+10	1.45700899871E-01	-8.33663851816E+01	4.88172052271E-05	7.39451271189E+01	3.53389445491E-05	-4.91654094595E+01	7.50024160200E-02	-1.58893664611E+02
7.73266533066E+10	1.42368968180E-01	-8.28843165583E+01	4.91923337695E-05	-1.71105631413E+02	6.67812699081E-05	-1.16573828749E+02	7.33488257419E-02	-1.57446256964E+02
7.73326653307E+10	1.44522645718E-01	-8.38077100160E+01	6.86477469382E-05	-1.09286317886E+02	6.17730527332E-05	6.87179789124E+01	7.17497548905E-02	-1.56555726505E+02
7.73386773547E+10	1.44980451931E-01	-8.41928781467E+01	5.95170164993E-05	7.66103596245E+01	3.66483018190E-05	1.26417083369E+02	6.97840047342E-02	-1.56618852506E+02
7.73446893788E+10	1.43274756819E-01	-8.48484354586E+01	5.37380688484E-05	1.37434742613E+02	1.64783931297E-05	-1.76795659307E+02	7.07212996517E-02	-1.58839600243E+02
7.73507014028E+10	1.44709579111E-01	-8.58047395534E+01	6.16745520844E-05	-1.16431662256E+02	1.73104944663E-05	9.24480899300E+00	7.08364201040E-02	-1.59627053108E+02
7.73567134269E+10	1.41935801955E-01	-8.53660529417E+01	1.09976550915E-05	2.59017125650E+01	8.31006422364E-05	2.91123598853E+01	6.89229074800E-02	-1.58925495912E+02
7.73627254509E+10	1.41200128202E-01	-8.30915889046E+01	1.43735582461E-05	2.64133367633E+01	6.35910604144E-05	-5.20255067248E+00	6.76197633620E-02	-1.59222278440E+02
7.73687374749E+10	1.44667282054E-01	-8.48768242164E+01	6.24272985511E-05	1.35650515162E+02	6.93674745748E-05	2.60883622238E-03	6.63795017838E-02	-1.59539322335E+02
7.73747494990E+10	1.43894106122E-01	-8.49899012030E+01	7.96905973202E-05	1.60112378380E+02	3.85544454083E-05	-1.22333760964E+02	6.71754061234E-02	-1.61274658126E+02
7.73807615230E+10	1.41255456097E-01	-8.60753055745E+01	5.96148029458E-05	-1.26310717217E+02	5.62416976325E-05	1.12566989730E+02	6.63996183421E-02	-1.61694159701E+02
7.73867735471E+10	1.42469748610E-01	-8.53238117502E+01	5.64638889272E-05	1.51398166987E+02	4.04497000850E-05	1.64077105316E+02	6.55705991602E-02	-1.62446579544E+02
7.73927855711E+10	1.42662880644E-01	-8.43542393346E+01	6.01345039745E-05	7.79269624158E+01	1.49325169866E-05	-1.77440394777E+02	6.35974719961E-02	-1.62242906766E+02
7.73987975952E+10	1.41925924206E-01	-8.56997464054E+01	5.15898837362E-05	-2.06689648491E+01	2.49818032109E-05	-1.07229485994E+02	6.19284331338E-02	-1.61630401678E+02
7.74048096192E+10	1.41821616279E-01	-8.51710432778E+01	3.01938218880E-05	1.33215443982E+02	4.13471940088E-05	-9.61331646815E+01	6.21725894677E-02	-1.61656963549E+02
7.74108216433E+10	1.41932954916E-01	-8.66330480478E+01	7.72839118392E-05	-1.67714247722E+02	6.19692394549E-05	-9.05104441521E+01	6.06124790601E-02	-1.61507969703E+02
7.74168336673E+10	1.41027506368E-01	-8.68629145556E+01	8.97608730368E-05	1.43352329413E+02	6.65435121632E-05	1.69313343827E+02	5.98498209244E-02	-1.62849020361E+02
7.74228456914E+10	1.40033268711E-01	-8.52665999745E+01	1.07562901989E-04	1.14617355784E+02	6.45161948827E-05	1.20128999067E+02	6.03036374741E-02	-1.63072148509E+02
7.74288577154E+10	1.41380365379E-01	-8.79866443015E+01	9.09718858223E-05	8.27786182019E+01	1.00391513578E-04	3.01620421011E+01	5.91757681539E-02	-1.63801078059E+02
7.74348697395E+10	1.40336817730E-01	-8.70001539239E+01	2.14026206091E-05	9.92703714887E+01	3.83580815332E-05	2.38001502778E+01	5.86365708705E-02	-1.64479404370E+02
7.74408817635E+10	1.39939601343E-01	-8.63787282369E+01	6.34374480559E-05	3.75365427080E+01	3.53995220876E-05	3.13608889651E+01	5.59370521782E-02	-1.62785973248E+02
7.74468937876E+10	1.39471626528E-01	-8.54224213975E+01	3.03998332646E-05	-2.95650876488E+01	5.34650511765E-05	-5.90267861943E+01	5.61138324670E-02	-1.64215183374E+02
7.74529058116E+10	1.39649785995E-01	-8.75397471477E+01	4.90966749856E-06	1.22687095810E+00	4.57729785965E-05	-1.56619639422E+02	5.57126080282E-02	-1.64165745112E+02
7.74589178357E+10	1.38986100657E-01	-8.79535509965E+01	7.42618231458E-05	-8.76032512578E+00	4.84448873543E-05	2.68405223806E+01	5.42287983904E-02	-1.63564424711E+02
7.74649298597E+10	1.38302075549E-01	-8.73771011786E+01	6.85572522956E-05	-2.32557554445E+01	2.62891127897E-05	1.34355743351E+02	5.32379509910E-02	-1.64745361482E+02
7.74709418838E+10	1.40774253727E-01	-8.74998039933E+01	3.20554219766E-05	1.40524502216E+02	2.91311285760E-05	5.38551082285E+01	5.38143434193E-02	-1.66385650864E+02
7.74769539078E+10	1.42820137769E-01	-8.74036781273E+01	6.68696332521E-05	8.17194456585E+01	3.53089247417E-05	4.20456480485E+01	5.17047839496E-02	-1.64971293443E+02
7.74829659319E+10	1.39127822344E-01	-8.70384521479E+01	8.06101676410E-05	3.50417793617E+01	1.24974523534E-05	1.63505356549E+02	5.09155319230E-02	-1.65101191171E+02
7.74889779559E+10	1.39188421557E-01	-8.86632972938E+01	1.11356526819E-04	6.25264565440E+00	4.71696233005E-05	1.50755923677E+01	5.04911103694E-02	-1.65678560326E+02
7.74949899800E+10	1.38164262118E-01	-8.85947636029E+01	8.07666676100E-05	-3.33603545016E+00	1.02355322068E-04	-7.72926122865E+00	4.99221657801E-02	-1.67268540429E+02
7.75010020040E+10	1.36345786050E-01	-8.90886342316E+01	6.91547913970E-05	-7.58193603185E+01	9.02903733582E-05	-4.33255279149E+00	4.95770840345E-02	-1.66974536637E+02
7.75070140281E+10	1.39698536751E-01	-8.87729712979E+01	8.13218015333E-05	-3.84743345109E+01	4.25527671507E-06	3.85959701096E+01	4.77154201366E-02	-1.66238451365E+02
7.75130260521E+10	1.38862851925E-01	-8.78988875789E+01	7.58768435288E-05	-5.68356082966E+01	8.07527200031E-05	-6.82314569277E+01	4.74857716963E-02	-1.67986226160E+02
7.75190380762E+10	1.37166461199E-01	-8.80081121202E+01	7.97125792254E-05	-1.02994942274E+01	6.25202454775E-05	-1.69294995300E+02	4.63385538675E-02	-1.67830393148E+02
7.75250501002E+10	1.39611450960E-01	-8.88490125251E+01	3.88362216150E-05	-1.97009142679E+01	1.27403949418E-05	1.01141220587E+02	4.57665221538E-02	-1.67874748815E+02
7.75310621242E+10	1.36159592510E-01	-8.72033014814E+01	5.47613322532E-05	-5.09771172129E+01	5.07690423210E-05	4.94187964684E+01	4.50893295477E-02	-1.67432140242E+02
7.75370741483E+10	1.36374509901E-01	-8.86395589833E+01	1.92029429118E-05	-7.62145295420E+01	2.22371370052E-05	-3.67515881173E+01	4.54261704629E-02	-1.69028840527E+02
7.75430861723E+10	1.38396362442E-01	-8.79256474727E+01	6.12631498864E-05	-9.75145342529E+01	5.28316618886E-05	-4.52606646519E+01	4.41146121590E-02	-1.69084278114E+02
7.75490981964E+10	1.39479463704E-01	-8.84371988265E+01	7.16800988668E-05	-6.71272023864E+01	2.84890504480E-05	-7.15320470161E-02	4.30438798807E-02	-1.69684591298E+02
7.75551102204E+10	1.38748409878E-01	-8.97684556411E+01	5.64333242244E-05	-1.49054390979E+02	6.97154013925E-05	-1.67234947832E+01	4.19503377760E-02	-1.69568994869E+02
7.75611222445E+10	1.37693093914E-01	-8.92400301866E+01	1.07120690344E-04	-1.01531545936E+02	7.17286103747E-05	-9.17395258340E+01	4.16142040389E-02	-1.69882708976E+02
7.75671342685E+10	1.37463064589E-01	-8.82435338470E+01	7.01912058923E-05	-1.14274773966E+02	2.00918496267E-05	3.33754384067E+01	4.01520489988E-02	-1.69760189599E+02
7.75731462926E+10	1.35914460405E-01	-9.04229562107E+01	6.24702765143E-05	-9.28337613373E+01	4.64135400182E-05	-2.52279584729E+00	4.00806669524E-02	-1.70752896134E+02
7.75791583166E+10	1.35921211445E-01	-9.05284143798E+01	2.74797886703E-05	-5.45358896092E+01	5.50650118432E-05	-1.09177705262E+02	3.98649857501E-02	-1.71266582523E+02
7.75851703407E+10	1.36239997134E-01	-9.10309936685E+01	5.66854801078E-05	-1.05283720489E+02	1.26916027155E-05	-1.16885198351E+01	3.80314730514E-02	-1.71028060361E+02
7.75911823647E+10	1.36612915843E-01	-8.94369659396E+01	7.50190500689E-05	-1.37245915645E+02	7.48305285298E-05	-5.24225814436E+01	3.74314523031E-02	-1.71411533062E+02
7.75971943888E+10	1.34614760543E-01	-8.93223608503E+01	1.13147583338E-04	-9.03961080784E+01	9.94614088883E-05	-6.53459137055E+01	3.72535518524E-02	-1.71914973766E+02
7.76032064128E+10	1.34629616318E-01	-8.95542372409E+01	1.10646485155E-04	-1.61299407000E+02	4.83553572255E-05	-9.92307864102E+01	3.73807355263E-02	-1.73323390705E+02
7.76092184369E+10	1.36099032040E-01	-9.04988061494E+01	8.81536973250E-05	-1.50936572263E+02	4.35352616112E-05	-1.39519531375E+02	3.63323128614E-02	-1.73381850656E+02
7.76152304609E+10	1.38589207780E-01	-9.15675394738E+01	8.89387041131E-05	-1.51826368796E+02	9.93027342193E-06	1.65547098081E+02	3.50675523708E-02	-1.74016778580E+02
7.76212424850E+10	1.35920695931E-01	-9.15566229497E+01	1.97836181809E-05	1.44016276703E+02	5.47651281404E-05	-9.09319369669E+01	3.41982354491E-02	-1.73566178396E+02
7.76272545090E+10	1.35601350790E-01	-9.05595572619E+01	4.04636478804E-05	-1.41918203176E+02	5.41598688105E-05	-1.07700576230E+02	3.40791465873E-02	-1.74180086422E+02
7.76332665331E+10	1.37453033992E-01	-9.24365386733E+01	6.31125636171E-05	-1.64463263956E+02	7.34096572158E-05	-1.10048998145E+02	3.33915280984E-02	-1.73855224651E+02
7.76392785571E+10	1.36359984916E-01	-9.18701654777E+01	6.46348631495E-05	1.63020317370E+02	6.45580519322E-05	-1.58894091402E+02	3.18200728790E-02	-1.73947304755E+02
7.76452905812E+10	1.36507154265E-01	-9.19535694794E+01	4.05616286991E-05	1.61018882607E+02	1.72988952236E-05	1.21809269794E+02	3.17527194841E-02	-1.76796678029E+02
7.76513026052E+10	1.36044018034E-01	-9.29212789136E+01	3.45967851281E-05	1.74871952142E+02	2.40186655610E-05	-1.48791134739E+02	3.07057893080E-02	-1.76148858920E+02
7.76573146293E+10	1.37635110948E-01	-9.24447686971E+01	4.78073816860E-05	-1.23080015377E+02	7.70443983201E-05	-1.53805285575E+02	2.96582373637E-02	-1.74466156403E+02
7.76633266533E+10	1.35189815230E-01	-8.99294901841E+01	7.41573772964E-05	1.71923292478E+02	8.38456618911E-05	-1.47062066491E+02	2.97297936760E-02	-1.76534263535E+02
7.76693386774E+10	1.35994315556E-01	-9.27418335858E+01	1.01027553683E-04	1.71244317817E+02	9.06827524171E-05	-1.49698753618E+02	2.90097708379E-02	-1.76946027906E+02
7.76753507014E+10	1.35328930123E-01	-9.44695147783E+01	3.50095236704E-05	-1.09697100343E+02	1.74128935417E-04	-1.68767282955E+02	2.78066604868E-02	-1.77250330812E+02
7.76813627255E+10	1.33289085785E-01	-8.94351965454E+01	9.46735712945E-05	1.51682423163E+02	7.04831196680E-05	1.56674629321E+02	2.70938616876E-02	-1.77972305928E+02
7.76873747495E+10	1.37569447207E-01	-9.21612085951E+01	1.19451656055E-04	1.04421347368E+02	6.89395290221E-05	1.35032115819E+02	2.65747953387E-02	-1.79367856251E+02
7.76933867735E+10	1.33752633467E-01	-9.20255140072E+01	9.20851153307E-05	1.15937892240E+02	8.46901750127E-05	1.71203733002E+02	2.56873647929E-02	-1.79226706608E+02
7.76993987976E+10	1.35226695939E-01	-9.25056510628E+01	5.04608427542E-06	-4.48563953182E+00	9.27963133040E-05	1.43472843698E+02	2.50642319075E-02	-1.78476139540E+02
7.77054108216E+10	1.34470073455E-01	-9.27716831732E+01	8.06977981108E-05	8.75632900233E+01	6.34816301573E-05	1.36765200761E+02	2.43678592151E-02	-1.79912160661E+02
7.77114228457E+10	1.35810733648E-01	-9.41597811524E+01	5.51854789655E-05	8.61983529952E+01	6.53839765256E-05	1.10156550971E+02	2.36384799476E-02	1.79475481797E+02
7.77174348697E+10	1.32363249149E-01	-9.11802666119E+01	9.70172046673E-05	1.14506342247E+02	8.83966856526E-05	1.07179958779E+02	2.30040783239E-02	1.79133347422E+02
7.77234468938E+10	1.32567232117E-01	-9.35340593662E+01	3.56159727613E-05	2.74338234499E+01	6.82114025939E-05	7.80762036763E+01	2.21340034644E-02	1.78917730470E+02
7.77294589178E+10	1.35949903872E-01	-9.50024210811E+01	6.47744911320E-05	4.30592976843E+01	5.25515119229E-05	8.80748356662E+01	2.14767244407E-02	1.77492032856E+02
7.77354709419E+10	1.32307766531E-01	-9.37488367904E+01	2.86120274778E-05	4.12906911450E+01	1.06724823237E-04	1.09004419070E+02	2.04337305295E-02	1.77116831113E+02
7.77414829659E+10	1.32739363655E-01	-9.32738149539E+01	1.86965770406E-05	-5.99636490187E+01	2.30105722500E-05	7.78051085097E+01	1.98499058759E-02	1.76173001977E+02
7.77474949900E+10	1.33069086072E-01	-9.40924561339E+01	2.16522866773E-05	-2.50446978065E+01	1.17342023619E-04	1.14456907663E+02	1.92652881343E-02	1.77391619108E+02
7.77535070140E+10	1.33277314312E-01	-9.38702691802E+01	6.55556403111E-05	4.19552211845E+01	1.05445259985E-04	1.02702428387E+02	1.85347559211E-02	1.75700914596E+02
7.77595190381E+10	1.33828603529E-01	-9.53586103273E+01	5.45524028686E-05	6.27338662685E+01	1.05047996413E-04	6.67893446685E+01	1.77985184436E-02	1.74279877035E+02
7.77655310621E+10	1.32330039489E-01	-9.57577192253E+01	4.59055394936E-05	7.95727970987E+01	1.13530293089E-04	4.44633020483E+01	1.72646093874E-02	1.73087530279E+02
7.77715430862E+10	1.32571085279E-01	-9.45900266305E+01	3.95024645048E-05	-1.04919014055E+02	4.57040060494E-05	6.60800283733E+01	1.64749969321E-02	1.71550128750E+02
7.77775551102E+10	1.32778336258E-01	-9.39251978768E+01	3.75185224577E-05	-1.64963984926E+02	6.97534132646E-05	7.66136136026E+01	1.53509177552E-02	1.74030572851E+02
7.77835671343E+10	1.33684850970E-01	-9.57905600797E+01	3.08355872078E-05	-3.47577788036E+01	3.06214705423E-05	2.81928953933E+01	1.49273224788E-02	1.71077249894E+02
7.77895791583E+10	1.32401591149E-01	-9.49122071895E+01	4.47376402427E-05	-5.50913713950E+01	3.21491862488E-05	7.14554154154E+01	1.41773264346E-02	1.69968703918E+02
7.77955911824E+10	1.34175050099E-01	-9.68804263558E+01	4.15893641624E-05	-9.48276509431E+00	8.53437010377E-05	-1.92283940722E+00	1.32767385996E-02	1.70187324584E+02
7.78016032064E+10	1.32418578960E-01	-9.64715615285E+01	4.56827905998E-05	-1.04103490938E+02	4.02961332823E-05	2.50144880050E+01	1.26205470159E-02	1.70161848084E+02
7.78076152305E+10	1.31019950106E-01	-9.49861793751E+01	5.17664335878E-05	-1.75179199495E+02	5.73250265346E-05	7.66288377994E+01	1.17640349975E-02	1.68186737328E+02
7.78136272545E+10	1.32845326434E-01	-9.52003038025E+01	2.81603898323E-05	-1.45285883366E+02	1.27797268797E-04	5.28988529727E+01	1.05256061103E-02	1.70366233079E+02
7.78196392786E+10	1.30992174727E-01	-9.23555019168E+01	2.29629384327E-05	9.64541983052E+01	7.87506269304E-05	4.64941832147E+01	1.01481467269E-02	1.69052675120E+02
7.78256513026E+10	1.32642214001E-01	-9.59536695927E+01	7.91807611775E-05	7.93973973579E+01	7.85926845655E-05	3.94950007481E+01	9.92304989774E-03	1.64686940021E+02
7.78316633267E+10	1.30386884393E-01	-9.61830434116E+01	2.51008053883E-05	-1.75225739789E+02	1.07734451465E-04	1.99754674528E+01	8.86708230268E-03	1.64839916361E+02
7.78376753507E+10	1.31480201362E-01	-9.58807525736E+01	1.63794504874E-05	2.56387964786E+01	1.12762065417E-04	2.02873948400E+01	8.22907466784E-03	1.63419198814E+02
7.78436873747E+10	1.33108140041E-01	-9.73735260783E+01	4.75941882041E-05	6.81112665196E+01	1.16921379983E-04	9.55005099670E-02	7.41675600921E-03	1.63857297735E+02
7.78496993988E+10	1.32801871779E-01	-9.73072903880E+01	2.81712268503E-05	1.91279808859E+01	1.25838499078E-04	-3.07865218519E+01	7.26312860093E-03	1.57558613414E+02
7.78557114228E+10	1.29926649391E-01	-9.69230529971E+01	3.22495708435E-05	-1.22072686923E+02	6.56791427743E-05	-6.66135946860E+01	6.01719917290E-03	1.58384656923E+02
7.78617234469E+10	1.30368025068E-01	-9.66019456619E+01	9.58217644434E-05	-1.06138360828E+02	8.22933666000E-05	-9.82589359537E+01	5.76642046587E-03	1.54376906046E+02
7.78677354709E+10	1.30399037997E-01	-9.59086490694E+01	9.74091711718E-05	-1.65671069049E+02	2.82943108929E-05	-1.64482977300E+02	4.93204159998E-03	1.51045227923E+02
7.78737474950E+10	1.31353285023E-01	-9.71649680855E+01	2.72907978350E-05	1.00965954776E+02	5.98829316710E-05	-6.00955958577E+01	4.17226536154E-03	1.47424505033E+02
7.78797595190E+10	1.31602494267E-01	-9.80782452385E+01	3.23281175819E-05	1.08795252525E+02	7.42707746126E-05	-5.45800803998E+01	3.80415870152E-03	1.39843053492E+02
7.78857715431E+10	1.30627612975E-01	-9.95221593760E+01	5.23053875854E-05	1.01770257518E+02	6.86801587001E-05	-5.50785085213E+01	3.10671152651E-03	1.30951557863E+02
7.78917835671E+10	1.32074676689E-01	-9.91400602481E+01	4.31546468336E-06	-4.64705714711E+00	1.64504237709E-04	-5.15389322099E+01	2.75773023825E-03	1.19550366534E+02
7.78977955912E+10	1.32076916855E-01	-9.93503860608E+01	8.95884879943E-05	-1.64714974220E+01	1.62582879163E-04	-9.68291891843E+01	2.19928619212E-03	1.05496952605E+02
7.79038076152E+10	1.30663107173E-01	-9.93622508694E+01	2.58011593149E-05	-4.54918132065E+01	4.65569346319E-05	-1.07959957574E+02	1.83317932359E-03	8.48752380408E+01
7.79098196393E+10	1.29623167097E-01	-9.69634965056E+01	3.30877801564E-05	-1.07021523328E+02	1.57507904830E-05	-6.26397022624E+01	1.95910254490E-03	6.65727657538E+01
7.79158316633E+10	1.29707642386E-01	-9.75747245063E+01	4.26791541649E-05	1.76895190707E+02	5.57175102791E-05	-1.29917492462E+02	2.14954432685E-03	5.12244358423E+01
7.79218436874E+10	1.30571562566E-01	-9.96382463593E+01	1.41228141002E-05	1.23886175982E+02	6.38898378498E-05	-9.99267034589E+01	2.53648805418E-03	5.03711422783E+01
7.79278557114E+10	1.31035729544E-01	-1.00303854383E+02	1.83891162806E-05	-9.79439248109E+01	3.10699362266E-05	-1.07471360985E+02	3.29277996130E-03	2.12834185266E+01
7.79338677355E+10	1.33537906456E-01	-1.01502282531E+02	3.23449960825E-05	-3.34609337714E+01	3.99165008927E-05	-6.80287958691E+01	3.78017665316E-03	2.15796086010E+01
7.79398797595E+10	1.30248386514E-01	-9.98873363757E+01	5.25493621094E-05	-1.52819033625E+02	7.88705807412E-05	-1.47690242052E+02	4.25292338616E-03	1.91965985572E+01
7.79458917836E+10	1.27744113027E-01	-9.74174206550E+01	5.79439832086E-06	-1.28659391308E+02	9.62130156483E-05	1.59203529971E+02	5.17035947083E-03	1.54997343105E+01
7.79519038076E+10	1.27127699674E-01	-9.90566606517E+01	5.49916709675E-05	1.68382577876E+02	4.65446580288E-05	1.64020574240E+02	5.67467436626E-03	1.22229224069E+01
7.79579158317E+10	1.28507785257E-01	-9.88787710248E+01	3.84801104410E-05	-1.63411376126E+02	2.78123470304E-05	1.73714457053E+02	6.10756900448E-03	1.07125026376E+01
7.79639278557E+10	1.30286994228E-01	-1.00597163475E+02	1.22098970739E-04	-1.20781916757E+02	6.45370870432E-05	-4.50244014432E+01	6.97493908143E-03	6.46241128494E+00
7.79699398798E+10	1.29059070737E-01	-1.01528165522E+02	4.60752603601E-05	1.16090837151E+02	5.42654346992E-05	-1.54144062028E+02	8.71702808841E-03	-2.43149304596E+00
7.79759519038E+10	1.28382472028E-01	-1.01312681821E+02	4.03968728054E-05	5.23283919039E+01	3.88992296133E-05	1.47770933491E+02	8.26150752229E-03	1.79133801132E+00
7.79819639279E+10	1.30901128616E-01	-1.02219144817E+02	5.04912327146E-05	7.16084032758E+00	2.42028161087E-05	5.93164707240E+01	8.66835911107E-03	1.68727319279E+00
7.79879759519E+10	1.28600613710E-01	-1.01007612699E+02	5.91688081960E-05	-9.92607176324E+01	3.52124029205E-05	-1.76546971661E+01	1.01912785021E-02	-3.83233983383E+00
7.79939879760E+10	1.28830328668E-01	-1.00740009734E+02	1.43228645566E-05	-1.27021511714E+02	9.74406697248E-05	-4.61835487945E+01	1.02771179904E-02	-4.52823347790E+00
7.80000000000E+10	1.27901987650E-01	-1.01448341270E+02	2.53098389608E-05	-9.04989891164E+01	5.27312536163E-05	-8.21354005291E+01	1.01068800913E-02	-2.59073371604E+00
