# Hz S MA R 50
! CMT, C4420, 21421029, 25.1.2/3
! Date: 8/11/2025 11:16:44 AM
! Data: Format (Calibration Info)
! Freq	S33:Mag/Ang(F2)	S43:Mag/Ang(F2)	S34:Mag/Ang(F2)	S44:Mag/Ang(F2)
7.50000000000E+10	2.37918910018E-01	-2.77934218852E+01	5.12472179319E-04	1.36791350823E+02	6.02898753540E-04	1.17272439148E+02	1.90335587109E-01	-5.22615367501E+01
7.50060120240E+10	2.38399979978E-01	-2.77672098290E+01	6.13883276228E-04	1.22509099406E+02	5.59569975403E-04	1.03622242024E+02	1.85749149832E-01	-5.00691463085E+01
7.50120240481E+10	2.43779546359E-01	-3.11532419509E+01	5.69603796910E-04	1.15519878470E+02	4.61139414942E-04	1.05357679736E+02	1.88826238484E-01	-5.31538580905E+01
7.50180360721E+10	2.42426130232E-01	-3.16115869264E+01	4.65719285774E-04	1.10151651890E+02	4.91856111073E-04	9.39414092522E+01	1.87130538276E-01	-5.32765142993E+01
7.50240480962E+10	2.40013447122E-01	-3.01651719825E+01	4.97270267610E-04	1.10073281359E+02	4.61635200316E-04	9.84772037509E+01	1.87173289339E-01	-5.40879136604E+01
7.50300601202E+10	2.38454239970E-01	-2.96344039485E+01	4.80306919974E-04	1.07565191490E+02	4.83122202434E-04	9.03766964656E+01	1.85311531822E-01	-5.30413814454E+01
7.50360721443E+10	2.41194242391E-01	-3.07802483136E+01	5.47442983939E-04	9.33189717833E+01	5.18968036237E-04	9.20568508925E+01	1.81911656104E-01	-5.19572557500E+01
7.50420841683E+10	2.40530710455E-01	-3.18314044503E+01	5.10765626141E-04	1.01706824050E+02	4.93185881793E-04	8.85283755306E+01	1.81834753908E-01	-5.21381239900E+01
7.50480961924E+10	2.38250256208E-01	-3.26377248573E+01	5.91174029266E-04	8.96930483044E+01	5.86716298409E-04	7.46768505092E+01	1.81266163950E-01	-5.45477974206E+01
7.50541082164E+10	2.34950261088E-01	-3.15083267835E+01	6.53391079110E-04	8.07519132460E+01	5.72687060010E-04	5.91446682869E+01	1.80549882194E-01	-5.38742475229E+01
7.50601202405E+10	2.37787981934E-01	-3.11677767577E+01	6.39784013871E-04	6.98533313916E+01	5.59521113425E-04	5.62486761341E+01	1.79719788125E-01	-5.34809682169E+01
7.50661322645E+10	2.42507232017E-01	-3.36864015780E+01	5.85168124324E-04	6.13200887830E+01	5.77125207831E-04	4.41748930749E+01	1.80852259793E-01	-5.52852305196E+01
7.50721442886E+10	2.34418025662E-01	-3.04380343585E+01	5.33942446102E-04	5.89730491943E+01	5.12801327831E-04	4.24150718935E+01	1.80411623604E-01	-5.53160539899E+01
7.50781563126E+10	2.39918430402E-01	-3.52169409559E+01	6.47917266677E-04	5.46486358075E+01	5.68375450631E-04	4.19051508734E+01	1.78557715905E-01	-5.44725596903E+01
7.50841683367E+10	2.32680975421E-01	-3.10952858130E+01	5.32329379667E-04	4.55384374744E+01	4.97865389101E-04	3.17214030534E+01	1.77783432772E-01	-5.41698268632E+01
7.50901803607E+10	2.38356533177E-01	-3.35186227497E+01	5.73662629987E-04	3.96712395621E+01	5.36669803723E-04	2.57421955790E+01	1.82352399263E-01	-5.67446344522E+01
7.50961923848E+10	2.37537734269E-01	-3.18058335599E+01	5.28388302507E-04	3.37388355364E+01	5.32259735424E-04	2.70662077872E+01	1.79392263058E-01	-5.77281398094E+01
7.51022044088E+10	2.37124293960E-01	-3.38615350056E+01	4.80480233440E-04	3.30960254428E+01	4.79922556985E-04	1.96949969945E+01	1.77773959814E-01	-5.68554086680E+01
7.51082164329E+10	2.32246391764E-01	-3.18924752541E+01	4.82419759806E-04	2.80655271547E+01	4.77360261621E-04	1.89434262431E+01	1.75998679667E-01	-5.65993894656E+01
7.51142284569E+10	2.33121881786E-01	-3.28327611996E+01	5.31627265989E-04	2.44952313932E+01	5.09346248732E-04	1.43607229566E+01	1.75316543942E-01	-5.74934095930E+01
7.51202404810E+10	2.37527321490E-01	-3.51464645256E+01	5.41590668454E-04	2.35685977216E+01	5.25788448144E-04	4.73893273862E+00	1.75102828899E-01	-5.70400540791E+01
7.51262525050E+10	2.34684815784E-01	-3.46696895903E+01	5.44341056204E-04	1.38163716714E+01	5.58413118883E-04	3.78470391357E+00	1.73139164558E-01	-5.79362711306E+01
7.51322645291E+10	2.34844791577E-01	-3.47677644656E+01	5.45866945489E-04	2.02079202409E+00	5.84822959750E-04	-6.72800591178E+00	1.72234797021E-01	-5.63971431536E+01
7.51382765531E+10	2.35527353444E-01	-3.55431386803E+01	5.50348776124E-04	-5.54686074667E+00	5.57211201032E-04	-1.26240840893E+01	1.74272786299E-01	-5.96935883834E+01
7.51442885772E+10	2.33445268147E-01	-3.54079682301E+01	5.07888111935E-04	-1.00558303461E+01	4.98054416777E-04	-2.15141369364E+01	1.75308956394E-01	-5.93794113215E+01
7.51503006012E+10	2.29831819093E-01	-3.35955665502E+01	4.93921953505E-04	-1.87305012080E+01	5.07183502294E-04	-1.97990714722E+01	1.72133544641E-01	-6.00636636907E+01
7.51563126253E+10	2.30988571951E-01	-3.63211599712E+01	5.54057771005E-04	-2.32927006483E+01	5.03936663531E-04	-2.86461425257E+01	1.70811242242E-01	-5.90124013412E+01
7.51623246493E+10	2.37055973900E-01	-3.83729216217E+01	5.56803235854E-04	-2.90066166593E+01	5.10145082806E-04	-4.00281102744E+01	1.68771664973E-01	-5.84064289001E+01
7.51683366733E+10	2.29940766608E-01	-3.61844888591E+01	5.24788084855E-04	-3.44508799224E+01	5.10093848298E-04	-4.68396699355E+01	1.70962943438E-01	-5.99542747206E+01
7.51743486974E+10	2.34631790969E-01	-3.69052059299E+01	4.55274818294E-04	-4.05421949791E+01	5.00672691522E-04	-5.43272907543E+01	1.71681609138E-01	-6.17055443729E+01
7.51803607214E+10	2.31529279914E-01	-3.59960735691E+01	4.78211829906E-04	-4.23977740937E+01	3.99676672705E-04	-5.28727832725E+01	1.65124013283E-01	-5.96786620264E+01
7.51863727455E+10	2.35118905699E-01	-3.84746244117E+01	4.51019672901E-04	-4.40688433996E+01	3.86635157098E-04	-5.02037630888E+01	1.67898483245E-01	-6.13725676471E+01
7.51923847695E+10	2.31586423179E-01	-3.90252017291E+01	5.14674927436E-04	-5.74948473330E+01	3.80010341663E-04	-7.40970780443E+01	1.65577564279E-01	-6.02888916823E+01
7.51983967936E+10	2.29122229765E-01	-3.64996879171E+01	3.98522138807E-04	-7.55656591385E+01	4.30401453354E-04	-8.43907939457E+01	1.67131491531E-01	-6.17639843113E+01
7.52044088176E+10	2.34337504557E-01	-3.85280481419E+01	4.04252223690E-04	-8.87607549950E+01	3.41371598914E-04	-9.70759746894E+01	1.63040517938E-01	-6.06041164645E+01
7.52104208417E+10	2.29210001115E-01	-3.78225381349E+01	3.27335899589E-04	-9.24231713779E+01	2.91665221045E-04	-9.96828516198E+01	1.63401254280E-01	-6.21079909066E+01
7.52164328657E+10	2.31885670231E-01	-3.96838729722E+01	2.32853519824E-04	-9.35520985189E+01	2.39783105058E-04	-9.20648488372E+01	1.66004252798E-01	-6.44494599387E+01
7.52224448898E+10	2.29746765688E-01	-3.96855640497E+01	1.61385429491E-04	-8.41312631837E+01	1.35729931225E-04	-1.01747522598E+02	1.61458742351E-01	-6.25170556897E+01
7.52284569138E+10	2.29829619258E-01	-3.81954730733E+01	1.61743218046E-04	-5.55183900542E+01	2.09348074200E-04	-7.14556186006E+01	1.58913799541E-01	-6.25183531639E+01
7.52344689379E+10	2.29771279539E-01	-4.15702828590E+01	1.72305807559E-04	-8.28058741504E+01	5.49221190814E-05	-7.33400155180E+01	1.60537016009E-01	-6.44111608059E+01
7.52404809619E+10	2.31222459551E-01	-4.03129128079E+01	2.49730045543E-04	-7.55704013765E+01	2.29714191089E-04	-9.63978878386E+01	1.59799610230E-01	-6.34818364406E+01
7.52464929860E+10	2.26358914867E-01	-3.87805863938E+01	2.86151600746E-04	-7.56882348935E+01	1.97888385301E-04	-8.37595828628E+01	1.59191836178E-01	-6.39868745533E+01
7.52525050100E+10	2.26304788600E-01	-4.14744928402E+01	2.79441283312E-04	-9.08357721478E+01	2.08114376051E-04	-9.87404054217E+01	1.56702761072E-01	-6.45266849823E+01
7.52585170341E+10	2.23070303785E-01	-3.92409978480E+01	2.70432458995E-04	-9.38874589595E+01	2.45096129963E-04	-9.76299813561E+01	1.58786452300E-01	-6.56667418660E+01
7.52645290581E+10	2.26344862695E-01	-4.04164946588E+01	2.44047665656E-04	-1.15214328382E+02	2.63567808353E-04	-1.19462505396E+02	1.57222533853E-01	-6.52976512026E+01
7.52705410822E+10	2.24565320478E-01	-4.05999210847E+01	2.42849314902E-04	-1.08234837982E+02	2.04089500211E-04	-1.13800426667E+02	1.53985404552E-01	-6.47417146099E+01
7.52765531062E+10	2.23760066657E-01	-4.10942270564E+01	1.66393273431E-04	-1.07433319271E+02	2.34616223099E-04	-1.19477699690E+02	1.53630208314E-01	-6.53072443379E+01
7.52825651303E+10	2.22387461564E-01	-4.17222421922E+01	1.75186303324E-04	-1.05139397700E+02	1.95133164670E-04	-7.75866310696E+01	1.52663117630E-01	-6.52684688817E+01
7.52885771543E+10	2.25164111700E-01	-4.24609353560E+01	2.27802707867E-04	-8.26154718580E+01	2.36578960258E-04	-9.44025811858E+01	1.54726802377E-01	-6.68775204206E+01
7.52945891784E+10	2.23010928860E-01	-4.01542321834E+01	2.42020319735E-04	-8.38429308924E+01	2.47450909221E-04	-1.16080592772E+02	1.54886020274E-01	-6.70612028902E+01
7.53006012024E+10	2.25390453428E-01	-4.28246696239E+01	2.21129632020E-04	-8.80523078112E+01	1.99861869921E-04	-1.04595003889E+02	1.52792947886E-01	-6.66272556248E+01
7.53066132265E+10	2.22106425522E-01	-4.28453182794E+01	2.45709203816E-04	-8.08046214869E+01	2.60357347006E-04	-1.02826293037E+02	1.49335790409E-01	-6.54911400635E+01
7.53126252505E+10	2.18043787740E-01	-4.11587135147E+01	2.71868590025E-04	-9.37575311696E+01	3.03508722935E-04	-9.70708442453E+01	1.49861470049E-01	-6.76897190815E+01
7.53186372745E+10	2.22581983089E-01	-4.28997257112E+01	2.52979314503E-04	-1.14530853921E+02	3.13421799455E-04	-1.05418049576E+02	1.51354342422E-01	-6.88826771261E+01
7.53246492986E+10	2.22937246956E-01	-4.36411576465E+01	3.12955841570E-04	-1.15705692816E+02	3.13656739738E-04	-1.12589259106E+02	1.51321684566E-01	-6.80939748349E+01
7.53306613226E+10	2.17683018922E-01	-4.09819058902E+01	3.15386195096E-04	-1.05400681794E+02	3.35265926047E-04	-1.19473766050E+02	1.50007250764E-01	-6.79279432909E+01
7.53366733467E+10	2.19232515748E-01	-4.43217653950E+01	2.98508539081E-04	-1.26391642740E+02	2.96411303027E-04	-1.40462364819E+02	1.46977859649E-01	-6.87872656655E+01
7.53426853707E+10	2.17578851753E-01	-4.26429826292E+01	2.54306284569E-04	-1.19397131270E+02	3.52654632768E-04	-1.39010317596E+02	1.47368972656E-01	-6.89327364702E+01
7.53486973948E+10	2.21422896065E-01	-4.27006253787E+01	2.91092531287E-04	-1.33838699638E+02	2.44834520790E-04	-1.36642044774E+02	1.46509615167E-01	-6.90003997188E+01
7.53547094188E+10	2.18730433264E-01	-4.26938661736E+01	3.36872901772E-04	-1.36796624286E+02	2.76635595524E-04	-1.53845686660E+02	1.45996228579E-01	-6.93677272596E+01
7.53607214429E+10	2.20070296227E-01	-4.41609780904E+01	2.66282380065E-04	-1.40291239399E+02	2.69578193432E-04	-1.51104466939E+02	1.46526030863E-01	-7.09343064087E+01
7.53667334669E+10	2.20067139621E-01	-4.43460970767E+01	2.13613563108E-04	-1.51567653414E+02	3.00720170162E-04	-1.52912603777E+02	1.43460569921E-01	-6.96801138631E+01
7.53727454910E+10	2.18304908177E-01	-4.31923356494E+01	2.53716022710E-04	-1.63213033122E+02	2.99122632111E-04	-1.59195080661E+02	1.42896137687E-01	-6.94784084866E+01
7.53787575150E+10	2.18671557216E-01	-4.52756978324E+01	2.10205550267E-04	-1.42717968419E+02	2.57480252773E-04	-1.50334311810E+02	1.43449128947E-01	-7.16020125766E+01
7.53847695391E+10	2.18000294922E-01	-4.46944667221E+01	2.84120420665E-04	-1.38471827786E+02	2.96652977776E-04	-1.51138813138E+02	1.43509216322E-01	-7.26257355318E+01
7.53907815631E+10	2.15185424693E-01	-4.30236568357E+01	2.74670235784E-04	-1.39642045170E+02	3.15327249481E-04	-1.58578250181E+02	1.41903618152E-01	-7.31901549610E+01
7.53967935872E+10	2.18353784898E-01	-4.49455480175E+01	3.41119275627E-04	-1.63716982661E+02	4.18678662605E-04	-1.73517945070E+02	1.41065799850E-01	-7.14710684446E+01
7.54028056112E+10	2.22381776326E-01	-4.76809552004E+01	3.98267484087E-04	-1.76761911282E+02	4.41502028769E-04	1.73060444985E+02	1.40557796053E-01	-7.22793532500E+01
7.54088176353E+10	2.14187878624E-01	-4.46166923407E+01	3.46474350016E-04	1.74819479170E+02	3.75770688373E-04	1.66738948745E+02	1.39115074578E-01	-7.31512538301E+01
7.54148296593E+10	2.14701567805E-01	-4.46513041022E+01	2.63484826697E-04	1.62765114124E+02	2.79749035191E-04	1.63465547538E+02	1.36895508055E-01	-7.41074607444E+01
7.54208416834E+10	2.23189752215E-01	-4.78514339393E+01	3.18243635960E-04	1.62005100814E+02	2.29673415302E-04	1.40103376691E+02	1.36494047652E-01	-7.26276091218E+01
7.54268537074E+10	2.19779299628E-01	-4.78704325154E+01	2.27043433206E-04	-1.79861118152E+02	1.88502774858E-04	1.28279691228E+02	1.37437255389E-01	-7.49541882903E+01
7.54328657315E+10	2.11490845487E-01	-4.51834943531E+01	2.32585091565E-04	1.63887542163E+02	2.60056039840E-04	1.71398396554E+02	1.34849057933E-01	-7.38558505938E+01
7.54388777555E+10	2.12584976564E-01	-4.64538608234E+01	3.08294479020E-04	1.71831318630E+02	2.50518169430E-04	1.48050612983E+02	1.33756798842E-01	-7.60500922708E+01
7.54448897796E+10	2.09957489019E-01	-4.69553626066E+01	3.27478219531E-04	1.54387325205E+02	2.47021981805E-04	1.27840763169E+02	1.33940906335E-01	-7.70949237731E+01
7.54509018036E+10	2.16964590808E-01	-4.80060385281E+01	2.49827534164E-04	1.58494673800E+02	2.10928927845E-04	1.42848659461E+02	1.31897199469E-01	-7.54416975229E+01
7.54569138277E+10	2.12345192868E-01	-4.67511538578E+01	3.26362223097E-04	1.46102709802E+02	1.88676715350E-04	1.34754106070E+02	1.31775251020E-01	-7.83256037196E+01
7.54629258517E+10	2.14003571996E-01	-4.76521148885E+01	2.67367047517E-04	1.36253744852E+02	2.79919641021E-04	1.16460305393E+02	1.31329083108E-01	-7.82436961320E+01
7.54689378758E+10	2.13234757367E-01	-4.94724077995E+01	2.53290399218E-04	1.25117909632E+02	2.73291115756E-04	1.09593840047E+02	1.29228615836E-01	-7.61255551711E+01
7.54749498998E+10	2.14031297679E-01	-4.89190065034E+01	2.50267588073E-04	1.20759646037E+02	1.77274114400E-04	1.15135180976E+02	1.28677148798E-01	-7.80883030986E+01
7.54809619238E+10	2.10928888092E-01	-4.79433764430E+01	2.43178930868E-04	1.27659162013E+02	2.41756966732E-04	1.07752593659E+02	1.27122259896E-01	-7.69808792977E+01
7.54869739479E+10	2.12332146647E-01	-4.85488185546E+01	2.73743729595E-04	1.21109061508E+02	2.28014352517E-04	1.03742386083E+02	1.26576902198E-01	-8.01362136378E+01
7.54929859719E+10	2.10263553619E-01	-4.91856878002E+01	2.01790611629E-04	1.02480692108E+02	1.86073044604E-04	8.63855259267E+01	1.26144732217E-01	-8.06591753701E+01
7.54989979960E+10	2.04862668253E-01	-4.80458181419E+01	2.49027855526E-04	8.99037028232E+01	2.28945077122E-04	6.69472545527E+01	1.23693076870E-01	-7.83212023326E+01
7.55050100200E+10	2.12120392799E-01	-5.14611270669E+01	1.63550338362E-04	8.45883707888E+01	1.19089000198E-04	3.41202627546E+01	1.23209958437E-01	-8.01630385698E+01
7.55110220441E+10	2.09679083214E-01	-4.96773289523E+01	1.42692758628E-04	8.78179509019E+01	1.32941618953E-04	2.48849352957E+01	1.21375314759E-01	-7.99896524692E+01
7.55170340681E+10	2.06373627278E-01	-4.99912202920E+01	1.55664225347E-04	5.49701316781E+01	1.24925899275E-04	3.58295794833E+01	1.21093099535E-01	-8.02435072438E+01
7.55230460922E+10	2.08885557838E-01	-5.21505996603E+01	1.27849122754E-04	-5.99290648716E+00	1.59084470917E-04	-1.71574721811E+01	1.20017290421E-01	-8.01351299261E+01
7.55290581162E+10	2.05482095253E-01	-5.11907301856E+01	4.88422304987E-05	2.94933699874E+00	1.19097473690E-04	-3.23251218975E+01	1.18579392021E-01	-7.96210947093E+01
7.55350701403E+10	2.09177252652E-01	-5.19559607924E+01	7.13764410016E-05	-2.20412093611E+00	1.04872963240E-04	-7.95323911583E+01	1.16146843858E-01	-7.97535101818E+01
7.55410821643E+10	2.03789725514E-01	-5.01853671639E+01	3.67543385125E-05	-1.77658765276E+02	9.49177206778E-05	-1.69831164939E+02	1.16815162322E-01	-8.23006462598E+01
7.55470941884E+10	2.06893883963E-01	-5.16655637529E+01	1.44588549929E-05	-1.11462659535E+02	1.45252431240E-04	-1.23622216223E+02	1.15789100483E-01	-8.28663456821E+01
7.55531062124E+10	2.05962069152E-01	-5.15529412273E+01	7.26694534693E-05	1.67852039933E+02	1.60260703485E-04	-1.79681493557E+02	1.14578395475E-01	-8.17314166130E+01
7.55591182365E+10	2.03125376865E-01	-5.23120035625E+01	1.40304657796E-04	1.63168841892E+02	1.73628708846E-04	1.78883249750E+02	1.13010352772E-01	-8.25284988878E+01
7.55651302605E+10	2.00984402210E-01	-5.09818488516E+01	9.96314424200E-05	1.51035942063E+02	1.02652876558E-04	1.50981619194E+02	1.12088924000E-01	-8.10160956984E+01
7.55711422846E+10	2.05078119436E-01	-5.19213640246E+01	9.37196079968E-05	-1.62267770122E+02	1.65311751018E-04	1.45757992668E+02	1.12577403013E-01	-8.27142508595E+01
7.55771543086E+10	2.02225111470E-01	-5.18269879581E+01	7.29369858614E-05	1.71805524568E+02	1.87944597965E-04	1.70223803108E+02	1.10583228970E-01	-8.19528857830E+01
7.55831663327E+10	1.97991252145E-01	-5.18599779391E+01	8.44170684342E-05	1.47112477592E+02	9.26759882503E-05	-1.74366854450E+02	1.08973845882E-01	-8.14262566164E+01
7.55891783567E+10	2.01450125845E-01	-5.25663331882E+01	1.53584259613E-04	-1.76165775144E+02	1.60191921596E-04	1.64618659380E+02	1.09207091117E-01	-8.35631519236E+01
7.55951903808E+10	2.03628109375E-01	-5.49999671213E+01	1.36250251815E-04	-1.65349432909E+02	1.98548954063E-04	1.74770554953E+02	1.09937548522E-01	-8.38246699999E+01
7.56012024048E+10	2.04957805216E-01	-5.44995904222E+01	2.14835682822E-04	1.76242893269E+02	2.99654009290E-04	1.70185656015E+02	1.07751246089E-01	-8.26608599206E+01
7.56072144289E+10	1.99988671249E-01	-5.33360309689E+01	3.11549456514E-04	1.66553016012E+02	4.07914882456E-04	1.48478484031E+02	1.05985504328E-01	-8.44490986643E+01
7.56132264529E+10	1.96756110007E-01	-5.17998855639E+01	3.18670244911E-04	1.48724202391E+02	4.36024246387E-04	1.39385145305E+02	1.05932243184E-01	-8.59267661764E+01
7.56192384770E+10	1.97520979045E-01	-5.38828644360E+01	3.65560606926E-04	1.27220170554E+02	5.46705237173E-04	1.15459174721E+02	1.04226723379E-01	-8.53611119119E+01
7.56252505010E+10	1.99273557516E-01	-5.44054765145E+01	4.66167033107E-04	1.17635990313E+02	4.72424778220E-04	1.07944558594E+02	1.04486715413E-01	-8.52012425603E+01
7.56312625251E+10	2.02458077226E-01	-5.54515300581E+01	4.08877996809E-04	1.04353124215E+02	4.75475045738E-04	9.93787290172E+01	1.03125711518E-01	-8.42841331473E+01
7.56372745491E+10	1.97506796757E-01	-5.39034820679E+01	4.43280370794E-04	9.47213410318E+01	4.95043207100E-04	8.76007302816E+01	1.01913337247E-01	-8.46596710871E+01
7.56432865731E+10	1.93240026402E-01	-5.29765166556E+01	3.85678752742E-04	9.13879245676E+01	4.27198340793E-04	9.05159444913E+01	1.01791457768E-01	-8.64455401451E+01
7.56492985972E+10	1.97870732906E-01	-5.52986574983E+01	3.61773438040E-04	8.58069275695E+01	4.97577109351E-04	7.70210111525E+01	1.00609842194E-01	-8.81559507083E+01
7.56553106212E+10	1.95820823925E-01	-5.31567423485E+01	3.36105564613E-04	8.33730342908E+01	4.83345269211E-04	6.54910977985E+01	9.97164303890E-02	-8.51784942295E+01
7.56613226453E+10	1.98481093969E-01	-5.45406234354E+01	3.10304190803E-04	7.90574182883E+01	4.77955127983E-04	7.07729974449E+01	9.78314277505E-02	-8.78180976978E+01
7.56673346693E+10	1.96792073872E-01	-5.47274245797E+01	4.11279436390E-04	7.60727680503E+01	4.83092067274E-04	6.40223821595E+01	9.73327219295E-02	-8.78400488315E+01
7.56733466934E+10	1.94638987158E-01	-5.49072761530E+01	4.49847707213E-04	6.06251692499E+01	4.85649993246E-04	5.36380667683E+01	9.61212203390E-02	-8.68342606660E+01
7.56793587174E+10	1.92966530407E-01	-5.46256216357E+01	5.11177621977E-04	6.07933007937E+01	4.62797018432E-04	4.33364539872E+01	9.38870095400E-02	-8.68892381949E+01
7.56853707415E+10	1.94463110329E-01	-5.61054062546E+01	4.85427530546E-04	4.97145330243E+01	5.32047580179E-04	3.12016614716E+01	9.49697285506E-02	-8.72421591691E+01
7.56913827655E+10	1.94888291266E-01	-5.64600532801E+01	5.03103404978E-04	4.84685798087E+01	5.16767129493E-04	3.09421162084E+01	9.36429926968E-02	-8.59320590998E+01
7.56973947896E+10	1.93522224443E-01	-5.58870220107E+01	4.88141636179E-04	3.43616545880E+01	5.19656081890E-04	2.36582218145E+01	9.28148383696E-02	-8.75671808911E+01
7.57034068136E+10	1.96917724716E-01	-5.69043055161E+01	5.07649726505E-04	3.03829673021E+01	5.64111296255E-04	1.23313492937E+01	9.15688269460E-02	-8.64730564365E+01
7.57094188377E+10	1.91690377729E-01	-5.68223573079E+01	4.72214792866E-04	2.30974075074E+01	4.31098008632E-04	-8.36445242985E-01	9.08547431267E-02	-8.94525586051E+01
7.57154308617E+10	1.90630878320E-01	-5.57718318063E+01	4.91138704928E-04	9.36998424549E+00	5.20886192027E-04	-1.96827557634E+00	9.00835495028E-02	-8.91374539498E+01
7.57214428858E+10	1.94145766608E-01	-5.64856134752E+01	5.29701237933E-04	4.65077766048E+00	5.27847528216E-04	-1.61823626487E+01	9.02201449570E-02	-8.71717339314E+01
7.57274549098E+10	1.92844362354E-01	-5.56146052355E+01	3.86461442987E-04	-9.19547839250E+00	4.41647699420E-04	-2.98250560581E+01	8.83736311336E-02	-8.67707537975E+01
7.57334669339E+10	1.93460631751E-01	-5.84732585513E+01	4.14137224344E-04	-7.82513640468E+00	4.54227470834E-04	-2.66971068287E+01	8.82617618385E-02	-8.96934570485E+01
7.57394789579E+10	1.89672126621E-01	-5.68716481700E+01	3.71778851487E-04	-7.63820615157E+00	3.93323597111E-04	-2.12320157790E+01	8.66428394871E-02	-8.93405517896E+01
7.57454909820E+10	1.89792937725E-01	-5.60908679671E+01	4.39921610186E-04	-7.95310885545E+00	4.50364330257E-04	-3.53105876813E+01	8.54541752769E-02	-8.86824111940E+01
7.57515030060E+10	1.93559367134E-01	-5.75729268938E+01	4.43630453611E-04	-3.43621288792E+01	4.17212030231E-04	-4.69205028346E+01	8.69134353289E-02	-8.91253646610E+01
7.57575150301E+10	1.91643696415E-01	-5.78014923577E+01	4.28809165874E-04	-5.14814358167E+01	3.59316243154E-04	-5.22258428717E+01	8.48844071850E-02	-9.13645210244E+01
7.57635270541E+10	1.90200768391E-01	-5.87374624046E+01	3.21102847828E-04	-5.27188066987E+01	2.78445528636E-04	-7.33660765166E+01	8.29589020115E-02	-8.89371875923E+01
7.57695390782E+10	1.90374083950E-01	-5.86508156650E+01	1.96328588672E-04	-5.22107288603E+01	3.90586467920E-04	-6.09110196913E+01	8.42005130822E-02	-9.12112095581E+01
7.57755511022E+10	1.89959736486E-01	-5.87333610157E+01	2.77607208021E-04	-6.72331342717E+01	2.65025189599E-04	-5.64781155790E+01	8.25637322051E-02	-8.81019750585E+01
7.57815631263E+10	1.87594903569E-01	-5.77217721657E+01	2.60220724522E-04	-5.20445002886E+01	3.17182466973E-04	-6.69392954823E+01	8.10679680707E-02	-9.01648234807E+01
7.57875751503E+10	1.87683489823E-01	-5.90770951122E+01	1.98972059675E-04	-5.11815356368E+01	3.61985795294E-04	-6.05075992722E+01	7.95698654580E-02	-9.26642350614E+01
7.57935871743E+10	1.91788471346E-01	-6.04529436121E+01	2.75324637726E-04	-6.79347422649E+01	2.73280715806E-04	-8.87374875278E+01	7.92642048654E-02	-9.22425819490E+01
7.57995991984E+10	1.83973101568E-01	-5.85471643870E+01	2.20186683898E-04	-6.94776230586E+01	2.72810876603E-04	-1.06544971717E+02	7.86725940807E-02	-9.23862052358E+01
7.58056112224E+10	1.88135786887E-01	-5.99095929256E+01	2.48495748577E-04	-8.48569486950E+01	2.24335400421E-04	-8.50270017570E+01	7.80572754698E-02	-9.06051737381E+01
7.58116232465E+10	1.89629311919E-01	-6.04099905666E+01	2.12615341203E-04	-8.70911808044E+01	1.70806587837E-04	-1.30889987725E+02	7.68236231473E-02	-9.08692641439E+01
7.58176352705E+10	1.84520907904E-01	-5.88077288035E+01	2.09383295367E-04	-1.13525139973E+02	1.40753333820E-04	-1.17162013445E+02	7.57280123727E-02	-9.14450215445E+01
7.58236472946E+10	1.86694227918E-01	-6.10181243495E+01	1.23557914022E-04	-1.25076359841E+02	9.13436733181E-05	-1.27809849719E+02	7.54523417187E-02	-9.26099525599E+01
7.58296593186E+10	1.84460251811E-01	-5.97883128110E+01	1.13847781472E-04	-9.85947948860E+01	8.39115208486E-05	-1.58178031026E+02	7.47765723736E-02	-9.41295801640E+01
7.58356713427E+10	1.83598810377E-01	-5.91529403177E+01	1.13321349547E-04	-7.03790319185E+01	9.93602968034E-05	-8.26681924874E+01	7.28823492615E-02	-9.08120419766E+01
7.58416833667E+10	1.83634915994E-01	-5.94965604111E+01	9.64281982139E-05	-3.80967052373E+01	1.49485510756E-04	-8.32495485119E+01	7.16082509080E-02	-9.01579489999E+01
7.58476953908E+10	1.83672237895E-01	-6.17822333663E+01	1.08595536639E-04	-4.52143149600E+01	1.34545326112E-04	-7.25778021476E+01	7.09857267027E-02	-9.32586570719E+01
7.58537074148E+10	1.83791831185E-01	-5.95810293760E+01	1.02236064671E-04	-6.89946795765E+01	1.32426968607E-04	-1.00148754505E+02	7.15778975998E-02	-8.96799516569E+01
7.58597194389E+10	1.85284445972E-01	-6.14326330890E+01	1.14420295218E-04	-1.03685666054E+02	9.01421438050E-05	-8.85093957632E+01	7.04253654083E-02	-9.36074470912E+01
7.58657314629E+10	1.83641922160E-01	-6.16465585562E+01	1.16577752370E-04	-4.57739170089E+01	8.55821196167E-05	-1.02642638676E+01	7.02927398113E-02	-9.10142079820E+01
7.58717434870E+10	1.80966244324E-01	-6.20810483455E+01	1.53733102801E-04	-5.58744419170E+01	8.23289504162E-05	-1.75796253970E+00	6.91403327126E-02	-8.93572033267E+01
7.58777555110E+10	1.80274817820E-01	-5.99065509328E+01	1.21665437973E-04	-7.34816590847E+01	8.65170962056E-05	-4.70032468117E+01	6.89047148711E-02	-9.27375073356E+01
7.58837675351E+10	1.78802552157E-01	-6.11698812891E+01	1.38952291287E-04	-4.62693250882E+01	6.40267411028E-05	-2.89184613415E+01	6.75380175800E-02	-9.39032814720E+01
7.58897795591E+10	1.79880686815E-01	-6.10989467961E+01	9.43284714810E-05	-5.04872601035E+01	1.54116659273E-04	-1.59706710084E+01	6.62459802610E-02	-8.96481784794E+01
7.58957915832E+10	1.81973133700E-01	-6.35612326887E+01	1.21743892983E-04	-5.32006606016E+01	1.78502817125E-04	-3.35400898165E+01	6.54940842295E-02	-9.31922666852E+01
7.59018036072E+10	1.80016175841E-01	-6.08832269933E+01	1.74578178402E-04	-8.33510736036E+01	1.81720391348E-04	-4.30690530467E+01	6.57152641594E-02	-9.20489435924E+01
7.59078156313E+10	1.78521025243E-01	-6.02730099823E+01	1.23502889871E-04	-7.63184502245E+01	2.03323872570E-04	-8.08807762496E+01	6.50033019930E-02	-8.97521809422E+01
7.59138276553E+10	1.79216119493E-01	-6.24709233986E+01	1.64658905833E-04	-6.43648557029E+01	1.65462082985E-04	-5.42899979937E+01	6.44720230572E-02	-9.01385728211E+01
7.59198396794E+10	1.82122170168E-01	-6.22827463931E+01	9.01221671060E-05	-5.90112859517E+01	1.46021128092E-04	-5.10546931955E+01	6.42223953365E-02	-9.10029547401E+01
7.59258517034E+10	1.79302456971E-01	-6.07136482550E+01	1.83772558687E-04	-6.04046612317E+01	2.23354389994E-04	-6.89799084184E+01	6.42876765160E-02	-9.29000230644E+01
7.59318637275E+10	1.79280448687E-01	-6.14554839085E+01	1.52891162471E-04	-4.69537311199E+01	2.56678955708E-04	-7.01431505778E+01	6.32539243345E-02	-8.87956515896E+01
7.59378757515E+10	1.77638117559E-01	-6.21632786868E+01	1.92464933729E-04	-5.94270305518E+01	2.86130271004E-04	-6.93201910398E+01	6.24500375110E-02	-9.26500529746E+01
7.59438877756E+10	1.80948944433E-01	-6.23808445662E+01	2.38873833127E-04	-6.90209921076E+01	3.07123438911E-04	-7.13048560946E+01	6.20461024748E-02	-9.24366115745E+01
7.59498997996E+10	1.80431461266E-01	-6.17574282682E+01	2.64733514959E-04	-7.39720791527E+01	3.43070643921E-04	-8.90424174412E+01	6.14223850096E-02	-9.32154462094E+01
7.59559118236E+10	1.80189419053E-01	-6.22757953905E+01	3.35759761619E-04	-7.69145767409E+01	3.18770556818E-04	-9.31509837747E+01	6.04514391300E-02	-9.00264200413E+01
7.59619238477E+10	1.79530692777E-01	-6.41593828919E+01	3.41190893863E-04	-9.08788650722E+01	4.16660240703E-04	-1.04905421446E+02	5.99417920406E-02	-9.03030027647E+01
7.59679358717E+10	1.79129137402E-01	-6.36834703738E+01	3.46458217816E-04	-1.00820504178E+02	3.68389336680E-04	-1.14140731346E+02	6.01232989744E-02	-9.22344323970E+01
7.59739478958E+10	1.80260765191E-01	-6.28188725824E+01	3.03689450645E-04	-9.37186613127E+01	3.52399986046E-04	-1.09751261788E+02	5.97605351260E-02	-9.01328044020E+01
7.59799599198E+10	1.81651644538E-01	-6.47865742865E+01	3.23052484935E-04	-1.08578367783E+02	3.71982075861E-04	-1.19684628531E+02	5.95294743854E-02	-9.12692085450E+01
7.59859719439E+10	1.76662249345E-01	-6.49137073361E+01	3.30985483454E-04	-1.08462336723E+02	3.29078481843E-04	-1.23861812766E+02	5.90429727397E-02	-9.48071294945E+01
7.59919839679E+10	1.80607210264E-01	-6.65557533951E+01	3.58352156481E-04	-1.12595659950E+02	4.29127336160E-04	-1.30336388258E+02	5.84734096770E-02	-9.57437794773E+01
7.59979959920E+10	1.80406860330E-01	-6.47310505576E+01	4.26927801273E-04	-1.18259552315E+02	4.67350432561E-04	-1.37345202113E+02	5.58915195133E-02	-9.19151218251E+01
7.60040080160E+10	1.77865943623E-01	-6.43236505875E+01	4.00874846157E-04	-1.20392460829E+02	4.97870946240E-04	-1.33959772361E+02	5.59418327361E-02	-9.26659535429E+01
7.60100200401E+10	1.79308091308E-01	-6.67170936525E+01	4.53635396163E-04	-1.28664731270E+02	5.61131601780E-04	-1.47838312678E+02	5.48464955607E-02	-9.26512616963E+01
7.60160320641E+10	1.77724333930E-01	-6.63676894380E+01	4.70615443628E-04	-1.37884961268E+02	5.15265030040E-04	-1.48750058044E+02	5.50271665742E-02	-9.32521785967E+01
7.60220440882E+10	1.77595179805E-01	-6.73382699662E+01	4.70216132962E-04	-1.57780120503E+02	4.59561859975E-04	-1.63054500283E+02	5.38404369355E-02	-8.99918528689E+01
7.60280561122E+10	1.77480068548E-01	-6.57295955560E+01	5.83082543542E-04	-1.64078097406E+02	5.88958086115E-04	-1.71643637023E+02	5.35161647390E-02	-9.43764244703E+01
7.60340681363E+10	1.76551196496E-01	-6.60904010706E+01	4.83190353525E-04	-1.63578941401E+02	5.02477474045E-04	-1.75903485829E+02	5.29809557964E-02	-9.53270569259E+01
7.60400801603E+10	1.76243205710E-01	-6.68355723999E+01	4.77462682945E-04	-1.72899779239E+02	4.19778715222E-04	1.69904170590E+02	5.23290744315E-02	-9.57240791941E+01
7.60460921844E+10	1.74974588950E-01	-6.62567644244E+01	4.59229997475E-04	1.74474281193E+02	5.06532738256E-04	1.60359486490E+02	5.08275094530E-02	-9.32911530840E+01
7.60521042084E+10	1.73598206751E-01	-6.64361274439E+01	4.99250992378E-04	1.69243589579E+02	4.74573453589E-04	1.60108391650E+02	4.96361350332E-02	-9.24989637593E+01
7.60581162325E+10	1.74659343926E-01	-6.71332980066E+01	4.18452030192E-04	1.69595360501E+02	4.52941545812E-04	1.63769085852E+02	4.93914361697E-02	-9.50089970205E+01
7.60641282565E+10	1.75355599244E-01	-6.68463236755E+01	5.17494612205E-04	1.71945141266E+02	5.05930238403E-04	1.57482687970E+02	4.76070666681E-02	-9.25000250319E+01
7.60701402806E+10	1.72728196847E-01	-6.66188276254E+01	4.90001185570E-04	1.62916821435E+02	5.33349951010E-04	1.55750239002E+02	4.77934697719E-02	-9.43767677643E+01
7.60761523046E+10	1.74357543341E-01	-6.96492720667E+01	4.13283745145E-04	1.55313444724E+02	5.42574830330E-04	1.42296746103E+02	4.65281931231E-02	-9.16190544716E+01
7.60821643287E+10	1.75609136288E-01	-6.92826243442E+01	5.66983391468E-04	1.41760250048E+02	5.48279253413E-04	1.27940931484E+02	4.56172464898E-02	-9.08130997263E+01
7.60881763527E+10	1.73907567719E-01	-6.80021575217E+01	5.47015689598E-04	1.31658855853E+02	5.34231206961E-04	1.25159929420E+02	4.65546975819E-02	-9.58128100417E+01
7.60941883768E+10	1.70772904648E-01	-6.90444971453E+01	4.72599056859E-04	1.22600538042E+02	4.76089688087E-04	1.19915726999E+02	4.40227630462E-02	-9.08235575838E+01
7.61002004008E+10	1.70865260163E-01	-6.80101833016E+01	3.87024386085E-04	1.18662206762E+02	4.47990185946E-04	1.09748363685E+02	4.37954639127E-02	-9.20728461500E+01
7.61062124248E+10	1.72311400239E-01	-6.78139904285E+01	4.14731653765E-04	1.11991020449E+02	4.59302874588E-04	1.01374347402E+02	4.32732688575E-02	-9.26883347647E+01
7.61122244489E+10	1.69494360782E-01	-6.98328567012E+01	5.06521735842E-04	1.17773903379E+02	4.40255633715E-04	9.58526985384E+01	4.11151440915E-02	-8.92978609579E+01
7.61182364729E+10	1.72719449357E-01	-7.10889143254E+01	4.44969501151E-04	1.09330364488E+02	4.21272307745E-04	1.01565600358E+02	4.14023294193E-02	-9.14212965188E+01
7.61242484970E+10	1.66918455608E-01	-6.73448447045E+01	4.49632517821E-04	9.77791496547E+01	3.38663895145E-04	8.99640468302E+01	4.00524343252E-02	-8.80367381581E+01
7.61302605210E+10	1.68732102606E-01	-6.99065176241E+01	4.02598003374E-04	9.95540043284E+01	4.00351584609E-04	8.89972209810E+01	3.99306966429E-02	-8.81816988585E+01
7.61362725451E+10	1.68992923707E-01	-7.00430969876E+01	4.19853808629E-04	8.28571309704E+01	4.05849649673E-04	7.74213958702E+01	4.04835570406E-02	-8.99625500014E+01
7.61422845691E+10	1.70726827246E-01	-6.98761057302E+01	3.79157246120E-04	8.14997185384E+01	4.23746417788E-04	6.55102605964E+01	3.85001556960E-02	-8.62701655330E+01
7.61482965932E+10	1.67044147582E-01	-6.99811611450E+01	3.81679938137E-04	7.73022372137E+01	4.19201318841E-04	7.19163887393E+01	3.89853528855E-02	-8.89404164987E+01
7.61543086172E+10	1.71361257052E-01	-7.05516178685E+01	4.75145368437E-04	6.68271860433E+01	3.98623674244E-04	5.84620491314E+01	3.89713031777E-02	-8.85639982111E+01
7.61603206413E+10	1.69147165908E-01	-7.09505933466E+01	4.20264581387E-04	6.56435380798E+01	4.70934389812E-04	5.49708759167E+01	3.78102404730E-02	-8.67571897399E+01
7.61663326653E+10	1.68168858823E-01	-7.08958273560E+01	3.65306317704E-04	4.75082796767E+01	4.05197262981E-04	4.08751321790E+01	3.64170202678E-02	-8.43829836431E+01
7.61723446894E+10	1.69716416455E-01	-6.98200756199E+01	3.09567034333E-04	6.21371685820E+01	3.85575588320E-04	4.42168135509E+01	3.62963757833E-02	-8.43059114704E+01
7.61783567134E+10	1.70175305280E-01	-7.15028696190E+01	2.99208238058E-04	5.02451950294E+01	3.40621129254E-04	3.24495977476E+01	3.60458583142E-02	-8.32645746520E+01
7.61843687375E+10	1.67828505276E-01	-7.26738309946E+01	3.39190216129E-04	4.24396482901E+01	3.76988486247E-04	3.60458656457E+01	3.63196433584E-02	-8.39123888516E+01
7.61903807615E+10	1.68621397016E-01	-7.36691700306E+01	2.74502848420E-04	4.38515927197E+01	3.46937424032E-04	1.64635975431E+01	3.62109497460E-02	-8.34957873415E+01
7.61963927856E+10	1.67616636959E-01	-7.12847024264E+01	2.90606244979E-04	3.04486000399E+01	3.15681506889E-04	1.81771939450E+01	3.51624394249E-02	-8.07524071916E+01
7.62024048096E+10	1.65150007928E-01	-7.24372605585E+01	3.68785560290E-04	1.81368520219E+01	2.73416669319E-04	1.74520636915E+00	3.55108115546E-02	-8.16040125388E+01
7.62084168337E+10	1.64662194674E-01	-7.10727594504E+01	3.59170428011E-04	1.86678401292E+01	3.00527687660E-04	-5.01455868680E+00	3.49572048663E-02	-8.27420089571E+01
7.62144288577E+10	1.65546024017E-01	-7.19948108513E+01	3.32888713988E-04	8.84757999904E+00	3.79867229636E-04	-2.07797097712E-01	3.40664985210E-02	-8.05595511948E+01
7.62204408818E+10	1.66055957034E-01	-7.13791579014E+01	3.18397660505E-04	3.94122512745E+00	2.74756307626E-04	-2.50974191425E+01	3.44785475459E-02	-8.19894921870E+01
7.62264529058E+10	1.66234204549E-01	-7.25622998514E+01	2.76521088031E-04	-1.08716815952E+01	2.73794933144E-04	-3.21051646713E+01	3.39386119270E-02	-8.04019741646E+01
7.62324649299E+10	1.65449128328E-01	-7.32935439202E+01	2.87339798477E-04	-2.06493398207E+01	2.97406418110E-04	-3.88518483886E+01	3.39061131711E-02	-7.87674627388E+01
7.62384769539E+10	1.65206796535E-01	-7.40679782446E+01	2.00212032434E-04	-2.37656910529E+01	1.86346769249E-04	-5.00529358766E+01	3.27511562096E-02	-7.75102672056E+01
7.62444889780E+10	1.63420587639E-01	-7.17998581294E+01	2.16328683980E-04	-5.53957001870E+01	1.99359226470E-04	-5.23169414661E+01	3.24504019129E-02	-7.74432382885E+01
7.62505010020E+10	1.65993846895E-01	-7.38517154946E+01	1.16173021749E-04	-4.42880008971E+01	1.22045468526E-04	-6.82427922013E+01	3.19653354668E-02	-7.67525344588E+01
7.62565130261E+10	1.64761625218E-01	-7.35858078402E+01	1.02865091324E-04	-2.30566721191E+01	1.37206043194E-04	-5.71600346061E+01	3.20775166788E-02	-7.74554799436E+01
7.62625250501E+10	1.64095349283E-01	-7.46455705612E+01	1.27067465885E-04	-6.47997315682E+01	9.46907572302E-05	-5.05443896084E+01	3.26240025200E-02	-7.78092978337E+01
7.62685370741E+10	1.63464930019E-01	-7.48381221799E+01	9.22056762757E-05	-5.94656365162E+01	1.07145734167E-04	-6.05560298354E+01	3.13621336157E-02	-7.68007656127E+01
7.62745490982E+10	1.63469038083E-01	-7.70357128312E+01	3.34707937134E-05	2.13447870248E+01	1.73760322911E-04	-3.70608449935E+01	3.12165882020E-02	-7.67464515319E+01
7.62805611222E+10	1.64531315011E-01	-7.72268321944E+01	1.50038306430E-04	-4.91111672941E+01	1.04823164694E-04	-2.94421032063E+01	3.06134864525E-02	-7.52868329991E+01
7.62865731463E+10	1.61774652272E-01	-7.33665598050E+01	1.17327502119E-04	-6.57208481506E+01	9.02067653303E-05	-6.86281083157E+01	2.98050736363E-02	-7.27914812723E+01
7.62925851703E+10	1.59974391079E-01	-7.46525751260E+01	2.24349213510E-04	-5.36112498435E+01	7.75427617209E-05	-1.08865198481E+02	2.99895424704E-02	-7.24497634127E+01
7.62985971944E+10	1.61174087594E-01	-7.58067151794E+01	1.91340124116E-04	-5.25916531785E+01	1.76590711151E-04	-8.50663259302E+01	2.95495414951E-02	-7.19523023534E+01
7.63046092184E+10	1.60081502237E-01	-7.74909349203E+01	2.06823807539E-04	-9.90263492447E+01	1.82334566344E-04	-1.16040762536E+02	2.90502792201E-02	-7.15955919221E+01
7.63106212425E+10	1.60663664083E-01	-7.83614157235E+01	1.50851181791E-04	-1.25123303943E+02	1.91003498179E-04	-1.49307816171E+02	2.89893544141E-02	-7.21789608463E+01
7.63166332665E+10	1.57135458663E-01	-7.69200122259E+01	2.14043856314E-04	-1.41401296118E+02	1.45331575496E-04	1.64982262123E+02	2.84542624448E-02	-7.19197797405E+01
7.63226452906E+10	1.60498166054E-01	-7.66102633574E+01	1.16594919283E-04	1.75935150223E+02	1.51784168178E-04	1.45303626094E+02	2.82559541968E-02	-7.06413818478E+01
7.63286573146E+10	1.57339043568E-01	-7.63767248910E+01	7.89430007795E-05	1.10403585225E+02	1.87744199256E-04	1.13116056002E+02	2.75159045992E-02	-6.88314698601E+01
7.63346693387E+10	1.57151657943E-01	-7.88426734348E+01	1.08446759560E-04	1.09623525200E+02	1.46984494925E-04	7.14893589936E+01	2.78845322824E-02	-6.79555054553E+01
7.63406813627E+10	1.55652227512E-01	-7.63188961536E+01	1.00523795889E-04	9.74662416569E+01	1.13284426902E-04	1.04061965482E+02	2.61919868269E-02	-6.57432589352E+01
7.63466933868E+10	1.58730350088E-01	-7.90756597685E+01	8.70003078397E-05	4.06681369039E+01	4.56299440521E-05	5.59877120737E+01	2.77838547678E-02	-6.55751358697E+01
7.63527054108E+10	1.55562080313E-01	-7.90287699498E+01	1.40397430524E-04	1.17138501157E+02	3.86707444263E-05	1.86992056833E+01	2.68151923890E-02	-6.43479774154E+01
7.63587174349E+10	1.54179974605E-01	-7.86261413208E+01	1.35844687724E-04	6.59799292701E+01	1.32714276558E-04	5.95796106124E+01	2.67478358345E-02	-6.34762212844E+01
7.63647294589E+10	1.54755137641E-01	-7.79922303343E+01	1.26536177926E-04	6.27235648201E+01	1.50445906656E-04	6.47564428831E+01	2.62033718089E-02	-6.26143820413E+01
7.63707414830E+10	1.53532860453E-01	-7.77444547775E+01	2.00553662468E-04	6.00827202477E+01	2.06859248973E-04	4.12988399170E+01	2.59798119538E-02	-6.30845184447E+01
7.63767535070E+10	1.53805645424E-01	-8.01136262620E+01	1.97095500038E-04	4.65231068529E+01	1.78997509977E-04	3.20820280990E+01	2.53949710826E-02	-5.99874182418E+01
7.63827655311E+10	1.51821118326E-01	-7.93618819218E+01	1.72872702541E-04	7.32694641080E+00	1.99099911969E-04	3.06753143167E+00	2.55068390912E-02	-5.92561586009E+01
7.63887775551E+10	1.51159358155E-01	-7.80641714341E+01	1.20605352004E-04	-6.39489146188E+00	1.32020613990E-04	-2.58255011087E+01	2.54475018112E-02	-5.76198591507E+01
7.63947895792E+10	1.50356977415E-01	-7.90125183830E+01	1.54013691351E-04	-5.76140633731E-01	2.00901397282E-04	-2.28138566158E+01	2.48294156070E-02	-5.53182418985E+01
7.64008016032E+10	1.48941432799E-01	-8.08907000305E+01	1.83580769598E-04	-1.88370457694E+01	1.61840675680E-04	-8.19050463751E+00	2.52226565094E-02	-5.45743135116E+01
7.64068136273E+10	1.51826405582E-01	-8.07066869604E+01	1.52928084169E-04	3.88662699892E+00	1.51049682211E-04	-1.95598630351E+01	2.57332990198E-02	-5.50792190686E+01
7.64128256513E+10	1.49432784049E-01	-7.93066601775E+01	7.32371145382E-05	-4.16206350852E+01	8.22485657506E-05	-1.78301539691E+01	2.55051413464E-02	-5.52910827074E+01
7.64188376754E+10	1.48672744330E-01	-8.02425248485E+01	1.38865640984E-04	-4.81676315613E+00	1.86813705690E-04	-4.04578532837E+01	2.50866539826E-02	-5.22777235861E+01
7.64248496994E+10	1.47909524185E-01	-8.02784211751E+01	1.91326573282E-04	-1.65291311095E+01	8.69668206702E-05	-4.77971606152E+01	2.45790421724E-02	-5.15613496672E+01
7.64308617234E+10	1.47188346139E-01	-7.81907971050E+01	1.71377298540E-04	-9.61327429994E+00	1.66707651324E-04	-3.21065020371E+01	2.45581246106E-02	-4.90342474595E+01
7.64368737475E+10	1.48102591350E-01	-8.05218336652E+01	2.10847802352E-04	-1.84435865027E+01	1.88961351834E-04	-5.93972617346E+01	2.43450693603E-02	-4.82083712673E+01
7.64428857715E+10	1.47337252900E-01	-7.99182318205E+01	2.16810548861E-04	-3.48557536216E+01	1.29431494648E-04	-5.12292618396E+01	2.47204575168E-02	-4.62970660237E+01
7.64488977956E+10	1.45871224372E-01	-8.03791984781E+01	1.51670358698E-04	-3.23904741973E+01	1.37758811244E-04	-4.82447692775E+01	2.58011078203E-02	-4.46153339085E+01
7.64549098196E+10	1.44267144124E-01	-7.98209765285E+01	2.03093313684E-04	-6.77125146059E+01	1.62742025313E-04	-8.76156884324E+01	2.54641518802E-02	-4.37690470104E+01
7.64609218437E+10	1.44474258255E-01	-8.09912157139E+01	1.84169456651E-04	-8.52235395436E+01	1.71602419693E-04	-9.34295627402E+01	2.50832878744E-02	-4.38582299894E+01
7.64669338677E+10	1.44471786812E-01	-8.06820222554E+01	1.02411729035E-04	-1.16119373898E+02	8.34016932239E-05	-1.11273309441E+02	2.45006043232E-02	-4.35056704230E+01
7.64729458918E+10	1.44880674399E-01	-8.02483112921E+01	6.97826131243E-05	-1.05152773345E+02	1.78144557704E-05	5.31715512551E+01	2.48994899473E-02	-4.23855863354E+01
7.64789579158E+10	1.44691145573E-01	-7.99585491236E+01	4.45593650348E-05	-6.76109062486E+01	1.24032454893E-04	-2.90587905890E+00	2.59146110171E-02	-4.04530801014E+01
7.64849699399E+10	1.44687490379E-01	-8.04654154792E+01	9.89879824491E-05	-1.86196166288E+01	1.24590044301E-04	-2.11924758063E+00	2.50037365342E-02	-3.84077340855E+01
7.64909819639E+10	1.42400245508E-01	-7.93263817104E+01	4.38356124539E-05	1.30484473873E+01	1.01379081403E-04	-7.12505322879E+01	2.58487760475E-02	-3.86532043021E+01
7.64969939880E+10	1.43222433654E-01	-8.08216411980E+01	1.62480499158E-05	-4.10412959366E+01	1.48301408873E-04	-4.76567789249E+01	2.57360201326E-02	-3.81327899669E+01
7.65030060120E+10	1.42167551571E-01	-8.05782229047E+01	1.65593449242E-04	-5.33546010193E-01	1.08618125842E-04	-3.47541882325E+01	2.68538309497E-02	-3.63593350977E+01
7.65090180361E+10	1.45002585734E-01	-8.22984464327E+01	1.27957147575E-04	-2.54056221137E+01	2.29377703018E-04	-3.53107818109E+01	2.57439458299E-02	-3.50023316152E+01
7.65150300601E+10	1.42260070745E-01	-7.94086419818E+01	2.64131261954E-04	-5.34411473381E+01	3.12768085262E-04	-5.14729490251E+01	2.61006831142E-02	-3.48967782841E+01
7.65210420842E+10	1.43269361531E-01	-8.28535919556E+01	2.31921420487E-04	-4.42141164556E+01	1.77599157391E-04	-8.50227073614E+01	2.61951985002E-02	-3.39481231740E+01
7.65270541082E+10	1.42430596840E-01	-8.21260228374E+01	1.27714059434E-04	-7.38170523313E+01	1.56716426127E-04	-9.44005548439E+01	2.55232967882E-02	-3.25865580145E+01
7.65330661323E+10	1.42237924768E-01	-8.04328241252E+01	1.79682063111E-04	-3.85373814733E+01	1.63111402049E-04	-7.76419232090E+01	2.60077207490E-02	-3.15440734216E+01
7.65390781563E+10	1.43346546266E-01	-8.24812568422E+01	2.34591231701E-04	-6.62622384738E+01	2.09555607595E-04	-7.11483502021E+01	2.67506499566E-02	-3.11589750294E+01
7.65450901804E+10	1.45320389102E-01	-8.33557720006E+01	2.36654695226E-04	-7.82298890670E+01	2.17471632135E-04	-8.59969045577E+01	2.71157514093E-02	-2.93751854114E+01
7.65511022044E+10	1.42184347256E-01	-8.17357527364E+01	1.89185991690E-04	-6.70812930986E+01	2.44738580073E-04	-9.57786851774E+01	2.58324188586E-02	-2.74558824018E+01
7.65571142285E+10	1.39725645466E-01	-8.00542562711E+01	2.35293107699E-04	-7.39262319960E+01	1.77710108087E-04	-8.88175652156E+01	2.80213766738E-02	-2.72629352436E+01
7.65631262525E+10	1.42489738679E-01	-8.34012086487E+01	2.42321898544E-04	-7.73125086316E+01	1.78234667335E-04	-9.45955881278E+01	2.68657100674E-02	-2.65586142738E+01
7.65691382766E+10	1.41838011737E-01	-8.31881068583E+01	1.98924937680E-04	-9.76727625192E+01	2.51725674060E-04	-1.13807508221E+02	2.73069366598E-02	-2.64590116724E+01
7.65751503006E+10	1.40017569523E-01	-8.20787281707E+01	2.71406185280E-04	-9.90822599739E+01	2.66601640426E-04	-1.11012895030E+02	2.76709385706E-02	-2.50801851560E+01
7.65811623246E+10	1.39066893119E-01	-8.16926410146E+01	2.87548040552E-04	-1.13379150159E+02	3.12261376960E-04	-1.22827192192E+02	2.83476300754E-02	-2.26994336497E+01
7.65871743487E+10	1.40389670828E-01	-8.39613198631E+01	2.58311597116E-04	-1.25966727891E+02	2.07034207595E-04	-1.33370921926E+02	2.76326812693E-02	-2.32144139693E+01
7.65931863727E+10	1.39343919272E-01	-8.28858048822E+01	3.22045145598E-04	-1.29748876766E+02	3.09649448970E-04	-1.43341328734E+02	2.84118117461E-02	-2.29280478662E+01
7.65991983968E+10	1.39639437881E-01	-8.29842968710E+01	2.86551206980E-04	-1.55394337989E+02	3.47123849043E-04	-1.49056475504E+02	2.89532954333E-02	-2.11925986813E+01
7.66052104208E+10	1.38743555503E-01	-8.37267771520E+01	2.78436934685E-04	-1.47673209896E+02	2.28902844289E-04	-1.59911351380E+02	2.93892175061E-02	-2.01718822781E+01
7.66112224449E+10	1.37105885723E-01	-8.32425698259E+01	2.54527638694E-04	-1.58146947296E+02	2.48015257377E-04	-1.77357185552E+02	2.92871287636E-02	-1.94891304307E+01
7.66172344689E+10	1.38104825871E-01	-8.36488325903E+01	2.24979633588E-04	-1.73751763707E+02	1.99522195386E-04	-1.70783294858E+02	3.05234682432E-02	-1.99447114893E+01
7.66232464930E+10	1.38501202576E-01	-8.44030780374E+01	1.63885066321E-04	-1.58088574769E+02	1.37138742451E-04	-1.59009943695E+02	3.02132473481E-02	-1.87273701592E+01
7.66292585170E+10	1.36942081946E-01	-8.34770997672E+01	1.30002430172E-04	-1.54462849871E+02	1.41963701433E-04	1.71467497134E+02	2.97338176062E-02	-1.72795620500E+01
7.66352705411E+10	1.35731409847E-01	-8.36601087713E+01	1.25073842598E-04	-1.41757194145E+02	1.33259152268E-04	-1.66413429405E+02	3.04825980707E-02	-1.59045831781E+01
7.66412825651E+10	1.35629445802E-01	-8.47629661464E+01	1.82568789154E-04	-1.33715632978E+02	1.79609783250E-04	-1.62416036732E+02	3.15104937606E-02	-1.53259936413E+01
7.66472945892E+10	1.34800610814E-01	-8.52121289224E+01	1.02420491283E-04	-1.60977242832E+02	1.78028703628E-04	-1.55112657302E+02	3.12440501324E-02	-1.37421194162E+01
7.66533066132E+10	1.35299431341E-01	-8.54262523974E+01	1.87930611479E-04	-1.48079687445E+02	2.21968998774E-04	-1.64700521404E+02	3.18986070589E-02	-1.36765409959E+01
7.66593186373E+10	1.33072927437E-01	-8.60796731560E+01	1.47604106679E-04	-1.69207916789E+02	1.48137713369E-04	-1.77431033121E+02	3.28633932764E-02	-1.44455602310E+01
7.66653306613E+10	1.35340866255E-01	-8.71720310429E+01	1.10498100745E-04	1.72436620322E+02	2.07340366734E-04	1.65181391635E+02	3.32208963971E-02	-1.36270868182E+01
7.66713426854E+10	1.32211316487E-01	-8.44954826774E+01	8.15884203398E-05	-1.73869067696E+02	1.84850154239E-04	1.50785683801E+02	3.36998045437E-02	-1.09415692387E+01
7.66773547094E+10	1.32306613695E-01	-8.44790886325E+01	1.23254900938E-04	1.48367156621E+02	2.54129630153E-04	1.47622046329E+02	3.39684300624E-02	-1.18840458575E+01
7.66833667335E+10	1.30827018384E-01	-8.42490317988E+01	1.52924889074E-04	1.49142155337E+02	1.75993797609E-04	1.19397573429E+02	3.53701488443E-02	-1.19822265948E+01
7.66893787575E+10	1.30400678021E-01	-8.58258890101E+01	5.67158594645E-05	9.81418043306E+01	1.11138227852E-04	1.24482675559E+02	3.48657243519E-02	-1.10164420255E+01
7.66953907816E+10	1.31405859134E-01	-8.58939067314E+01	4.49167877972E-05	1.32387732517E+02	4.80204757530E-05	1.25428119052E+02	3.49008856492E-02	-9.73575990869E+00
7.67014028056E+10	1.32108922348E-01	-8.58285724449E+01	5.72606106380E-05	1.33513162083E+02	4.04145140011E-05	1.38839023235E+02	3.65322806193E-02	-1.07915293684E+01
7.67074148297E+10	1.28745009723E-01	-8.34124348157E+01	7.74602145119E-05	-1.37579607890E+02	5.88315822656E-05	1.46508516827E+02	3.73419420252E-02	-1.01258490210E+01
7.67134268537E+10	1.30628648733E-01	-8.61814622475E+01	6.99919963727E-05	-1.43156042381E+02	4.14388180032E-05	-1.69691513598E+02	3.72933056300E-02	-8.17114887558E+00
7.67194388778E+10	1.32062182062E-01	-8.74136129775E+01	1.25835968166E-04	-1.64998354256E+02	5.73240678870E-05	1.76306051690E+02	3.87458120694E-02	-8.82523000987E+00
7.67254509018E+10	1.29765492335E-01	-8.58176863022E+01	1.03914415434E-04	-1.48258226682E+02	4.81145676062E-05	-1.25800137712E+02	3.98583375303E-02	-8.57004222399E+00
7.67314629259E+10	1.28233286844E-01	-8.52454576210E+01	9.80917265599E-05	-1.37307871615E+02	6.61100125203E-05	-1.22100371238E+02	4.00347666156E-02	-8.44170833519E+00
7.67374749499E+10	1.30043079569E-01	-8.53105673014E+01	1.40213663614E-04	-1.39758672778E+02	1.40765626190E-04	-1.65008850463E+02	4.01918885914E-02	-7.73428324066E+00
7.67434869739E+10	1.31433689761E-01	-8.64834775927E+01	1.33794158999E-04	-1.54078289219E+02	7.12821911736E-05	1.63194090909E+02	4.04163040592E-02	-7.06012054572E+00
7.67494989980E+10	1.27797639710E-01	-8.44052953470E+01	1.38465871944E-04	-1.33226686144E+02	8.64441365379E-05	-1.74258558551E+02	4.09886070401E-02	-8.67656962487E+00
7.67555110220E+10	1.26178024292E-01	-8.49696281080E+01	1.15712511285E-04	1.68820063521E+02	8.13634245968E-05	-1.28992438128E+02	4.20153396869E-02	-8.79000308424E+00
7.67615230461E+10	1.26879169988E-01	-8.45156690440E+01	1.35315977266E-04	-1.46282085764E+02	1.38379396143E-04	-1.26969553817E+02	4.29601979583E-02	-8.78616015875E+00
7.67675350701E+10	1.28429411067E-01	-8.58313521263E+01	2.73419187217E-04	-1.35615615012E+02	2.11748273174E-04	-1.49738325339E+02	4.28695961966E-02	-7.60960852929E+00
7.67735470942E+10	1.29150491347E-01	-8.57253244926E+01	2.38655656346E-04	-1.61850881900E+02	1.76614824065E-04	-1.61292148837E+02	4.35578513771E-02	-7.18241129241E+00
7.67795591182E+10	1.29406548953E-01	-8.54450487909E+01	3.33821162435E-04	-1.63129944197E+02	2.22427042266E-04	-1.67192720716E+02	4.37923156481E-02	-7.46959926467E+00
7.67855711423E+10	1.28638744663E-01	-8.42353201553E+01	3.86863844143E-04	-1.66447681417E+02	2.97843635110E-04	1.78830855752E+02	4.42202001701E-02	-8.12174898629E+00
7.67915831663E+10	1.28624394450E-01	-8.68738891094E+01	3.83221789902E-04	1.78018268382E+02	3.31900843659E-04	1.78899276793E+02	4.51739972915E-02	-9.04458715359E+00
7.67975951904E+10	1.30232844286E-01	-8.65071973554E+01	4.26482929106E-04	1.68052412907E+02	3.85683742415E-04	1.65223837880E+02	4.57548022953E-02	-8.80436093711E+00
7.68036072144E+10	1.27789288925E-01	-8.70796383703E+01	3.89541333762E-04	1.50036413976E+02	4.01665756239E-04	1.57481069635E+02	4.64147438696E-02	-7.78528297380E+00
7.68096192385E+10	1.30381880127E-01	-8.78591523084E+01	4.11281777288E-04	1.48414536727E+02	3.92612099183E-04	1.41539935739E+02	4.66598170883E-02	-6.81207969858E+00
7.68156312625E+10	1.27908656707E-01	-8.57414620645E+01	4.29682601451E-04	1.33045233351E+02	3.25514658081E-04	1.34925497415E+02	4.70707090140E-02	-7.37428596367E+00
7.68216432866E+10	1.27101278210E-01	-8.56418829440E+01	3.34160350514E-04	1.32067028350E+02	3.37849927645E-04	1.27656456597E+02	4.74404487684E-02	-7.82691994642E+00
7.68276553106E+10	1.26462688240E-01	-8.62539462372E+01	3.77177716782E-04	1.13318044409E+02	2.92095177110E-04	1.09931734439E+02	4.82879056557E-02	-7.79121261420E+00
7.68336673347E+10	1.29436034255E-01	-8.84661995496E+01	3.67944886044E-04	1.28348402683E+02	3.21549721274E-04	1.22207366061E+02	4.86852476972E-02	-7.51607583811E+00
7.68396793587E+10	1.28753029222E-01	-8.72906921117E+01	3.13116246104E-04	1.09813954692E+02	2.58021597184E-04	1.11753171678E+02	4.90596141854E-02	-9.29705854450E+00
7.68456913828E+10	1.26897398964E-01	-8.61452108503E+01	3.34375954610E-04	1.21584601348E+02	3.23980175677E-04	1.05859634061E+02	4.99400022658E-02	-9.14944959329E+00
7.68517034068E+10	1.28635762410E-01	-8.83300603855E+01	3.85504402196E-04	1.19391025149E+02	3.71914092646E-04	1.14214781619E+02	4.99390100791E-02	-8.00151649264E+00
7.68577154309E+10	1.26236189776E-01	-8.89243760149E+01	4.59901018731E-04	1.13720489294E+02	3.53985665066E-04	1.11887330614E+02	5.03956404062E-02	-7.58371532374E+00
7.68637274549E+10	1.26880488970E-01	-8.75563685410E+01	4.62295877838E-04	1.11752211433E+02	4.52723166477E-04	1.08512261179E+02	5.10647400916E-02	-8.41811217928E+00
7.68697394790E+10	1.26655702598E-01	-8.79042863388E+01	4.93998637287E-04	9.56745410029E+01	4.94172038039E-04	9.34951173601E+01	5.15475274437E-02	-8.90764504768E+00
7.68757515030E+10	1.27582268489E-01	-8.84575649989E+01	5.69876642404E-04	7.85519165719E+01	4.75313047654E-04	7.22344916742E+01	5.17678553590E-02	-9.42408638664E+00
7.68817635271E+10	1.26838404282E-01	-8.75823869712E+01	4.75160306787E-04	7.03932131883E+01	4.75366258965E-04	6.55568231660E+01	5.17554857825E-02	-8.11298074626E+00
7.68877755511E+10	1.24325331429E-01	-8.68595839587E+01	4.33946665746E-04	6.76981443426E+01	4.23931413152E-04	6.34120293124E+01	5.24077776417E-02	-8.12525829519E+00
7.68937875752E+10	1.26759976187E-01	-8.87873140826E+01	5.10588300023E-04	7.49147725709E+01	4.32322747619E-04	5.95301630825E+01	5.31091712536E-02	-7.89433524976E+00
7.68997995992E+10	1.24000014027E-01	-8.82604991591E+01	4.80416227750E-04	6.32902291143E+01	4.75903198757E-04	6.00813292837E+01	5.36800058068E-02	-9.94507754035E+00
7.69058116232E+10	1.26303879858E-01	-9.05008432450E+01	4.92660448006E-04	5.49117992905E+01	5.69891160174E-04	4.74067558530E+01	5.38529845488E-02	-9.81163827972E+00
7.69118236473E+10	1.23304981175E-01	-9.02438488962E+01	4.87453499243E-04	5.60928899888E+01	4.76219795285E-04	4.37243903013E+01	5.41701793597E-02	-8.14361226226E+00
7.69178356713E+10	1.24275795789E-01	-9.01592113499E+01	4.54809144551E-04	4.19130161624E+01	4.89310917308E-04	3.25728943561E+01	5.44530077382E-02	-8.25311734315E+00
7.69238476954E+10	1.22855358968E-01	-9.00894583564E+01	4.12137615990E-04	3.42966644141E+01	5.25509843782E-04	3.11966346932E+01	5.53968782912E-02	-9.26989253502E+00
7.69298597194E+10	1.25542781982E-01	-9.23537139995E+01	4.89679466885E-04	3.92618298442E+01	4.85444565280E-04	2.33779255846E+01	5.59213916900E-02	-1.00624364196E+01
7.69358717435E+10	1.21960973044E-01	-9.18219774071E+01	5.34061216998E-04	2.08868809644E+01	4.36187088928E-04	1.99622185003E+01	5.63950384312E-02	-8.05018568787E+00
7.69418837675E+10	1.19697496555E-01	-8.96729121959E+01	4.85473295143E-04	1.33402805462E+01	4.64420167538E-04	1.08491232415E+01	5.64589763615E-02	-9.82409151421E+00
7.69478957916E+10	1.20904973815E-01	-8.98711453178E+01	4.17086233093E-04	3.45475973873E+00	4.76406988155E-04	-2.79675188353E-01	5.67788042863E-02	-9.05281680265E+00
7.69539078156E+10	1.19529138859E-01	-8.91407783304E+01	4.23316467511E-04	7.57792019714E+00	4.14314904017E-04	-5.80013587559E+00	5.80826915922E-02	-8.65400316159E+00
7.69599198397E+10	1.19874162987E-01	-9.06032820668E+01	4.94909314245E-04	1.74004222729E+00	4.49953495554E-04	-9.41674624732E+00	5.88149880728E-02	-8.51593697077E+00
7.69659318637E+10	1.19855700514E-01	-8.97717788836E+01	5.08449401980E-04	-1.10658117164E+01	4.99101746185E-04	-1.16877766791E+01	5.85158769535E-02	-8.74683026260E+00
7.69719438878E+10	1.19937039823E-01	-9.15796429032E+01	4.75515801219E-04	-1.18235061687E+01	4.80837438537E-04	-2.33578203569E+01	5.90789864662E-02	-8.37060950570E+00
7.69779559118E+10	1.19650549630E-01	-9.07568637499E+01	4.65337030360E-04	-3.04604700455E+01	4.65403857061E-04	-3.77269283876E+01	5.95089102951E-02	-8.71366047831E+00
7.69839679359E+10	1.18360038281E-01	-8.98273992934E+01	4.75235998362E-04	-3.90427616891E+01	3.97978805508E-04	-5.16258398932E+01	5.98515878303E-02	-9.31576923679E+00
7.69899799599E+10	1.17679290488E-01	-8.86545021845E+01	3.68215539246E-04	-4.37640349275E+01	3.66710675627E-04	-4.71529987826E+01	6.05650248482E-02	-9.97380402693E+00
7.69959919840E+10	1.18916135249E-01	-9.08328714740E+01	2.90412294521E-04	-4.66848378346E+01	3.32507198891E-04	-5.26573449737E+01	6.10646348241E-02	-9.72974960692E+00
7.70020040080E+10	1.19187914620E-01	-9.14526282385E+01	3.46139516284E-04	-4.66944470428E+01	3.44379942939E-04	-5.48119534106E+01	6.22241840736E-02	-1.03299822160E+01
7.70080160321E+10	1.19206822287E-01	-9.17237230920E+01	2.56157336711E-04	-5.01215005689E+01	3.32330498446E-04	-6.16971476343E+01	6.24530166629E-02	-9.33465671696E+00
7.70140280561E+10	1.18705409486E-01	-9.01684422886E+01	2.24551219643E-04	-5.65678729785E+01	2.62409139450E-04	-8.03680447617E+01	6.22457424095E-02	-9.29491645985E+00
7.70200400802E+10	1.18548399037E-01	-9.13879142434E+01	2.56034993083E-04	-5.09321888341E+01	2.75347864474E-04	-7.66867227701E+01	6.30016098663E-02	-1.02035670072E+01
7.70260521042E+10	1.17276943167E-01	-9.22643448765E+01	2.30045153191E-04	-5.68395460456E+01	2.78780964820E-04	-7.29087785252E+01	6.35473181918E-02	-9.85354385656E+00
7.70320641283E+10	1.16508217717E-01	-9.14164486814E+01	2.39856289996E-04	-6.00177399899E+01	2.38885805279E-04	-6.82828795276E+01	6.33688445934E-02	-9.66417582946E+00
7.70380761523E+10	1.16817397910E-01	-9.04495171762E+01	2.32027637158E-04	-6.59796677844E+01	2.28468783589E-04	-1.03000225996E+02	6.53989951642E-02	-1.15782667107E+01
7.70440881764E+10	1.16159258789E-01	-9.18718528468E+01	1.83659050535E-04	-7.67152654867E+01	1.47189639377E-04	-7.16871209105E+01	6.60520962142E-02	-1.06916387351E+01
7.70501002004E+10	1.16526156964E-01	-9.10391930714E+01	9.28204656062E-05	-8.61851224098E+01	1.41938646445E-04	-8.04156155912E+01	6.59006895025E-02	-1.13183541913E+01
7.70561122244E+10	1.18258262121E-01	-9.12763277848E+01	9.94103561589E-05	-9.13150460197E+01	2.01030554230E-04	-6.06606602491E+01	6.52935908651E-02	-9.79641030991E+00
7.70621242485E+10	1.17570884738E-01	-9.11197912200E+01	9.95031355041E-05	-6.15581142026E+01	1.29313679726E-04	-6.39067325702E+01	6.58515255272E-02	-1.11461910749E+01
7.70681362725E+10	1.16533566633E-01	-9.12830916040E+01	1.71208250537E-04	-6.86584516003E+01	1.74831800021E-04	-5.84322508778E+01	6.70334295228E-02	-1.11429007141E+01
7.70741482966E+10	1.15418948985E-01	-8.90893718001E+01	1.60394989194E-04	-7.10911222038E+01	2.00453109648E-04	-8.37495581339E+01	6.81487307087E-02	-1.16452403297E+01
7.70801603206E+10	1.16625746645E-01	-9.10312290323E+01	1.77551521951E-04	-9.60744859153E+01	1.06110751234E-04	-8.72940300144E+01	6.84171715227E-02	-1.15088544556E+01
7.70861723447E+10	1.16386371091E-01	-9.25312647014E+01	1.39950373396E-04	-6.63491868087E+01	1.98471573871E-04	-7.79559168805E+01	6.94660448708E-02	-1.20969848767E+01
7.70921843687E+10	1.16104747203E-01	-9.28866633701E+01	1.05851597536E-04	-7.22363575873E+01	1.76147068913E-04	-7.87316383785E+01	6.85946654186E-02	-1.15868761008E+01
7.70981963928E+10	1.16825797369E-01	-9.09214342253E+01	1.84735201232E-04	-7.86633661813E+01	1.87021765847E-04	-7.32565914357E+01	6.93301107971E-02	-1.28293422332E+01
7.71042084168E+10	1.17812437244E-01	-9.31116316418E+01	1.81833156595E-04	-8.20032613668E+01	2.11917085447E-04	-9.44224603271E+01	6.93775558702E-02	-1.28785350995E+01
7.71102204409E+10	1.18217181657E-01	-9.39206836479E+01	1.44225961323E-04	-7.38612298956E+01	1.95140734508E-04	-8.66631217720E+01	6.94885317451E-02	-1.28163545900E+01
7.71162324649E+10	1.15009685710E-01	-9.16406587756E+01	1.89152307824E-04	-6.54112341697E+01	1.11972526428E-04	-1.13600182370E+02	6.96367150405E-02	-1.18184540369E+01
7.71222444890E+10	1.13393694818E-01	-9.22575677277E+01	1.44064035620E-04	-6.18707530827E+01	1.82483356043E-04	-7.82845632890E+01	7.08828118922E-02	-1.42951988480E+01
7.71282565130E+10	1.14052652120E-01	-9.17295031691E+01	1.84344026884E-04	-7.11430992452E+01	2.05145686156E-04	-9.46215785282E+01	6.95935757656E-02	-1.31005755468E+01
7.71342685371E+10	1.14178166412E-01	-9.22196275489E+01	2.63792405789E-04	-8.34583149453E+01	1.77277358883E-04	-9.89245325884E+01	7.07327923754E-02	-1.34039183235E+01
7.71402805611E+10	1.17048953313E-01	-9.41948396468E+01	2.08712379207E-04	-8.84203135648E+01	1.91209066338E-04	-1.05136409751E+02	7.24391335352E-02	-1.30139999438E+01
7.71462925852E+10	1.12361975377E-01	-9.19215292914E+01	2.02727069859E-04	-7.11582504276E+01	1.66362491116E-04	-9.07399973049E+01	7.25931280376E-02	-1.32691343742E+01
7.71523046092E+10	1.13412754524E-01	-9.27456635847E+01	1.94405789306E-04	-7.48026692170E+01	1.51137759126E-04	-9.14303118445E+01	7.18882401704E-02	-1.43120489321E+01
7.71583166333E+10	1.15381202375E-01	-9.31607160603E+01	2.36523996647E-04	-8.80293137956E+01	1.89564928831E-04	-8.79523328580E+01	7.26813089410E-02	-1.43422055204E+01
7.71643286573E+10	1.14000424355E-01	-9.29987563818E+01	1.72612716245E-04	-1.11087071069E+02	1.88293150439E-04	-1.09790132592E+02	7.37177086511E-02	-1.49455720415E+01
7.71703406814E+10	1.12838077867E-01	-9.27682615715E+01	2.39554692452E-04	-1.13470940713E+02	1.94399256769E-04	-1.19368915048E+02	7.38789234192E-02	-1.34048497108E+01
7.71763527054E+10	1.12870671867E-01	-9.31134650340E+01	9.55256883917E-05	-1.24642918908E+02	1.02778273782E-04	-1.02310930467E+02	7.52719905709E-02	-1.45012109605E+01
7.71823647295E+10	1.13312290867E-01	-9.37752514886E+01	1.60003928736E-04	-1.10105602386E+02	1.70560668040E-04	-7.03477648504E+01	7.39629843723E-02	-1.40157500700E+01
7.71883767535E+10	1.13192872028E-01	-9.35631028948E+01	2.15147925247E-04	-6.41127536028E+01	2.40211635666E-04	-5.93858582138E+01	7.43586971108E-02	-1.40877370953E+01
7.71943887776E+10	1.11992032236E-01	-9.27268520216E+01	3.31202402258E-04	-9.23916938883E+01	2.80441803451E-04	-9.00391842410E+01	7.53790670963E-02	-1.42289507583E+01
7.72004008016E+10	1.11614145517E-01	-9.30999055564E+01	3.13153955210E-04	-9.12137464316E+01	3.46841303469E-04	-9.24376637915E+01	7.64714659500E-02	-1.47974884445E+01
7.72064128257E+10	1.12008061782E-01	-9.25917887912E+01	3.15274840153E-04	-1.05692667564E+02	3.36250177647E-04	-1.04320640079E+02	7.71498829371E-02	-1.42851008196E+01
7.72124248497E+10	1.12532338806E-01	-9.55515076558E+01	3.05150836049E-04	-1.22573661872E+02	3.42173596570E-04	-1.17380931063E+02	7.73363502572E-02	-1.45450499943E+01
7.72184368737E+10	1.13441277286E-01	-9.71111005389E+01	3.48542451729E-04	-1.10896794612E+02	3.46744362132E-04	-1.11237815989E+02	7.58181158152E-02	-1.50932730856E+01
7.72244488978E+10	1.12441818607E-01	-9.55944747807E+01	3.27502158700E-04	-1.24508141409E+02	3.23760545066E-04	-1.28079328374E+02	7.89098407527E-02	-1.45327560681E+01
7.72304609218E+10	1.11139265642E-01	-9.35686773973E+01	3.07826967993E-04	-1.32722449396E+02	3.81114849107E-04	-1.28846002191E+02	7.85749585673E-02	-1.50163756245E+01
7.72364729459E+10	1.11280720140E-01	-9.60661518235E+01	3.27557081953E-04	-1.31363467419E+02	3.90105687849E-04	-1.39392017220E+02	7.88521141491E-02	-1.33969940217E+01
7.72424849699E+10	1.11181645669E-01	-9.47913382315E+01	3.38970411129E-04	-1.31064113065E+02	4.14037729957E-04	-1.46446810761E+02	7.98972565586E-02	-1.54439680514E+01
7.72484969940E+10	1.10659548641E-01	-9.53628234960E+01	3.72199467683E-04	-1.46682214982E+02	4.05762003612E-04	-1.46743431317E+02	7.95833591861E-02	-1.55440890170E+01
7.72545090180E+10	1.10222651564E-01	-9.49419482220E+01	3.67147874944E-04	-1.41590776934E+02	4.48118482371E-04	-1.59365105839E+02	8.10960875410E-02	-1.47911424900E+01
7.72605210421E+10	1.08849193078E-01	-9.37546648148E+01	3.14896734278E-04	-1.50558336224E+02	4.29638171806E-04	-1.73476479851E+02	8.17468281194E-02	-1.51267924982E+01
7.72665330661E+10	1.11045046943E-01	-9.57653696799E+01	3.40100654580E-04	-1.65841928957E+02	4.19093504421E-04	-1.65726735334E+02	8.24965440640E-02	-1.70123677946E+01
7.72725450902E+10	1.10297053611E-01	-9.48704688211E+01	3.77760460245E-04	-1.67919514681E+02	3.93302196673E-04	-1.71866701030E+02	8.23821570020E-02	-1.64302358253E+01
7.72785571142E+10	1.11445038227E-01	-9.71758184848E+01	3.44167168584E-04	-1.47602375713E+02	4.03209828868E-04	1.78755489799E+02	8.21763862455E-02	-1.55693576910E+01
7.72845691383E+10	1.09449234919E-01	-9.69890506649E+01	3.62313259016E-04	-1.64064535090E+02	4.27947375334E-04	1.76130422985E+02	8.23453723877E-02	-1.56876233426E+01
7.72905811623E+10	1.08118078905E-01	-9.56878920805E+01	4.26422028622E-04	-1.68323083414E+02	4.30734800940E-04	1.70430708472E+02	8.38004648997E-02	-1.71048165331E+01
7.72965931864E+10	1.07512714322E-01	-9.53119559821E+01	4.76013311107E-04	-1.75617089354E+02	4.28670345816E-04	1.57261993540E+02	8.38039972790E-02	-1.81991751627E+01
7.73026052104E+10	1.07618715354E-01	-9.54804399510E+01	3.71697266388E-04	1.72451458704E+02	4.34380366012E-04	1.51368619396E+02	8.47512819168E-02	-1.80901744359E+01
7.73086172345E+10	1.07386555204E-01	-9.69679519905E+01	4.03084339070E-04	1.67885838503E+02	3.67258666933E-04	1.47341419943E+02	8.51454771822E-02	-1.77814804525E+01
7.73146292585E+10	1.07092766783E-01	-9.67228953823E+01	3.64832373243E-04	1.54933637499E+02	3.78162931131E-04	1.42727276099E+02	8.58754657667E-02	-1.73016612199E+01
7.73206412826E+10	1.07264693021E-01	-9.54878255032E+01	3.62996285675E-04	1.43452124769E+02	3.16004010983E-04	1.36948430157E+02	8.63780224670E-02	-1.89339145700E+01
7.73266533066E+10	1.04804792106E-01	-9.79623334442E+01	3.35373717985E-04	1.57550933949E+02	2.32373473629E-04	1.42959626370E+02	8.55573122024E-02	-1.89258602812E+01
7.73326653307E+10	1.05892537070E-01	-9.82155662414E+01	3.38484167606E-04	1.66119855900E+02	2.72943276345E-04	1.40679346091E+02	8.54085604476E-02	-1.84790237885E+01
7.73386773547E+10	1.05988935621E-01	-9.74590028114E+01	3.29958933665E-04	1.47675209330E+02	3.41193042810E-04	1.43135078439E+02	8.63331608182E-02	-1.77468687267E+01
7.73446893788E+10	1.04474369540E-01	-9.63234457265E+01	3.44072837859E-04	1.55157650031E+02	3.73716544922E-04	1.46556909198E+02	8.55964488677E-02	-1.88709436064E+01
7.73507014028E+10	1.06033843948E-01	-9.62529066572E+01	3.74407334130E-04	1.49356803326E+02	3.45551676802E-04	1.36391548523E+02	8.82993460011E-02	-1.93494245363E+01
7.73567134269E+10	1.04178800777E-01	-9.74345058355E+01	3.82881834018E-04	1.30019278790E+02	4.16083092146E-04	1.32154100410E+02	8.80862865023E-02	-1.84380262784E+01
7.73627254509E+10	1.04687066072E-01	-9.67572964294E+01	3.94701998056E-04	1.39498402188E+02	4.26558303339E-04	1.17925925617E+02	8.90515032101E-02	-1.93246406407E+01
7.73687374749E+10	1.07113247388E-01	-9.47479813429E+01	3.33140219138E-04	1.25973848780E+02	3.96791420893E-04	1.13309032896E+02	8.97450675363E-02	-2.09757202768E+01
7.73747494990E+10	1.06905710442E-01	-9.63426674467E+01	3.53642510438E-04	1.07784473375E+02	3.35308870642E-04	1.00797048799E+02	8.87677049857E-02	-2.04622993578E+01
7.73807615230E+10	1.04786929731E-01	-9.56997831123E+01	2.86423988503E-04	1.21166757641E+02	3.30122229665E-04	1.01907435926E+02	8.97737290906E-02	-1.95295284286E+01
7.73867735471E+10	1.05699254843E-01	-9.59194566438E+01	3.66826551740E-04	1.27656962618E+02	3.04628952722E-04	1.04342956929E+02	8.89117735935E-02	-2.14470189916E+01
7.73927855711E+10	1.06109430380E-01	-9.66772493512E+01	3.49787436949E-04	1.09665331079E+02	3.32847607129E-04	1.06898269646E+02	8.89985557242E-02	-2.13765099152E+01
7.73987975952E+10	1.05191289788E-01	-9.70918592956E+01	2.91922237290E-04	1.00628572645E+02	3.61761034739E-04	9.92772917414E+01	9.02441096271E-02	-2.00696345600E+01
7.74048096192E+10	1.05046531931E-01	-9.49033680689E+01	3.69023916553E-04	1.03496962809E+02	3.66521049192E-04	9.00300206354E+01	8.94859070779E-02	-2.02606439935E+01
7.74108216433E+10	1.05039201567E-01	-9.71820400092E+01	3.68790939355E-04	1.12935467872E+02	3.97910772742E-04	8.94676642954E+01	9.14102413452E-02	-2.16899029968E+01
7.74168336673E+10	1.04054381768E-01	-9.79135785392E+01	3.29401197234E-04	1.05086339294E+02	4.37729981211E-04	7.57297756896E+01	9.24137250007E-02	-2.04976707811E+01
7.74228456914E+10	1.03412883591E-01	-9.92030599841E+01	3.75750835694E-04	1.00552621943E+02	3.77343466197E-04	7.24589556814E+01	9.13211762633E-02	-2.06734528629E+01
7.74288577154E+10	1.04057556759E-01	-9.67153466396E+01	3.60838026890E-04	9.37751299564E+01	3.45742375678E-04	7.21532856219E+01	9.20496747621E-02	-2.18481411826E+01
7.74348697395E+10	1.03349461380E-01	-9.81665360684E+01	4.07800887707E-04	9.03878446468E+01	3.81992870324E-04	5.98843675968E+01	9.36594941793E-02	-2.13402829427E+01
7.74408817635E+10	1.03499030630E-01	-9.61987341524E+01	4.22404213562E-04	9.43283330688E+01	3.40815286117E-04	6.41425469152E+01	9.32635055127E-02	-2.20874962193E+01
7.74468937876E+10	1.03569397533E-01	-9.61734263970E+01	4.72456398943E-04	8.27931829240E+01	3.77039132098E-04	5.81253449874E+01	9.31604835567E-02	-2.01797024940E+01
7.74529058116E+10	1.03810074362E-01	-9.76636803812E+01	5.01823467298E-04	8.12386072461E+01	3.70524310430E-04	5.54985142608E+01	9.31719297306E-02	-2.24174160431E+01
7.74589178357E+10	1.03030944642E-01	-9.67382308713E+01	6.07042158668E-04	6.55867460416E+01	4.18138524293E-04	4.69633466410E+01	9.40394876532E-02	-2.22614027449E+01
7.74649298597E+10	1.02995471154E-01	-9.64241715704E+01	4.45352140980E-04	6.52226734806E+01	4.09289792631E-04	3.84350906617E+01	9.57506232584E-02	-2.27151897932E+01
7.74709418838E+10	1.05311984146E-01	-9.93636030279E+01	4.93355634507E-04	4.57899735236E+01	4.29953216584E-04	2.60574190901E+01	9.45940786935E-02	-2.25363766548E+01
7.74769539078E+10	1.07028171990E-01	-1.00030983913E+02	4.18880959892E-04	3.91487606916E+01	3.30920403702E-04	1.16786007922E+01	9.53438374323E-02	-2.26885081275E+01
7.74829659319E+10	1.03735925879E-01	-9.70053995757E+01	3.60066066750E-04	3.17063596024E+01	2.53627439350E-04	2.55065801957E+00	9.72572121716E-02	-2.29647548361E+01
7.74889779559E+10	1.03772927495E-01	-9.98242594619E+01	3.72190606609E-04	2.77017157531E+01	3.18948308499E-04	1.48582669490E+01	9.72162418371E-02	-2.21884580839E+01
7.74949899800E+10	1.02674996631E-01	-9.77897961277E+01	2.88520421830E-04	3.60206845748E+01	2.28349745640E-04	1.93118828895E+01	9.61537829621E-02	-2.42592738536E+01
7.75010020040E+10	1.01070386282E-01	-9.85890596462E+01	3.59369642292E-04	3.71433134884E+01	2.23610176697E-04	2.86693144900E+01	9.66993878775E-02	-2.35017569342E+01
7.75070140281E+10	1.03228570590E-01	-9.82608767699E+01	3.87588147230E-04	4.05109567779E+01	2.95787494654E-04	2.90008325383E+01	9.72812370396E-02	-2.41608952294E+01
7.75130260521E+10	1.02693008038E-01	-1.00428802150E+02	3.82403258714E-04	3.46001214321E+01	2.91627637896E-04	1.70450796818E+01	9.82392343067E-02	-2.40530920324E+01
7.75190380762E+10	1.01282763006E-01	-9.96604608852E+01	3.93565238795E-04	2.00349387636E+01	3.32901652376E-04	1.53322654232E+01	9.93565615867E-02	-2.44007860107E+01
7.75250501002E+10	1.02248036341E-01	-9.93843584761E+01	4.61089871028E-04	1.10018586369E+01	3.07167261774E-04	7.56339933354E+00	9.85654820652E-02	-2.48823760397E+01
7.75310621242E+10	9.97324759350E-02	-9.92983268822E+01	4.50076366033E-04	3.24462956937E+00	3.12580447558E-04	5.03180654754E+00	9.98878329816E-02	-2.55934424400E+01
7.75370741483E+10	9.93270527339E-02	-1.00239323396E+02	4.20636780220E-04	-5.50757391202E+00	3.10550381839E-04	-1.56722094438E+01	1.00632284675E-01	-2.49293510270E+01
7.75430861723E+10	1.00851411775E-01	-9.99910839554E+01	2.85186418122E-04	-1.13008270153E+01	2.90945963060E-04	-4.06250883386E+00	9.99099336808E-02	-2.47219759079E+01
7.75490981964E+10	1.00817865653E-01	-9.81472787880E+01	3.52455012210E-04	-1.30757529141E+01	2.51931471462E-04	-2.01084130737E+01	1.00952901336E-01	-2.53169529698E+01
7.75551102204E+10	1.00050978562E-01	-1.00717834969E+02	3.03470577448E-04	-1.96353936783E+01	2.26590902973E-04	-2.06995013055E+01	1.01128123199E-01	-2.68413769739E+01
7.75611222445E+10	9.95008570111E-02	-9.80179822813E+01	2.92004051041E-04	-1.73001311251E+01	2.52074253761E-04	-7.99276475226E+00	1.01222456484E-01	-2.65401042696E+01
7.75671342685E+10	9.98824656565E-02	-1.00229340568E+02	2.87791418476E-04	-1.98544446872E+01	1.68667161159E-04	-1.92327928152E+01	1.01875701737E-01	-2.50080894966E+01
7.75731462926E+10	9.80167038862E-02	-9.90431090169E+01	2.24559668752E-04	-1.08987746282E+01	2.10472442781E-04	-3.73600369622E+00	1.02539728432E-01	-2.63038998040E+01
7.75791583166E+10	9.84990460588E-02	-9.92542499463E+01	1.98156260321E-04	-1.78677072370E+01	2.26535040312E-04	-9.89036706108E+00	1.02998248155E-01	-2.69100938808E+01
7.75851703407E+10	9.86724536400E-02	-1.00055514804E+02	1.62845014988E-04	-3.43870143196E+01	2.78537063288E-04	-1.12564406282E+01	1.03229599269E-01	-2.65346064770E+01
7.75911823647E+10	9.93451422744E-02	-1.01924374320E+02	1.42040436991E-04	7.76600257520E+00	2.44899884126E-04	-2.92562372581E+00	1.02651571603E-01	-2.82543372357E+01
7.75971943888E+10	9.73031587479E-02	-1.01370151451E+02	2.23248569411E-04	-2.34211223537E+01	2.80921302103E-04	-1.71280027849E+01	1.03492979614E-01	-2.61262262525E+01
7.76032064128E+10	9.63599797009E-02	-9.87007770885E+01	2.61073171665E-04	-5.89211819718E+00	2.85036600670E-04	-2.10809058255E+01	1.04044906497E-01	-2.73844651038E+01
7.76092184369E+10	9.68490720394E-02	-9.86594994153E+01	2.02617691608E-04	-2.08386559827E+01	2.87529845226E-04	-3.34115936486E+01	1.03869723819E-01	-2.86690102072E+01
7.76152304609E+10	9.85894608093E-02	-9.98860682210E+01	2.12067665457E-04	-2.07954565131E+01	2.70846005528E-04	-3.75175392271E+01	1.04328138029E-01	-2.84999618167E+01
7.76212424850E+10	9.70749085552E-02	-1.00621206030E+02	2.46605487240E-04	-2.25781969810E+01	2.75283950327E-04	-2.61791041356E+01	1.04838025998E-01	-2.84294992565E+01
7.76272545090E+10	9.71688714521E-02	-1.02757306068E+02	2.49228001572E-04	-2.91050670004E+01	3.14178874596E-04	-2.71825786638E+01	1.05054108496E-01	-2.79772835445E+01
7.76332665331E+10	9.80968874847E-02	-1.02200111905E+02	2.51038413412E-04	-3.19472155276E+01	3.19306540630E-04	-4.74751497296E+01	1.05031020119E-01	-2.80296793202E+01
7.76392785571E+10	9.73239872121E-02	-1.00793597259E+02	2.59662669164E-04	-2.92861319680E+01	3.19148826765E-04	-4.10836770658E+01	1.04781697429E-01	-2.92787506506E+01
7.76452905812E+10	9.67737411619E-02	-9.74357795281E+01	2.57703751075E-04	-2.84222749826E+01	3.30696636153E-04	-4.52377064862E+01	1.06037480997E-01	-2.95849399853E+01
7.76513026052E+10	9.77025321642E-02	-1.00793173973E+02	2.46185124070E-04	-1.82055470475E+01	3.30984255803E-04	-5.49139209005E+01	1.06051542240E-01	-2.85914973878E+01
7.76573146293E+10	9.95263305946E-02	-1.00988949332E+02	3.17367777975E-04	-2.73693311963E+01	3.19567777347E-04	-6.09597360322E+01	1.05615666274E-01	-2.79721841784E+01
7.76633266533E+10	9.78566467176E-02	-9.77872269001E+01	1.92513141313E-04	-4.03906552611E+01	3.06079013974E-04	-5.60953858344E+01	1.06423957814E-01	-2.86708452282E+01
7.76693386774E+10	9.84996234261E-02	-9.98937413262E+01	2.73832272960E-04	-4.48924682082E+01	3.27064727093E-04	-6.28866626473E+01	1.07575232943E-01	-3.09863553386E+01
7.76753507014E+10	9.77750552003E-02	-1.01104540401E+02	3.13162347356E-04	-3.48631449172E+01	3.14222712350E-04	-6.83913686733E+01	1.06528347383E-01	-3.02284082246E+01
7.76813627255E+10	9.70027959175E-02	-9.80760809729E+01	3.35584265596E-04	-3.13465045694E+01	3.26749511075E-04	-5.91675604176E+01	1.06434159786E-01	-2.94089601326E+01
7.76873747495E+10	9.98746992527E-02	-1.01442483881E+02	4.14562231182E-04	-4.10031616104E+01	3.82781187340E-04	-7.89879491289E+01	1.08785239559E-01	-3.12980533100E+01
7.76933867735E+10	9.72975632972E-02	-1.02083450281E+02	4.03623392794E-04	-4.23953312512E+01	3.89592594561E-04	-7.71841331861E+01	1.08767146879E-01	-3.15577046792E+01
7.76993987976E+10	9.73031529842E-02	-1.00260407106E+02	3.99118303730E-04	-5.74255986422E+01	4.40023904859E-04	-8.51074074756E+01	1.08093817725E-01	-2.99988877392E+01
7.77054108216E+10	9.62857634061E-02	-1.01498366221E+02	4.23577994206E-04	-5.92010810226E+01	3.89175244467E-04	-8.76502272670E+01	1.08279124056E-01	-3.04482199117E+01
7.77114228457E+10	9.74282171230E-02	-1.03275437602E+02	5.17143593278E-04	-7.37919336162E+01	4.07292063910E-04	-8.90554416163E+01	1.09152117608E-01	-3.15867185358E+01
7.77174348697E+10	9.49184615318E-02	-1.00686002979E+02	4.25568980949E-04	-7.73720771247E+01	4.30714111402E-04	-1.04460356044E+02	1.10961956296E-01	-3.19271214250E+01
7.77234468938E+10	9.39321115165E-02	-1.00212499806E+02	4.70595717669E-04	-8.10081981252E+01	3.62151220499E-04	-1.01544742090E+02	1.11192942750E-01	-3.14924294308E+01
7.77294589178E+10	9.68015404039E-02	-1.02838733803E+02	4.39152372353E-04	-8.74165807769E+01	4.02138665096E-04	-1.05631880342E+02	1.11065624160E-01	-3.13351456170E+01
7.77354709419E+10	9.50382898408E-02	-1.01993419571E+02	4.92494507932E-04	-8.90740450847E+01	3.65854973756E-04	-1.03007098622E+02	1.10498146144E-01	-3.10753168610E+01
7.77414829659E+10	9.43212550815E-02	-9.94676250478E+01	5.35337254583E-04	-8.87739758459E+01	3.99037494852E-04	-1.06065793490E+02	1.11866756515E-01	-3.27291097519E+01
7.77474949900E+10	9.60790996271E-02	-1.03308915446E+02	5.24785055385E-04	-9.60144513221E+01	4.24404394726E-04	-1.13314775378E+02	1.13473447284E-01	-3.32715414078E+01
7.77535070140E+10	9.60174736163E-02	-1.03012332742E+02	5.16177142262E-04	-9.60872504774E+01	3.63630134495E-04	-1.22341958842E+02	1.13946429457E-01	-3.41755656421E+01
7.77595190381E+10	9.58296389705E-02	-1.03086756222E+02	6.14363777608E-04	-1.05451538404E+02	3.97412731480E-04	-1.22864648136E+02	1.12366219665E-01	-3.22026050325E+01
7.77655310621E+10	9.41044342534E-02	-1.00969209029E+02	5.71012433518E-04	-1.11253116458E+02	3.92453649799E-04	-1.19852253412E+02	1.12693017312E-01	-3.30468856246E+01
7.77715430862E+10	9.43401306757E-02	-9.99257113253E+01	5.47265489927E-04	-1.15124453003E+02	4.37554373984E-04	-1.33551396858E+02	1.13329480714E-01	-3.44193382186E+01
7.77775551102E+10	9.64736113414E-02	-1.04269348632E+02	5.90575729993E-04	-1.18888720542E+02	4.66473913132E-04	-1.38921748618E+02	1.13603863160E-01	-3.37545060240E+01
7.77835671343E+10	9.52592789723E-02	-1.02860760571E+02	6.13470762528E-04	-1.30174318294E+02	4.94224643406E-04	-1.37174811481E+02	1.14769377761E-01	-3.33969284904E+01
7.77895791583E+10	9.38197951591E-02	-1.01294497190E+02	6.76744790156E-04	-1.39679319733E+02	5.37502346649E-04	-1.44610557405E+02	1.15269797169E-01	-3.32818201487E+01
7.77955911824E+10	9.44762159194E-02	-1.01937088945E+02	6.29868090562E-04	-1.38343689488E+02	5.05274013013E-04	-1.51526505564E+02	1.15361897025E-01	-3.47782074095E+01
7.78016032064E+10	9.35786147313E-02	-1.02319701039E+02	6.58836922447E-04	-1.44336294843E+02	5.13447162832E-04	-1.62789533589E+02	1.15461087554E-01	-3.44717007395E+01
7.78076152305E+10	9.22671866734E-02	-1.00195531493E+02	6.97215198655E-04	-1.54948431864E+02	5.43268786712E-04	-1.69134901140E+02	1.15895726241E-01	-3.40695364646E+01
7.78136272545E+10	9.50905446998E-02	-1.04116496576E+02	6.43093029991E-04	-1.65260687294E+02	4.81149090762E-04	-1.74071961138E+02	1.18131793413E-01	-3.53995240903E+01
7.78196392786E+10	9.46610695709E-02	-1.03303018772E+02	6.71445810573E-04	-1.74760563382E+02	5.36722494623E-04	1.75551625203E+02	1.17100968133E-01	-3.61647672197E+01
7.78256513026E+10	9.38981549323E-02	-1.01627977336E+02	6.35116319047E-04	-1.74678123491E+02	4.56203826361E-04	1.76124320020E+02	1.16187920198E-01	-3.58719935468E+01
7.78316633267E+10	9.25861099221E-02	-1.02145936915E+02	5.90709622151E-04	-1.76747098343E+02	4.50792631393E-04	1.65286650525E+02	1.17387966981E-01	-3.60549926075E+01
7.78376753507E+10	9.32967375063E-02	-1.01343192757E+02	6.13501362463E-04	1.76176753936E+02	5.53671255450E-04	1.70365130836E+02	1.17925120614E-01	-3.59003370171E+01
7.78436873747E+10	9.44429631109E-02	-1.01789793879E+02	6.07264926664E-04	1.63119602674E+02	5.26370071423E-04	1.64797011125E+02	1.19333486425E-01	-3.67889078458E+01
7.78496993988E+10	9.42882513335E-02	-1.00787420837E+02	6.51950156147E-04	1.61654797171E+02	5.13124669361E-04	1.47380140267E+02	1.19625692340E-01	-3.69294132658E+01
7.78557114228E+10	9.29756241986E-02	-1.01309149930E+02	5.80061736303E-04	1.53772043747E+02	5.35380342811E-04	1.44317289742E+02	1.19877673411E-01	-3.75743780430E+01
7.78617234469E+10	9.43452932949E-02	-1.02779979215E+02	5.84580882169E-04	1.45018825122E+02	4.59276778538E-04	1.38996930245E+02	1.19830691197E-01	-3.69987732172E+01
7.78677354709E+10	9.37210658927E-02	-1.00805950174E+02	5.56390270530E-04	1.36424304186E+02	4.14809232881E-04	1.34983100595E+02	1.19686860377E-01	-3.74982674506E+01
7.78737474950E+10	9.37536320105E-02	-1.00966249559E+02	5.45514268952E-04	1.37620443867E+02	3.98942318175E-04	1.24151233565E+02	1.20719801331E-01	-3.88150619627E+01
7.78797595190E+10	9.45093206314E-02	-1.03492687754E+02	4.68135603884E-04	1.32881774325E+02	4.15727306656E-04	1.31925209039E+02	1.20495004454E-01	-3.88039570953E+01
7.78857715431E+10	9.37096500376E-02	-1.04891160604E+02	4.28916923109E-04	1.31614475582E+02	3.72158067071E-04	1.31605713261E+02	1.19591040751E-01	-3.72210938584E+01
7.78917835671E+10	9.29983015649E-02	-1.01871174922E+02	4.79112420340E-04	1.36448910059E+02	3.71560944314E-04	1.23579389102E+02	1.20531362557E-01	-3.85789887095E+01
7.78977955912E+10	9.44774374671E-02	-1.04641092470E+02	4.37889415657E-04	1.30211155127E+02	4.24964374696E-04	1.25284606278E+02	1.21530187875E-01	-3.79889405531E+01
7.79038076152E+10	9.21253508564E-02	-1.02421686771E+02	4.86606388656E-04	1.26435257164E+02	4.66954094020E-04	1.23011272391E+02	1.22325834816E-01	-3.94429315580E+01
7.79098196393E+10	9.26769051428E-02	-1.02479055116E+02	5.17785081560E-04	1.20912071375E+02	4.94316805513E-04	1.19068536680E+02	1.21840597011E-01	-4.07041458699E+01
7.79158316633E+10	9.17235677554E-02	-1.01405802678E+02	5.63217312085E-04	1.19657738269E+02	4.65955054464E-04	1.16154280266E+02	1.22605138591E-01	-4.03123717461E+01
7.79218436874E+10	9.32395496099E-02	-1.04472127807E+02	6.19323469353E-04	1.12418211320E+02	5.04413718393E-04	1.09743964895E+02	1.23271511418E-01	-3.99178365029E+01
7.79278557114E+10	9.35878960892E-02	-1.04867504304E+02	5.82215618294E-04	9.46185830784E+01	4.83376558976E-04	9.63143178557E+01	1.23179771692E-01	-3.92354952729E+01
7.79338677355E+10	9.52214431708E-02	-1.05742008480E+02	5.99824318325E-04	9.23101265684E+01	4.89330538151E-04	8.91408536004E+01	1.22422987195E-01	-4.09089837863E+01
7.79398797595E+10	9.27987520081E-02	-1.03419545587E+02	5.51648764854E-04	8.47604286997E+01	4.56019580366E-04	8.39031087504E+01	1.23254610663E-01	-4.14383089912E+01
7.79458917836E+10	9.11891508941E-02	-1.00949047196E+02	5.50412953974E-04	7.63120530494E+01	4.87010133311E-04	7.15543396681E+01	1.21939079255E-01	-3.94389663269E+01
7.79519038076E+10	9.13973860991E-02	-1.03573283339E+02	5.84518048121E-04	6.67512526855E+01	4.37995384348E-04	6.63421030302E+01	1.23941673571E-01	-4.17897195533E+01
7.79579158317E+10	9.19519865116E-02	-1.02295400987E+02	4.67375762367E-04	6.19380334103E+01	3.78350520666E-04	6.60669284007E+01	1.26142677934E-01	-4.25700910180E+01
7.79639278557E+10	9.26249415288E-02	-1.02707991950E+02	4.48532839570E-04	5.84010685640E+01	3.76866089215E-04	5.90844686147E+01	1.23535274192E-01	-4.05653091702E+01
7.79699398798E+10	9.11929089986E-02	-1.02983021555E+02	4.00706678349E-04	4.84197395609E+01	3.34576797508E-04	6.45334071104E+01	1.25595948753E-01	-4.30351567682E+01
7.79759519038E+10	9.15448699605E-02	-1.03561254934E+02	4.01712433207E-04	5.53285680248E+01	4.15054753789E-04	5.93356070501E+01	1.25943371414E-01	-4.33736726949E+01
7.79819639279E+10	9.20865385960E-02	-1.03174352565E+02	3.96905348874E-04	4.66238212952E+01	3.81315918896E-04	6.54680889795E+01	1.25671652940E-01	-4.24865103107E+01
7.79879759519E+10	9.06850377970E-02	-1.02726499326E+02	4.18317042239E-04	5.65978949620E+01	4.12691748665E-04	5.74561979578E+01	1.25264063868E-01	-4.23546490459E+01
7.79939879760E+10	9.12230177042E-02	-1.03055395494E+02	4.42975669397E-04	4.02091044483E+01	4.42665055096E-04	5.18753492995E+01	1.25296054162E-01	-4.34433589010E+01
7.80000000000E+10	9.17347074830E-02	-1.05553797571E+02	4.24144692502E-04	4.23724351653E+01	4.72944484867E-04	3.70483818235E+01	1.25239832544E-01	-4.36902878552E+01
