# Hz S MA R 50
! CMT, C4420, 21421029, 25.1.2/3
! Date: 8/7/2025 12:43:32 PM
! Data: Format (Calibration Info)
! Freq	S33:Mag/Ang(F2)	S43:Mag/Ang(F2)	S34:Mag/Ang(F2)	S44:Mag/Ang(F2)
7.50000000000E+10	1.98336218723E-01	-1.25126867359E+01	5.53806468936E-05	-1.73444337082E+02	5.37889527718E-05	-1.45203711587E+02	2.16170234359E-01	-2.64951879492E+01
7.50060120240E+10	1.98719350515E-01	-1.20184244192E+01	9.54228095039E-05	9.80366342868E+01	2.50160966739E-05	-1.34934332192E+02	2.15682570502E-01	-2.66783299159E+01
7.50120240481E+10	2.02541262976E-01	-1.46899471180E+01	2.43346235826E-05	-1.44580738220E+02	6.60007226729E-05	1.74694682661E+02	2.14309715092E-01	-2.59837780307E+01
7.50180360721E+10	2.01924672135E-01	-1.59455693317E+01	7.05555580119E-05	1.44217607588E+02	5.99925437820E-05	-1.58591790274E+02	2.14898726260E-01	-2.74932589715E+01
7.50240480962E+10	2.01451778056E-01	-1.63370677576E+01	5.28614491566E-05	1.37867168195E+02	5.78802316603E-05	1.09770069906E+02	2.15971390709E-01	-2.90769040558E+01
7.50300601202E+10	1.99143756450E-01	-1.32477406526E+01	6.66447259728E-05	8.20341017910E+01	3.07811430261E-05	4.14599106046E+01	2.12740020710E-01	-2.67610047001E+01
7.50360721443E+10	2.00468679417E-01	-1.37040377635E+01	6.72702921450E-05	5.13162396726E+01	7.76009797125E-05	-1.01639858948E+02	2.12171283625E-01	-2.69052845787E+01
7.50420841683E+10	2.01244911327E-01	-1.56816050776E+01	1.99117262663E-05	1.78212042417E+02	3.04213415766E-05	-9.32352243348E+01	2.12053757195E-01	-2.71962600654E+01
7.50480961924E+10	1.98734767816E-01	-1.69447685526E+01	4.57187183811E-05	-1.71438730081E+02	6.49660813539E-05	-1.17851347425E+02	2.10469575258E-01	-2.82388701330E+01
7.50541082164E+10	1.96156396269E-01	-1.45636998398E+01	8.52442057780E-06	-1.13302916259E+02	7.32206925551E-05	-1.77577430156E+02	2.12969200795E-01	-2.87627956505E+01
7.50601202405E+10	2.00854919381E-01	-1.62508224386E+01	8.13953542738E-05	1.24790083437E+02	1.03151409867E-04	1.51058112409E+02	2.13243055030E-01	-2.85100323837E+01
7.50661322645E+10	2.02150846144E-01	-1.67913100249E+01	8.53204714828E-05	1.07053861791E+02	3.83286306742E-05	9.95428187351E+01	2.11934802791E-01	-2.91382489454E+01
7.50721442886E+10	1.97104893536E-01	-1.43134714970E+01	6.82838764448E-05	8.23631189824E+01	1.03858135916E-04	7.98422695543E+01	2.10967503403E-01	-2.89643479274E+01
7.50781563126E+10	1.99431554426E-01	-1.77369568088E+01	7.16855345223E-05	5.82753661783E+01	7.84074305053E-05	1.50089170685E+02	2.10307395598E-01	-2.87932043845E+01
7.50841683367E+10	1.95958121553E-01	-1.63885612675E+01	3.55058966788E-05	1.78720225977E+01	1.11068589523E-05	-7.31617301300E+01	2.14089471659E-01	-3.01786728406E+01
7.50901803607E+10	1.97979336796E-01	-1.65725567867E+01	2.99764528745E-06	6.21744220885E+01	8.93852955402E-05	1.14911048233E+02	2.13798543916E-01	-2.97709986097E+01
7.50961923848E+10	1.99077795478E-01	-1.61508739174E+01	9.17335295732E-05	5.72472927079E+01	9.22150141815E-05	7.28757958635E+01	2.09507758424E-01	-2.98003707191E+01
7.51022044088E+10	1.96765909177E-01	-1.67015025921E+01	9.26573327497E-05	8.65530154187E+01	4.39727515311E-05	1.15836066188E+02	2.11087479409E-01	-3.01546819756E+01
7.51082164329E+10	1.95556589889E-01	-1.75735979949E+01	1.11698388520E-05	6.52429321269E+01	1.00456039215E-04	7.46937684683E+01	2.09092939207E-01	-2.93413791905E+01
7.51142284569E+10	1.93308738186E-01	-1.52376878911E+01	1.00952479955E-04	5.43290781779E+01	1.27605466653E-04	5.47782757445E+01	2.11035093646E-01	-3.14771181024E+01
7.51202404810E+10	1.98101727677E-01	-1.91632856341E+01	1.15580513093E-04	1.08911242281E+00	3.90056623642E-05	-9.60645541111E+00	2.13772752570E-01	-3.26088011256E+01
7.51262525050E+10	1.94730708641E-01	-1.71803818780E+01	3.53946563515E-05	2.47165168113E+01	5.23482067777E-06	1.56665681984E+02	2.08896717369E-01	-3.20762518226E+01
7.51322645291E+10	1.97061695094E-01	-1.92890054912E+01	1.69770224233E-05	1.54173702115E+02	6.87110927171E-05	8.80115571339E+01	2.08049343771E-01	-3.00682456417E+01
7.51382765531E+10	1.96218361373E-01	-1.84607904817E+01	1.43409169279E-04	-1.97064480563E+01	4.72154175444E-05	-5.24472788151E+01	2.11275175680E-01	-3.33087685218E+01
7.51442885772E+10	1.93382219825E-01	-1.60015665736E+01	3.81521314531E-05	1.23861929126E+01	4.20043712840E-05	3.18643250158E+01	2.12813381922E-01	-3.28395155504E+01
7.51503006012E+10	1.93534081116E-01	-1.73177165628E+01	6.12513996706E-05	-9.25754437445E+01	2.77871939359E-05	9.96388752155E+00	2.08226459151E-01	-3.24069849908E+01
7.51563126253E+10	1.91720290233E-01	-1.75426795691E+01	3.82730713561E-05	-1.07005054725E+02	9.81494968971E-05	1.66730872688E+02	2.06852438787E-01	-3.15734001123E+01
7.51623246493E+10	1.96829327975E-01	-1.93034877675E+01	6.32058146551E-06	-4.47852511009E+01	8.19802711135E-05	1.26296123734E+02	2.09187472156E-01	-3.27505616630E+01
7.51683366733E+10	1.93908160716E-01	-1.97457289595E+01	5.45619253462E-05	-1.22812534009E-01	6.35690590786E-05	4.03711088107E+01	2.11867379351E-01	-3.35299241499E+01
7.51743486974E+10	1.97248224003E-01	-1.98226448061E+01	8.19565421890E-05	-2.00618020290E+01	1.00810292420E-04	6.38866326210E+01	2.09530262065E-01	-3.35251391166E+01
7.51803607214E+10	1.93501029105E-01	-1.77412583936E+01	8.30759347649E-05	-2.31877288144E+01	1.26033790356E-04	2.92683700647E+01	2.05595768817E-01	-3.28604714948E+01
7.51863727455E+10	1.95073113977E-01	-1.87156900074E+01	3.48477371812E-05	-9.07171859737E+01	5.35786861274E-05	5.36807267997E+00	2.04853067734E-01	-3.20230299921E+01
7.51923847695E+10	1.93277778614E-01	-2.06344467762E+01	3.73968498242E-05	-8.12314928814E+00	5.87611908751E-05	2.64883826408E+00	2.11727994874E-01	-3.47904915533E+01
7.51983967936E+10	1.93516732042E-01	-2.02513629453E+01	1.32411878772E-05	-7.35841816387E+01	3.06297278015E-05	-1.03083661973E+01	2.06614708876E-01	-3.27648884600E+01
7.52044088176E+10	1.97054768365E-01	-2.09001973140E+01	5.30299082569E-05	5.26035334446E+01	6.90185598118E-05	-1.74945124992E+01	2.09136523360E-01	-3.47347698433E+01
7.52104208417E+10	1.92245158200E-01	-1.89806366016E+01	6.39358779538E-05	-2.55277551267E+01	5.33957443998E-05	-6.08879082314E+01	2.07943277325E-01	-3.50302711041E+01
7.52164328657E+10	1.95985862228E-01	-2.20693627709E+01	6.70132044082E-05	-1.54839876838E+02	1.62483839604E-05	-6.17347701575E+01	2.07217143501E-01	-3.48159922209E+01
7.52224448898E+10	1.92655931766E-01	-2.02569583423E+01	5.00452352685E-05	-1.23968777437E+02	4.85912761938E-05	4.13897066183E+01	2.05277804099E-01	-3.43110500762E+01
7.52284569138E+10	1.95503303553E-01	-1.96711871027E+01	6.89820219243E-05	-1.40190885105E+02	3.72722901252E-05	7.38418041875E+01	2.03708477957E-01	-3.45757449661E+01
7.52344689379E+10	1.89957302307E-01	-1.81009357215E+01	8.86169689637E-05	-1.42465349318E+02	2.93867522892E-05	-1.44853151839E+01	2.07048236612E-01	-3.62447878228E+01
7.52404809619E+10	1.96324356224E-01	-2.13299121009E+01	9.50077116126E-05	-1.61181131485E+02	3.13438546589E-05	4.33027021584E+01	2.06008930479E-01	-3.53592909530E+01
7.52464929860E+10	1.95854601319E-01	-2.24215850501E+01	4.27662510048E-05	-9.38554830657E+01	2.36669258537E-05	-1.31298337706E+02	2.05394435670E-01	-3.55040037021E+01
7.52525050100E+10	1.91775945573E-01	-2.18710459463E+01	1.17891614360E-04	1.24465788132E+02	5.52489701699E-05	1.36225900658E+02	2.06809691129E-01	-3.75055664677E+01
7.52585170341E+10	1.90329272851E-01	-1.95911843629E+01	5.25118952226E-06	-7.53114852474E+01	5.36665453741E-05	-1.16257794439E+02	2.07584443301E-01	-3.74185894934E+01
7.52645290581E+10	1.94878827949E-01	-2.21514479149E+01	1.02865223600E-04	5.74647790162E+00	8.40518690101E-05	-1.36345116414E+01	2.08220263627E-01	-3.74850714057E+01
7.52705410822E+10	1.91759642669E-01	-2.11732037633E+01	7.56062406181E-05	-3.39942542481E+01	9.31243739139E-05	-2.07225182535E+01	2.03748816608E-01	-3.64135458610E+01
7.52765531062E+10	1.92440424433E-01	-2.29291217997E+01	3.16776204120E-05	-5.79801158352E+00	2.76581794435E-05	1.71881904357E+00	2.02261223431E-01	-3.68004562646E+01
7.52825651303E+10	1.90613423925E-01	-2.31051616948E+01	5.11584948039E-05	-1.15818092047E+02	5.40850610544E-05	9.15086984875E+01	2.03428052781E-01	-3.75100852927E+01
7.52885771543E+10	1.93054614398E-01	-2.36123189058E+01	3.08062513723E-05	-1.10665613195E+02	5.82034505990E-05	-1.53225389214E+02	2.07069728241E-01	-3.89096187936E+01
7.52945891784E+10	1.95068407671E-01	-2.38948240728E+01	2.26098273025E-05	5.31458474763E+01	1.06074629432E-04	-9.68803661316E+01	2.05852281012E-01	-3.80095645358E+01
7.53006012024E+10	1.91763915156E-01	-2.26576310782E+01	2.79398734816E-05	-1.23811997421E+02	9.36906631300E-05	-1.17181037816E+02	2.02630770180E-01	-3.73237003525E+01
7.53066132265E+10	1.88333435581E-01	-2.18662151652E+01	1.41472053957E-05	9.99826141353E+01	9.16668318648E-05	1.54072241458E+02	2.01991489690E-01	-3.77583696878E+01
7.53126252505E+10	1.88264073026E-01	-2.22532237351E+01	1.91894306241E-05	-1.06932424048E+01	3.62150381431E-05	1.19587973824E+02	2.00968225940E-01	-3.87388392250E+01
7.53186372745E+10	1.94361897504E-01	-2.54431649613E+01	5.93849669221E-05	8.88669251545E+01	7.44873671074E-05	1.32019465344E+02	2.03855479868E-01	-3.99389317661E+01
7.53246492986E+10	1.92086517695E-01	-2.39662180528E+01	6.24917637739E-05	7.82194361285E+01	3.47914725444E-05	1.30195747789E+02	2.05669793329E-01	-3.98972670402E+01
7.53306613226E+10	1.90709694977E-01	-2.32308886543E+01	6.62222083938E-05	6.00473828391E+01	5.33852056575E-05	-4.58440233468E+01	2.05863122301E-01	-4.01034776920E+01
7.53366733467E+10	1.87878295416E-01	-2.33816814698E+01	7.61133163029E-05	5.98777585052E+01	1.79495530314E-05	3.31532140459E+01	2.01803191232E-01	-4.05665391018E+01
7.53426853707E+10	1.87926894443E-01	-2.22850528802E+01	7.22882245205E-05	-1.19487205800E+01	3.45217827357E-05	1.47245488681E+02	2.00048954940E-01	-3.90257504321E+01
7.53486973948E+10	1.93806369962E-01	-2.47661357228E+01	7.39157920905E-05	2.02765698103E+01	4.16259300840E-05	1.34694174472E+02	1.99767004408E-01	-3.92334301687E+01
7.53547094188E+10	1.88358668530E-01	-2.24368778720E+01	1.24067913178E-05	-1.00844323331E+02	1.71472996620E-05	-4.65462354556E+01	2.02416764905E-01	-4.08616217223E+01
7.53607214429E+10	1.88946677405E-01	-2.35026766492E+01	7.02274710344E-05	-1.04704588207E+02	2.85247065443E-05	-1.48225542987E+02	2.01925297271E-01	-4.11392758568E+01
7.53667334669E+10	1.89492704703E-01	-2.44802870777E+01	3.66882466974E-05	-1.23247024108E+01	1.56781980742E-05	-1.65870971385E+02	1.98542845947E-01	-4.01648628347E+01
7.53727454910E+10	1.91393681488E-01	-2.50530854460E+01	5.65284192592E-05	-8.51937801907E+01	1.45062187412E-05	1.14969141140E+02	1.99349291798E-01	-4.05424380052E+01
7.53787575150E+10	1.89816797243E-01	-2.63260719190E+01	3.68767835464E-05	-3.91745928870E+01	3.91956533498E-05	1.68509284063E+02	1.98806486954E-01	-4.06028790249E+01
7.53847695391E+10	1.90533656070E-01	-2.58164075834E+01	3.80829825078E-05	-1.05126185056E+02	2.48755956253E-05	1.40216291028E+02	1.99197028009E-01	-4.10378044208E+01
7.53907815631E+10	1.88592463187E-01	-2.47033843464E+01	8.30312030851E-05	-7.87970440346E+01	6.25515384594E-05	1.39095559357E+02	1.98079533797E-01	-4.14849536568E+01
7.53967935872E+10	1.87912848518E-01	-2.41302902796E+01	5.80774364633E-05	-7.01931578148E+01	3.03601316602E-05	5.28425541786E+00	2.01839236270E-01	-4.23949732823E+01
7.54028056112E+10	1.91398311968E-01	-2.72044579916E+01	4.45994121154E-05	3.40162721400E+01	6.91310897498E-05	-1.41800808436E+02	2.00853085682E-01	-4.24283621270E+01
7.54088176353E+10	1.87633099152E-01	-2.60229510375E+01	5.50408761971E-05	9.59623173316E+01	2.03015316914E-05	-2.79566721506E+01	1.97041857534E-01	-4.13207332518E+01
7.54148296593E+10	1.87831955117E-01	-2.49544453519E+01	5.11220255913E-05	-6.62002501851E+01	1.76055495155E-05	8.76169367399E+01	1.95242271631E-01	-4.23911166022E+01
7.54208416834E+10	1.91520586802E-01	-2.61468352948E+01	9.27017125796E-05	2.18340022256E+01	7.25232328301E-05	-1.64368476539E+00	1.96529340741E-01	-4.12986435701E+01
7.54268537074E+10	1.88803941727E-01	-2.57561550619E+01	7.13096419512E-05	-4.93209131373E+01	5.42357933439E-05	3.94911170444E+01	2.00203723341E-01	-4.34188440016E+01
7.54328657315E+10	1.88593483746E-01	-2.72828286893E+01	1.09150288835E-04	-7.46290603606E+01	3.97542450222E-05	-4.32997698867E+01	1.97844008077E-01	-4.32371434106E+01
7.54388777555E+10	1.85974081196E-01	-2.58284998562E+01	1.07587859791E-04	-5.79256556629E+01	7.93709157215E-05	-8.93080191362E+01	1.96772860089E-01	-4.42357436358E+01
7.54448897796E+10	1.84370962393E-01	-2.60003943695E+01	1.02869979710E-04	-1.04660442043E+02	6.32771908867E-05	-1.07907478857E+02	1.96789042161E-01	-4.41638871260E+01
7.54509018036E+10	1.90419668798E-01	-2.72498516631E+01	7.50194136069E-05	-1.00401178188E+02	3.86359267958E-05	-1.39157854386E+02	1.95686452368E-01	-4.34562138113E+01
7.54569138277E+10	1.87419661768E-01	-2.68858702639E+01	7.49782927464E-05	-9.59121733097E+01	6.58828900632E-05	8.88493316373E+01	1.96822837508E-01	-4.53737287365E+01
7.54629258517E+10	1.90597789896E-01	-2.81261978406E+01	8.42045647702E-05	-5.82368280565E+01	5.92496446450E-05	-1.74776757201E+01	1.98515383336E-01	-4.57794883363E+01
7.54689378758E+10	1.89473996271E-01	-2.96399775988E+01	3.67007383337E-05	-9.43640231448E+01	7.67741608771E-05	-3.14379115363E+01	1.97733693130E-01	-4.50767707898E+01
7.54749498998E+10	1.86889767442E-01	-2.63610664192E+01	1.07065724952E-04	-1.27864591068E+02	8.18841387471E-05	-1.29842486187E+02	1.96510699409E-01	-4.49009929501E+01
7.54809619238E+10	1.89351485628E-01	-2.81827729410E+01	6.18416120610E-05	-1.57666830674E+02	1.17971594854E-04	-1.44119261244E+02	1.96203257069E-01	-4.51667714844E+01
7.54869739479E+10	1.91157924007E-01	-2.92114745254E+01	1.14328238438E-04	-1.79288887671E+02	3.69657870307E-05	-1.52419033925E+02	1.95149692849E-01	-4.57369498297E+01
7.54929859719E+10	1.88234729940E-01	-2.85330253102E+01	5.84211269829E-05	-1.39088607334E+02	9.26445872963E-05	7.89329484276E+01	1.97077180954E-01	-4.62287973011E+01
7.54989979960E+10	1.83111696866E-01	-2.67985159788E+01	9.02571360181E-05	1.71245707024E+02	5.44994500065E-05	5.68231436786E+01	1.95973125244E-01	-4.56833324922E+01
7.55050100200E+10	1.88195504433E-01	-2.96858909053E+01	1.03858871748E-04	-1.52172872051E+02	5.55609771750E-05	1.61344144475E+00	1.96956607562E-01	-4.63366997681E+01
7.55110220441E+10	1.86799501638E-01	-2.73943434581E+01	5.37042860234E-05	1.68814021623E+02	1.07132819172E-04	-1.24982990224E+02	1.96498930394E-01	-4.77735273091E+01
7.55170340681E+10	1.87741192687E-01	-3.01010441413E+01	7.09915380852E-05	1.20941657508E+02	4.50076967889E-05	1.71300766395E+02	1.96553332710E-01	-4.76281742916E+01
7.55230460922E+10	1.86838350759E-01	-3.01161450507E+01	9.39972133833E-05	1.77545990142E+02	3.67537033164E-05	-1.48254748177E+02	1.95542812094E-01	-4.70538685999E+01
7.55290581162E+10	1.86781127092E-01	-3.02434877502E+01	7.76055030787E-05	1.42426079631E+02	5.78072516173E-05	-1.44104182233E+02	1.93518948961E-01	-4.58994832452E+01
7.55350701403E+10	1.86956481334E-01	-2.92871519888E+01	3.60778515891E-05	1.32300648099E+02	1.31084250685E-04	-1.66644074084E+02	1.92948671779E-01	-4.76988198792E+01
7.55410821643E+10	1.88158970105E-01	-3.06420915063E+01	1.13921444342E-04	1.57210581115E+02	9.80277310643E-05	-1.76947433152E+02	1.95831888351E-01	-4.88438049742E+01
7.55470941884E+10	1.88967701091E-01	-3.06786934632E+01	5.86995440619E-05	1.36907790962E+02	9.08522425597E-05	1.32590360919E+02	1.94052703989E-01	-4.79983940985E+01
7.55531062124E+10	1.88201443689E-01	-3.09701494560E+01	2.89456218709E-05	8.29289163641E+01	3.80114248533E-05	1.10949884183E+02	1.93717536208E-01	-4.73797335725E+01
7.55591182365E+10	1.86452988443E-01	-3.19168559095E+01	7.48563909778E-05	9.03368029300E+01	8.99218643107E-05	5.37873732054E+01	1.92560943194E-01	-4.86357978301E+01
7.55651302605E+10	1.86572274330E-01	-3.14898341398E+01	9.42613670420E-05	7.90703980868E+01	7.21923990289E-05	6.51117749398E+01	1.93019910407E-01	-4.88883431371E+01
7.55711422846E+10	1.89588163549E-01	-3.16441092427E+01	3.26103340661E-05	8.89738220106E+00	2.07270624102E-05	-1.51400005632E+02	1.95623097016E-01	-4.95278014855E+01
7.55771543086E+10	1.85513214458E-01	-3.07339149995E+01	2.77253363831E-05	-7.89986842818E-01	4.98197168705E-05	6.54257530599E+01	1.93180208117E-01	-4.86895827267E+01
7.55831663327E+10	1.81778147115E-01	-3.04951731085E+01	6.62016468015E-05	1.18942176444E+02	5.08537310525E-05	1.72529333688E+02	1.91645894924E-01	-4.96180782570E+01
7.55891783567E+10	1.86081363214E-01	-3.21621861801E+01	1.09181974643E-04	1.09004563490E+02	7.39323821397E-05	1.44542717747E+02	1.92766136265E-01	-5.04948579352E+01
7.55951903808E+10	1.87092844825E-01	-3.34782166237E+01	1.22234612729E-04	6.70960369491E+01	6.04892773208E-05	9.29297019791E+01	1.94573632669E-01	-5.03937843892E+01
7.56012024048E+10	1.91048523556E-01	-3.41972199041E+01	6.71576042184E-05	4.62173673910E+01	6.96788987730E-05	7.96166520353E+01	1.91968720505E-01	-4.91787265385E+01
7.56072144289E+10	1.86467148177E-01	-3.27277414717E+01	6.65280572615E-05	6.16904943321E+01	6.47510917797E-05	9.74083760075E+01	1.89827069843E-01	-4.96795053373E+01
7.56132264529E+10	1.82229415374E-01	-3.05229496939E+01	6.18337747395E-05	2.53575697038E+01	5.14003263871E-05	-1.57321200286E+02	1.92967236854E-01	-5.16273855116E+01
7.56192384770E+10	1.81897578468E-01	-3.21503436407E+01	4.89887680662E-05	3.60590531169E+01	1.71247347569E-05	-8.51212051986E+01	1.92350915419E-01	-5.16290682205E+01
7.56252505010E+10	1.84235091960E-01	-3.28435184322E+01	8.77691838778E-05	9.31744440628E+01	6.16134376804E-05	1.14747864442E+02	1.92580855772E-01	-5.14672297774E+01
7.56312625251E+10	1.86413675325E-01	-3.34938403444E+01	7.84878368287E-05	-7.38860964968E+00	3.68981249827E-05	8.66316090429E+01	1.90071849227E-01	-5.09024367539E+01
7.56372745491E+10	1.82771612373E-01	-3.21278159752E+01	7.22560688335E-05	4.29101573266E+00	2.04186622688E-05	-1.19759105877E+01	1.90885836628E-01	-5.19359335134E+01
7.56432865731E+10	1.80239839003E-01	-3.19912951722E+01	6.10997583681E-05	-1.30174742129E+01	4.31666072179E-05	1.81670372634E+01	1.92090886079E-01	-5.14617527731E+01
7.56492985972E+10	1.83319977224E-01	-3.34122644919E+01	3.90762704321E-06	-3.89739695253E+01	3.00140012602E-05	-3.89509577081E+01	1.90845587778E-01	-5.23839818709E+01
7.56553106212E+10	1.86650917668E-01	-3.43878448516E+01	1.35896470045E-05	-7.87113892945E+01	3.67306816986E-05	-4.60069700119E+01	1.91021486658E-01	-5.34555782720E+01
7.56613226453E+10	1.85662180774E-01	-3.33276533421E+01	6.35937837243E-05	1.26943081029E+02	2.19688930905E-05	1.82943719539E+01	1.89583446046E-01	-5.21893356829E+01
7.56673346693E+10	1.81846817525E-01	-3.20334435138E+01	7.24898954043E-05	4.79694774060E+00	5.11215559456E-05	6.24795259611E+01	1.91109499888E-01	-5.29447110096E+01
7.56733466934E+10	1.83710147669E-01	-3.47797313685E+01	5.13838257914E-05	5.40453952697E+01	1.18541283211E-04	5.60074153627E+01	1.89819826549E-01	-5.35543373906E+01
7.56793587174E+10	1.83258475325E-01	-3.52827840983E+01	6.71044418866E-05	3.15915581219E+01	1.37732181445E-04	3.53922298820E+01	1.87108646133E-01	-5.25290823890E+01
7.56853707415E+10	1.80473938147E-01	-3.33716400825E+01	7.70640506618E-05	-2.07912532967E+01	3.68174127133E-05	1.43127196124E+02	1.91096326789E-01	-5.45213129430E+01
7.56913827655E+10	1.83365021173E-01	-3.51482358147E+01	2.51148754939E-05	-1.21754950457E+02	6.84327178676E-05	-2.31309882729E+01	1.88817049764E-01	-5.44665523130E+01
7.56973947896E+10	1.83737186687E-01	-3.54768252205E+01	5.35156983732E-05	1.63800875444E+01	8.58167727243E-05	-1.42318436644E+01	1.87731633043E-01	-5.49243134814E+01
7.57034068136E+10	1.85579116134E-01	-3.52575360897E+01	2.20987157675E-05	8.60491251973E+01	4.48140594936E-05	-9.23928377964E+01	1.86444123442E-01	-5.42530982270E+01
7.57094188377E+10	1.80079974556E-01	-3.42744258341E+01	1.44418018331E-05	1.42684466403E+02	4.73879703006E-05	-5.60050750014E+01	1.87056937842E-01	-5.41052108011E+01
7.57154308617E+10	1.81807688724E-01	-3.50786437090E+01	5.88085304633E-05	4.72491293461E+00	2.28173291034E-05	5.75616653552E+01	1.88468789030E-01	-5.51256535855E+01
7.57214428858E+10	1.83469462230E-01	-3.46763306329E+01	8.76826358716E-05	-1.93179905996E+01	2.72748442499E-05	6.76500111725E+01	1.90649398806E-01	-5.60166030557E+01
7.57274549098E+10	1.83324114273E-01	-3.44095220556E+01	3.37329784250E-05	-6.58785332782E+01	3.00768140402E-05	1.27119975994E+02	1.87827694762E-01	-5.62622166292E+01
7.57334669339E+10	1.83309332522E-01	-3.67019676703E+01	4.12513217692E-05	3.78723757498E+01	6.43840094826E-05	2.41314469028E+01	1.89208634689E-01	-5.59081547044E+01
7.57394789579E+10	1.81839291922E-01	-3.66180545263E+01	5.75667101560E-05	3.48603136261E+00	7.64026809661E-05	5.94796762755E+01	1.88051538626E-01	-5.66655232331E+01
7.57454909820E+10	1.80143327963E-01	-3.44044968550E+01	4.13711058257E-05	2.20779718834E+01	3.50495050118E-05	-6.59128884503E+01	1.85490073426E-01	-5.52065110780E+01
7.57515030060E+10	1.85757557188E-01	-3.72253715416E+01	3.33764274920E-05	2.57348147400E+01	2.69610619463E-05	1.04705720151E+00	1.90143839126E-01	-5.80114802683E+01
7.57575150301E+10	1.83536044632E-01	-3.69692695341E+01	1.18968481166E-04	-2.59453660233E+01	1.06782932338E-04	-6.66966698777E+01	1.87285381532E-01	-5.80045860910E+01
7.57635270541E+10	1.81670827168E-01	-3.73167859966E+01	1.14705399654E-04	-4.57216868392E+01	5.63152389291E-05	-7.82996811046E+01	1.84114053689E-01	-5.65774691795E+01
7.57695390782E+10	1.82061394446E-01	-3.73578266276E+01	7.51961078077E-05	-7.46378350619E+01	1.01139996340E-04	-6.78655184437E+01	1.89006327017E-01	-5.83649204750E+01
7.57755511022E+10	1.82546359818E-01	-3.79584362715E+01	6.26103882379E-05	-8.26926008230E+01	7.94016316393E-05	-1.02876622871E+02	1.86490447159E-01	-5.69166581120E+01
7.57815631263E+10	1.80084105805E-01	-3.65424311692E+01	9.44507815097E-05	-1.00759201142E+02	5.26936789978E-05	-1.07549243529E+02	1.85323634043E-01	-5.75355631559E+01
7.57875751503E+10	1.79298279186E-01	-3.67761761679E+01	5.98513909111E-05	-1.57603730899E+02	4.44483460213E-05	7.38353980944E+01	1.84512674600E-01	-5.92839648893E+01
7.57935871743E+10	1.83456317530E-01	-3.79281269759E+01	7.19905305107E-05	-1.65676778860E+02	5.48364914190E-05	2.53012148624E+00	1.86328470913E-01	-5.98078204226E+01
7.57995991984E+10	1.78334894945E-01	-3.81869533014E+01	6.46416728108E-05	-4.46159379664E+01	3.12919423067E-05	-8.71904834334E+01	1.85864112499E-01	-5.98689410415E+01
7.58056112224E+10	1.80801484385E-01	-3.76658746603E+01	7.27555811995E-05	-1.16079243034E+02	5.83144673296E-05	-6.87671622564E+01	1.84972111735E-01	-5.88373872386E+01
7.58116232465E+10	1.82616209430E-01	-3.75341531394E+01	3.75095373335E-05	-1.28881102647E+02	6.98254502125E-05	-7.63417182698E+01	1.83272474669E-01	-5.88625314671E+01
7.58176352705E+10	1.78906576230E-01	-3.70307743777E+01	9.55755116236E-05	1.65163983631E+02	9.32729727595E-05	-9.25762375277E+01	1.83556990317E-01	-6.07703376217E+01
7.58236472946E+10	1.81998863030E-01	-3.97144134037E+01	1.37033669953E-05	9.48267546878E+01	9.80888494440E-05	-1.59564519859E+02	1.83539106074E-01	-5.90912263608E+01
7.58296593186E+10	1.79923170836E-01	-3.85001834566E+01	3.54231885318E-05	1.37463633235E+02	1.32453971990E-04	-1.43687006704E+02	1.85342128513E-01	-6.08718625828E+01
7.58356713427E+10	1.79632152517E-01	-3.80356455509E+01	1.81585850770E-05	-3.64495876260E+01	6.65087349112E-05	-1.17797378028E+02	1.83420060620E-01	-6.13117613096E+01
7.58416833667E+10	1.79222748474E-01	-3.80909071600E+01	5.56365197744E-05	-1.63179799133E+02	4.08110201017E-05	-1.07410958845E+02	1.82157469271E-01	-6.19001935678E+01
7.58476953908E+10	1.78541378159E-01	-3.91880981421E+01	7.86505425906E-05	1.66074980282E+02	9.93968637677E-05	-1.61703059102E+02	1.81683870765E-01	-6.28055699113E+01
7.58537074148E+10	1.80196087433E-01	-3.80232708463E+01	4.10929894828E-05	1.40253988573E+02	2.82120482137E-05	-9.91867479602E+01	1.84860661159E-01	-6.32429580655E+01
7.58597194389E+10	1.82360492366E-01	-3.99702587037E+01	1.90049066189E-05	4.55891537653E+01	2.86499391968E-05	-1.27862858428E+02	1.81321381979E-01	-6.20336367251E+01
7.58657314629E+10	1.80829797594E-01	-3.98431213795E+01	5.76626742253E-05	-7.42787031384E+01	4.10220322745E-05	-1.48387467997E+02	1.83596157511E-01	-6.31908763870E+01
7.58717434870E+10	1.78362244543E-01	-4.09269065885E+01	8.50355170213E-05	-1.45533630200E+02	8.05394735533E-05	-9.24896334414E+01	1.81685910267E-01	-6.15728530605E+01
7.58777555110E+10	1.78359518286E-01	-3.91295519517E+01	5.44484335572E-05	-1.66144882016E+02	7.93935956489E-05	1.41787469571E+02	1.83257082829E-01	-6.31378208693E+01
7.58837675351E+10	1.76783431686E-01	-4.05842532655E+01	5.78833059712E-05	1.70116112762E+02	1.53457109795E-04	1.74796309196E+02	1.81360829027E-01	-6.40378612295E+01
7.58897795591E+10	1.77894063413E-01	-3.97507151353E+01	1.00576315712E-04	1.29473503215E+02	9.88217573908E-05	1.06820452706E+02	1.80111720816E-01	-6.37500427569E+01
7.58957915832E+10	1.79266656655E-01	-4.15508940635E+01	4.78648758397E-05	-1.68369755940E+02	3.60305564522E-05	-1.38402903096E+02	1.78734079868E-01	-6.44616473434E+01
7.59018036072E+10	1.79521938635E-01	-4.12874667805E+01	2.41223550589E-05	5.30751256088E+01	6.36857829639E-05	8.29259877079E+01	1.79535071819E-01	-6.40743531705E+01
7.59078156313E+10	1.78178427342E-01	-4.07305382789E+01	8.37174854528E-06	-1.77166934692E+02	4.55169415154E-05	1.49275794630E+02	1.80549689156E-01	-6.50480530804E+01
7.59138276553E+10	1.77692474511E-01	-4.19397555089E+01	7.69829492674E-05	1.56397570682E+02	8.42658839370E-05	1.46236437291E+02	1.80126670263E-01	-6.67488320491E+01
7.59198396794E+10	1.80542053226E-01	-4.13326232334E+01	1.70571474978E-05	1.38063776821E+02	1.05844654835E-04	1.60808559214E+02	1.80090864096E-01	-6.66883956349E+01
7.59258517034E+10	1.78536763164E-01	-4.05982146849E+01	8.25800524479E-05	8.18274357885E+01	1.61754453318E-04	1.14917659674E+02	1.80545058681E-01	-6.69176526980E+01
7.59318637275E+10	1.79112921357E-01	-4.26538165832E+01	1.16781709829E-04	8.30242631997E+01	1.25967453883E-04	1.22349886068E+02	1.79046573636E-01	-6.57584324323E+01
7.59378757515E+10	1.77236157716E-01	-4.32232394232E+01	6.70505750181E-05	5.40863842081E+01	7.93420825468E-05	1.14006022854E+02	1.77349837094E-01	-6.57079627302E+01
7.59438877756E+10	1.79473455977E-01	-4.24165171256E+01	3.55671025759E-05	7.86039613972E+01	9.49781527167E-05	6.90089953166E+01	1.79517927559E-01	-6.75518265429E+01
7.59498997996E+10	1.80164029805E-01	-4.22683366820E+01	5.10991618301E-05	1.43549678060E+02	8.89908196982E-05	7.99875137651E+01	1.77340269310E-01	-6.72283261814E+01
7.59559118236E+10	1.78426685959E-01	-4.16302361148E+01	6.63944879336E-05	-1.06924193013E+02	3.50656263742E-05	-1.36538945221E+02	1.76294136526E-01	-6.63498912021E+01
7.59619238477E+10	1.78284515061E-01	-4.43418581986E+01	3.91784945469E-05	-1.70136501015E+02	7.20533385982E-05	9.31680866963E+01	1.75418136253E-01	-6.72027491933E+01
7.59679358717E+10	1.78472433245E-01	-4.38564880895E+01	4.17640097704E-05	4.56846951691E+01	2.26672685526E-05	5.75913536552E+01	1.76220899492E-01	-6.90359995307E+01
7.59739478958E+10	1.80185550501E-01	-4.39889764637E+01	9.25221235209E-05	8.56792923631E+01	6.73143230598E-05	1.17267149966E+02	1.74693666477E-01	-6.68709126885E+01
7.59799599198E+10	1.79011421112E-01	-4.30983446276E+01	7.39636361282E-05	5.61475249164E+01	2.35481464061E-05	7.79221126486E+01	1.77088818138E-01	-6.91220269650E+01
7.59859719439E+10	1.74937231448E-01	-4.41058804384E+01	1.40860636438E-04	3.29434395718E+01	4.30920127987E-05	9.53848434308E+01	1.74995173297E-01	-6.96167756565E+01
7.59919839679E+10	1.78702376432E-01	-4.54912174511E+01	3.47593275396E-05	3.81822095389E+01	4.28588241501E-05	4.65585988903E+01	1.76638377440E-01	-7.08501529812E+01
7.59979959920E+10	1.78250141630E-01	-4.35472000444E+01	7.87162374119E-05	7.22980745008E+01	2.81107497070E-05	4.57685066792E+01	1.72549381561E-01	-6.94733393607E+01
7.60040080160E+10	1.76215159440E-01	-4.39578239332E+01	7.41790293253E-05	9.07834851868E+01	3.56385062728E-05	1.54221827577E+01	1.74255076089E-01	-6.92475788486E+01
7.60100200401E+10	1.77172355920E-01	-4.54160300031E+01	2.46146842569E-05	8.01377824253E+01	7.33507309664E-05	3.26043304572E+01	1.71804083171E-01	-6.98402550166E+01
7.60160320641E+10	1.74279990896E-01	-4.27486259908E+01	4.22577442542E-05	-6.45474541999E+00	1.08460137937E-04	6.93473694173E+00	1.73644408972E-01	-6.92234437496E+01
7.60220440882E+10	1.74982560080E-01	-4.42822036677E+01	3.35657395662E-05	1.36325674700E+02	8.06842580014E-05	-2.75345934670E+01	1.74303741653E-01	-7.13046235447E+01
7.60280561122E+10	1.77179820530E-01	-4.67208634792E+01	7.55429774974E-05	-5.56520067016E+01	1.80532749361E-05	-7.55615919880E+00	1.70338210549E-01	-7.05946679884E+01
7.60340681363E+10	1.75680104080E-01	-4.46563624114E+01	2.77683389385E-05	-1.23747080136E+02	2.92829190458E-05	-9.82954566076E+01	1.69250825840E-01	-7.04088529328E+01
7.60400801603E+10	1.74458668622E-01	-4.42763698144E+01	6.70109804621E-05	-4.64965765370E+01	3.86229994397E-05	-1.29976025815E+01	1.71966083615E-01	-7.27943273810E+01
7.60460921844E+10	1.74161423752E-01	-4.38354198054E+01	2.23128554085E-05	-1.20041079790E+02	3.64621959786E-05	-6.81515038719E+01	1.71051343322E-01	-7.22675931396E+01
7.60521042084E+10	1.73053271141E-01	-4.50826687184E+01	5.72428956036E-05	-7.99741935067E+01	9.58676597807E-05	-6.00830101032E+01	1.70838417775E-01	-7.28924307915E+01
7.60581162325E+10	1.73971128298E-01	-4.56660482490E+01	5.11379557228E-05	6.59614300160E+01	3.00859179059E-05	-5.65302868755E+01	1.69692073906E-01	-7.15528809728E+01
7.60641282565E+10	1.75808480997E-01	-4.58028934765E+01	6.37557035385E-05	1.33646352638E+02	2.90064606333E-05	-3.94434653904E+01	1.69534062340E-01	-7.36284576941E+01
7.60701402806E+10	1.73529300316E-01	-4.58369758498E+01	8.49609844933E-05	-7.84446062216E+01	5.68413092107E-05	-7.20965521969E+01	1.69547746472E-01	-7.34553580739E+01
7.60761523046E+10	1.74509168162E-01	-4.76767365476E+01	1.06076364701E-05	1.08184617116E+02	1.48844863804E-05	1.49852741605E+02	1.67670075488E-01	-7.26825340142E+01
7.60821643287E+10	1.75986491757E-01	-4.66955886247E+01	5.52317527856E-05	5.58755778599E+00	4.43776474998E-05	3.25738406158E+01	1.66718019516E-01	-7.20712183900E+01
7.60881763527E+10	1.74825430072E-01	-4.63631221903E+01	8.84906420998E-05	-9.02479968853E+00	8.43683510967E-05	2.99080426155E+01	1.69977662330E-01	-7.57106165392E+01
7.60941883768E+10	1.71932058547E-01	-4.68885755383E+01	9.73302682199E-05	-4.23389801744E+01	1.28823301874E-04	-2.40801421720E+01	1.67710598479E-01	-7.50733567874E+01
7.61002004008E+10	1.72860564593E-01	-4.67896628494E+01	8.19557486683E-05	-9.53392538238E+01	1.16009335905E-04	-5.64993724781E+01	1.66303563823E-01	-7.44358947037E+01
7.61062124248E+10	1.75267422265E-01	-4.75863722047E+01	6.74256377303E-05	-1.12896155221E+02	9.01072445480E-05	-5.32737769433E+01	1.64943204974E-01	-7.37773970315E+01
7.61122244489E+10	1.72071063910E-01	-4.83967786706E+01	2.85230514740E-05	-1.26591005980E+02	8.50209073138E-05	-1.10745325365E+02	1.63848802042E-01	-7.40851531370E+01
7.61182364729E+10	1.75273182402E-01	-4.91219017573E+01	9.30804383859E-06	-1.15291857677E+02	1.00786596058E-04	-2.35239485486E+01	1.65927465134E-01	-7.59625207412E+01
7.61242484970E+10	1.70024656903E-01	-4.59035892747E+01	5.16449185954E-05	-7.00596900639E+01	8.79511204281E-05	-5.23335824780E+01	1.65748592298E-01	-7.62119570956E+01
7.61302605210E+10	1.71933156484E-01	-4.81177308632E+01	3.28458166128E-05	-2.68503551084E+01	6.17867907069E-05	-6.63080599172E+01	1.62586089585E-01	-7.40299343966E+01
7.61362725451E+10	1.71980999357E-01	-4.88149881277E+01	5.04642392283E-05	-5.28900137039E+01	8.42193674103E-05	-8.62964232011E+01	1.63243989006E-01	-7.61506025372E+01
7.61422845691E+10	1.73991510931E-01	-4.95004272364E+01	1.43873150221E-04	-5.26985483092E+01	6.64344988864E-05	-1.20268988281E+02	1.63518573120E-01	-7.70947533886E+01
7.61482965932E+10	1.69612671680E-01	-4.81428258346E+01	4.96166748128E-05	-8.42077445611E+01	9.57624186583E-05	-9.57289167087E+01	1.64128762232E-01	-7.71967067581E+01
7.61543086172E+10	1.74483489144E-01	-4.95667763635E+01	8.39002608275E-05	1.76073473927E+02	5.85904911234E-05	-1.71827143351E+02	1.62232916973E-01	-7.59707831385E+01
7.61603206413E+10	1.71830775638E-01	-4.92596343041E+01	3.89220771994E-05	-1.46771714572E+02	4.42313864677E-05	-1.79694466177E+02	1.63779932117E-01	-7.75556848575E+01
7.61663326653E+10	1.70288534657E-01	-4.73832613763E+01	6.71097943109E-05	8.16191394567E+01	4.13865581765E-05	1.58769134065E+02	1.63039024332E-01	-7.83326053248E+01
7.61723446894E+10	1.73006249757E-01	-4.90779591308E+01	3.15575177027E-05	8.12305540670E+01	4.09358448090E-05	-1.72831994674E+02	1.60849742876E-01	-7.73303900732E+01
7.61783567134E+10	1.72872798436E-01	-5.00129548085E+01	7.04207244028E-05	-1.12722011101E+01	6.51935302989E-05	4.44692500166E+01	1.61166747441E-01	-7.78494646349E+01
7.61843687375E+10	1.70732958142E-01	-5.10810221036E+01	3.54647912739E-05	-3.71078707765E+01	3.94908480629E-05	-1.60505901655E+02	1.62189711242E-01	-7.98113080458E+01
7.61903807615E+10	1.71595170427E-01	-5.13985917455E+01	2.65577843920E-05	-1.20604088369E+02	5.61344782472E-05	-1.46320768187E+02	1.60588076083E-01	-7.89167167941E+01
7.61963927856E+10	1.70604050549E-01	-4.81507143649E+01	7.67017242749E-05	-1.38091024891E+02	7.35491821226E-05	-1.26421658068E+02	1.58703852514E-01	-7.80661554221E+01
7.62024048096E+10	1.68064342412E-01	-5.07785213654E+01	4.07682552671E-05	-1.22527854896E+02	9.02097716205E-05	-1.56023413696E+02	1.58921188913E-01	-7.82777516972E+01
7.62084168337E+10	1.67859718517E-01	-4.86935638339E+01	8.38854712287E-05	-1.28805488785E+02	9.22400288213E-05	-1.11579247646E+02	1.59153981892E-01	-7.96386592108E+01
7.62144288577E+10	1.69054738338E-01	-4.94990933029E+01	7.03876087675E-05	-1.43700335471E+02	9.28611140527E-05	1.63818279509E+02	1.60565485908E-01	-8.04743636222E+01
7.62204408818E+10	1.70047446771E-01	-5.01611603990E+01	5.76211255560E-05	1.75222245322E+02	1.13663115783E-04	-1.74776825083E+02	1.57767537500E-01	-7.94900126681E+01
7.62264529058E+10	1.70209365238E-01	-5.10929599196E+01	9.76206565131E-06	-1.50736983307E+02	1.25343699835E-04	1.43527049715E+02	1.57508649090E-01	-8.00623022344E+01
7.62324649299E+10	1.68913071881E-01	-5.08010854797E+01	4.31248791161E-05	1.53167982272E+02	8.04687596271E-05	1.21865902274E+02	1.56153289747E-01	-7.91872165240E+01
7.62384769539E+10	1.68662951926E-01	-5.07914689095E+01	7.84775111881E-05	-1.45855755089E+02	9.90145528970E-05	8.36956564193E+01	1.56341759644E-01	-8.08241131793E+01
7.62444889780E+10	1.67637768892E-01	-4.92836145169E+01	4.61984647521E-05	1.56289218826E+02	1.21500721873E-04	1.19665732454E+02	1.57055753281E-01	-8.16672148603E+01
7.62505010020E+10	1.69964319042E-01	-4.98699658309E+01	7.11305727682E-05	1.38060760143E+02	9.85204289742E-05	1.09475381802E+02	1.57876732128E-01	-8.24410490010E+01
7.62565130261E+10	1.69534823667E-01	-5.10953552643E+01	1.26171057860E-04	-1.79338796963E+02	1.39847535534E-04	9.60571749898E+01	1.56636926087E-01	-8.25551492216E+01
7.62625250501E+10	1.69484958600E-01	-5.26661867802E+01	4.70373199931E-05	2.08446413578E+01	1.57657486101E-04	8.40854100431E+01	1.58841336776E-01	-8.30820887764E+01
7.62685370741E+10	1.68902924339E-01	-5.26908773659E+01	3.15278390778E-05	-1.12007782675E+02	8.00447271357E-05	9.15242379289E+01	1.54225967212E-01	-8.16677340352E+01
7.62745490982E+10	1.68418550166E-01	-5.35162856787E+01	4.92722457207E-05	1.45212418079E+02	2.17677320187E-05	-1.78378405553E+02	1.55370199597E-01	-8.22325773633E+01
7.62805611222E+10	1.69662673905E-01	-5.24689664042E+01	2.64481826261E-05	1.78043027648E+02	3.26326816704E-05	-1.79548475460E+02	1.53786668908E-01	-8.28960302599E+01
7.62865731463E+10	1.68347621908E-01	-5.07028159239E+01	7.06680706465E-05	1.51420561263E+02	3.40905512170E-05	1.19150159086E+02	1.53278820707E-01	-8.30028584131E+01
7.62925851703E+10	1.67227753442E-01	-5.28826120907E+01	8.85442759211E-05	1.57467922655E+02	8.02005748578E-05	1.03395409926E+02	1.52322613012E-01	-8.26237146046E+01
7.62985971944E+10	1.68883192080E-01	-5.38352216446E+01	8.67097144288E-05	1.53089684711E+02	1.52935516101E-04	6.36754252712E+01	1.53177358273E-01	-8.37033808037E+01
7.63046092184E+10	1.66623565241E-01	-5.32651856957E+01	9.66873942293E-05	1.36300082157E+02	1.26072550919E-04	3.74278216595E+01	1.54078203345E-01	-8.45076004597E+01
7.63106212425E+10	1.68154980970E-01	-5.47822451897E+01	2.62186126690E-05	7.36465447200E+01	8.10915228454E-05	4.37065408038E+01	1.54753175316E-01	-8.56295912398E+01
7.63166332665E+10	1.65706526927E-01	-5.43501754090E+01	7.36355097838E-05	8.70216991434E+01	1.87810419843E-05	1.31934128550E+02	1.51383237206E-01	-8.44298448048E+01
7.63226452906E+10	1.69801637382E-01	-5.46207190560E+01	7.43911830397E-05	1.22058161647E+02	7.18887543253E-05	2.66825944854E+01	1.50839054973E-01	-8.48537853920E+01
7.63286573146E+10	1.65696114007E-01	-5.34725600209E+01	2.53233085982E-05	-1.33847498372E+02	1.11268318848E-04	3.23429374619E+01	1.51552743239E-01	-8.55162709323E+01
7.63346693387E+10	1.65168007088E-01	-5.27787846053E+01	2.81241190809E-05	-5.53508987150E+01	1.11497987384E-04	4.17417905618E+01	1.51319404750E-01	-8.54793639777E+01
7.63406813627E+10	1.66109006488E-01	-5.36837064787E+01	4.18186627787E-05	1.67411930120E+01	2.62089113882E-05	-5.53175413701E+01	1.50937515649E-01	-8.72213255890E+01
7.63466933868E+10	1.68899380129E-01	-5.35644468163E+01	8.59987234726E-05	3.37441923648E+01	9.15088314731E-05	1.56409730107E+00	1.50122627292E-01	-8.68990017273E+01
7.63527054108E+10	1.65938793174E-01	-5.32220472112E+01	8.75972033932E-05	4.54453656593E+01	1.00352674533E-04	-5.20539993524E+01	1.50056868305E-01	-8.67337169203E+01
7.63587174349E+10	1.65424746345E-01	-5.39357220532E+01	3.07435531715E-05	3.07284073769E+01	9.69659448756E-05	-6.41196425013E+01	1.49820140972E-01	-8.67712240160E+01
7.63647294589E+10	1.67549184494E-01	-5.51131459663E+01	3.73791744907E-05	1.39685972087E+02	8.68709280432E-05	-6.46647149303E+01	1.48156786238E-01	-8.68383826160E+01
7.63707414830E+10	1.67326381330E-01	-5.60227287255E+01	8.96402752639E-05	7.29269835409E+01	3.37367234377E-05	1.56211431992E+02	1.47778230033E-01	-8.81882168822E+01
7.63767535070E+10	1.66089636273E-01	-5.42741395100E+01	8.82756673070E-05	4.95635381598E+01	4.94482580269E-05	1.30647816747E+01	1.48700867619E-01	-8.83139409499E+01
7.63827655311E+10	1.65870487077E-01	-5.60170949798E+01	2.18550240383E-05	1.24882483793E+02	1.25325512928E-05	-1.26720409208E+02	1.48538908178E-01	-8.89830694872E+01
7.63887775551E+10	1.65613117620E-01	-5.51645705918E+01	7.18729234859E-05	-5.02126498199E+01	1.30162792689E-05	7.03078600852E+00	1.47973723118E-01	-8.90129148133E+01
7.63947895792E+10	1.65365584525E-01	-5.61533943978E+01	7.40300535720E-05	6.65210303580E+01	1.70073857486E-05	-1.15082987315E+02	1.47163569095E-01	-8.90613156823E+01
7.64008016032E+10	1.62734044805E-01	-5.69279266391E+01	5.91449229552E-05	4.61748541743E+01	3.17027085012E-05	1.73399590895E+01	1.44233839844E-01	-8.83425243168E+01
7.64068136273E+10	1.66112410662E-01	-5.46905954159E+01	1.45737863760E-05	9.59993819025E+01	7.28189593657E-05	3.45539110049E+01	1.45376368177E-01	-9.05183280662E+01
7.64128256513E+10	1.65680005272E-01	-5.66990936887E+01	3.50775631577E-05	-4.68852494896E+01	4.82489767388E-05	1.53958851373E+02	1.46692580699E-01	-9.19882216606E+01
7.64188376754E+10	1.64888111083E-01	-5.70787513032E+01	1.12141076787E-04	-2.30347418149E+01	6.90076334621E-05	-6.68821299469E+01	1.45420883635E-01	-9.08325819086E+01
7.64248496994E+10	1.63874678804E-01	-5.68072354237E+01	9.37319541771E-05	-6.86336025218E-01	4.10380707153E-05	-5.70295999118E+01	1.43616520662E-01	-9.14232637972E+01
7.64308617234E+10	1.64173924803E-01	-5.48536974834E+01	1.14102846201E-04	-1.89938293788E+01	6.13798398308E-05	-7.73617089729E+01	1.42848191073E-01	-9.08348028703E+01
7.64368737475E+10	1.64149339978E-01	-5.54486282108E+01	3.39288032621E-05	-1.38222762694E+01	4.57427756126E-05	-5.61868843874E+01	1.44206180405E-01	-9.19045934802E+01
7.64428857715E+10	1.65493028258E-01	-5.74523235632E+01	7.84933613908E-05	-3.21720887509E+01	1.85768357107E-05	5.48085503128E+00	1.42676556934E-01	-9.13362866136E+01
7.64488977956E+10	1.64198943299E-01	-5.83080883168E+01	1.13287806293E-05	-1.69568133978E+02	2.91976864485E-05	-7.32838273081E+01	1.41869033656E-01	-9.12433973101E+01
7.64549098196E+10	1.62260832145E-01	-5.79906319843E+01	7.13733728875E-05	1.48829016840E+02	8.29281956036E-05	-1.20353615213E+02	1.41357446688E-01	-9.15221551133E+01
7.64609218437E+10	1.61762921606E-01	-5.69182350153E+01	7.47071120077E-05	-8.71797247457E+01	6.77782066312E-05	-1.72168173206E+02	1.41948828146E-01	-9.34800968532E+01
7.64669338677E+10	1.61693391691E-01	-5.66933833881E+01	5.84740582153E-05	-1.37354825124E+02	3.36856880437E-05	-1.71794110874E+02	1.41424449762E-01	-9.44804537035E+01
7.64729458918E+10	1.63624176808E-01	-5.82963308117E+01	5.35262987802E-05	-1.01508893534E+02	3.34437925018E-05	1.30875500853E+02	1.40483178207E-01	-9.36008549239E+01
7.64789579158E+10	1.64862999629E-01	-5.88641121683E+01	3.50721921246E-05	-1.16373315052E+02	5.40554808362E-05	9.29485917046E+01	1.39363299287E-01	-9.32168380775E+01
7.64849699399E+10	1.63097178269E-01	-5.63876187645E+01	4.32202092553E-05	6.35221621125E+01	3.53301224091E-05	2.20481634651E+01	1.39598586871E-01	-9.40497882934E+01
7.64909819639E+10	1.62852025019E-01	-5.79979623228E+01	4.36292639385E-05	-6.06071400638E+00	1.15121580142E-04	4.20534463328E+01	1.40091611840E-01	-9.60775151952E+01
7.64969939880E+10	1.62762869500E-01	-5.92693378208E+01	2.57004644099E-05	8.96591530945E+01	3.04131009922E-05	-3.43275749450E+01	1.38193865790E-01	-9.57363587430E+01
7.65030060120E+10	1.61736053500E-01	-5.94487428856E+01	1.03316092418E-04	-1.52594794328E+02	5.14216876738E-05	-1.08446139696E+02	1.36850064962E-01	-9.51401236768E+01
7.65090180361E+10	1.63396523229E-01	-5.88312051371E+01	5.70373948124E-05	-1.51931873616E+02	5.09128225265E-05	1.57418807334E+02	1.35764569717E-01	-9.51717807991E+01
7.65150300601E+10	1.61972175809E-01	-5.77581556178E+01	2.56037373919E-05	1.13230951792E+02	1.70630993929E-05	-1.40563071054E+02	1.35838566011E-01	-9.62218013644E+01
7.65210420842E+10	1.62077581229E-01	-6.03132218313E+01	1.84236788664E-05	-1.36046678001E+02	2.49619207157E-05	-6.12064205789E+01	1.35599607256E-01	-9.61931054454E+01
7.65270541082E+10	1.61393188710E-01	-5.99075366177E+01	5.25038031185E-05	-1.69005622283E+02	8.33566582343E-05	-4.73720539795E+01	1.35632706866E-01	-9.71910670524E+01
7.65330661323E+10	1.63368669178E-01	-6.01546140936E+01	1.91347089481E-05	-1.04500505274E+02	6.95948309283E-06	9.66365414359E+01	1.34834309061E-01	-9.74471989256E+01
7.65390781563E+10	1.62684466061E-01	-5.96836378339E+01	8.81423875668E-05	1.50364998895E+02	7.12493521570E-05	-2.33677773195E+01	1.33122127189E-01	-9.78534948641E+01
7.65450901804E+10	1.63564130220E-01	-5.88816827042E+01	2.09634567222E-05	-1.30464299475E+02	9.14719544520E-05	-3.50017254267E+01	1.31961605123E-01	-9.73963067445E+01
7.65511022044E+10	1.62522843078E-01	-6.00862513170E+01	3.23438052934E-06	1.13645317179E+02	1.06640921650E-04	-3.95486108014E+01	1.31856572015E-01	-9.84686168029E+01
7.65571142285E+10	1.60841581324E-01	-5.98700143971E+01	2.15517198238E-05	-7.92385737950E+01	5.42783149790E-05	-7.96675870175E+01	1.32024989574E-01	-9.87814037811E+01
7.65631262525E+10	1.63116063503E-01	-6.14619864747E+01	2.95727631691E-05	1.40973091664E+01	3.79072742820E-05	-1.96736445343E+01	1.31799500665E-01	-9.90889237743E+01
7.65691382766E+10	1.60600295079E-01	-5.95458688506E+01	4.55541220074E-05	-1.47228569503E+02	9.63676081268E-05	-1.12978398161E+02	1.30214065638E-01	-1.00258841147E+02
7.65751503006E+10	1.62363790515E-01	-6.16742980291E+01	3.34779239050E-05	1.24456706574E+02	3.13115159461E-05	-1.18693564218E+02	1.29897902255E-01	-9.96750530660E+01
7.65811623246E+10	1.61843232475E-01	-6.18756120787E+01	4.46013601931E-05	1.55657683000E+02	1.32213666959E-04	-1.23412411285E+02	1.28084141349E-01	-9.87612764053E+01
7.65871743487E+10	1.61084045580E-01	-6.09739498400E+01	6.29778748417E-05	1.11076725834E+02	3.77263287947E-05	-2.17814901312E+01	1.29383528439E-01	-1.02105464530E+02
7.65931863727E+10	1.57765165335E-01	-5.75480195020E+01	4.52904596675E-06	3.27622166361E+01	8.94057595008E-05	-1.13264304283E+02	1.28498321097E-01	-1.02081412791E+02
7.65991983968E+10	1.62124376803E-01	-6.15975458221E+01	2.42264216498E-05	9.38047757588E+01	5.17131830210E-05	-1.08515206891E+02	1.26449793274E-01	-1.00269759175E+02
7.66052104208E+10	1.61473956853E-01	-6.20937681188E+01	8.36070799523E-05	1.06876911118E+02	3.74886659200E-06	-4.85652782315E+01	1.25963865695E-01	-1.01779362727E+02
7.66112224449E+10	1.60442752444E-01	-6.25967394659E+01	4.68730693536E-05	1.61424533852E+02	5.61477246615E-05	-1.33376834900E+02	1.26494752299E-01	-1.02841258735E+02
7.66172344689E+10	1.59103546847E-01	-5.99021611286E+01	5.42275590556E-05	-7.86390805977E+01	4.46872079870E-05	-1.29435900504E+02	1.25225382175E-01	-1.02030165633E+02
7.66232464930E+10	1.61773755053E-01	-6.24615160963E+01	5.82283955230E-06	1.42871699061E+02	1.13890650106E-04	-1.70572268658E+02	1.25075947244E-01	-1.03243055855E+02
7.66292585170E+10	1.60321427536E-01	-6.08709745966E+01	3.23481813714E-05	-1.19142570486E+02	1.74345581087E-04	-1.64530851646E+02	1.23852556884E-01	-1.03495473644E+02
7.66352705411E+10	1.60461478275E-01	-6.17302319849E+01	1.50315331429E-04	-1.56724062150E+02	1.28665461698E-04	-1.70624634698E+02	1.22065521532E-01	-1.02496575516E+02
7.66412825651E+10	1.60477286907E-01	-6.21289758157E+01	2.32314795215E-05	-1.70605091564E+02	1.22359331325E-04	1.47002530252E+02	1.21404795413E-01	-1.03101477736E+02
7.66472945892E+10	1.61097281313E-01	-6.34503247158E+01	2.84712900703E-05	9.82073009055E+00	1.01369678551E-04	1.21024271440E+02	1.21185466734E-01	-1.03275633025E+02
7.66533066132E+10	1.61707708231E-01	-6.36587453811E+01	4.91425914391E-05	9.52060028264E+01	8.19064100385E-05	1.12235335376E+02	1.21196894098E-01	-1.03594246051E+02
7.66593186373E+10	1.59215302872E-01	-6.38239338518E+01	3.53455165318E-05	-5.90144009618E+00	1.12314985385E-04	1.10292746748E+02	1.20586501095E-01	-1.05630316480E+02
7.66653306613E+10	1.60476307508E-01	-6.34611219387E+01	7.95219934840E-05	-5.39411091034E+01	1.06176817211E-04	9.14273071400E+01	1.20011692183E-01	-1.04695455158E+02
7.66713426854E+10	1.60563027680E-01	-6.34441268260E+01	4.00126001611E-05	-6.00927649056E+01	3.36989550550E-05	1.14137395803E+02	1.18492633606E-01	-1.04635830612E+02
7.66773547094E+10	1.59677892348E-01	-6.25797618974E+01	1.25974877878E-05	-3.22511129501E+00	7.80646015366E-05	1.06377650591E+02	1.17786026227E-01	-1.06570455543E+02
7.66833667335E+10	1.60346563545E-01	-6.40759055979E+01	5.32205153127E-05	3.46264280798E+01	4.47893469558E-05	5.78569295240E+01	1.18832056945E-01	-1.06932626290E+02
7.66893787575E+10	1.57576732817E-01	-6.34223740144E+01	3.77542349968E-05	1.52032732848E+02	6.77710772382E-05	8.52150021256E+01	1.16941753473E-01	-1.05339666209E+02
7.66953907816E+10	1.60981951068E-01	-6.51637805675E+01	7.85648334486E-05	-3.84086091440E+01	2.63307969647E-05	-1.45910342647E+02	1.16525051906E-01	-1.05646847820E+02
7.67014028056E+10	1.61555630743E-01	-6.50690501315E+01	8.15406703750E-05	-1.34068863239E+02	4.07590817207E-05	1.03111328575E+02	1.16252215925E-01	-1.07738063775E+02
7.67074148297E+10	1.60236719748E-01	-6.48936237322E+01	1.18162397208E-05	1.75838213896E+02	5.09596625681E-05	1.01055105740E+02	1.15623887169E-01	-1.07931395411E+02
7.67134268537E+10	1.57265455884E-01	-6.36576693279E+01	8.07067793602E-05	1.52426683019E+02	5.43318945267E-05	1.45757297658E+02	1.13971652568E-01	-1.07087554721E+02
7.67194388778E+10	1.59883250349E-01	-6.51736788846E+01	6.50015913430E-05	1.79442419223E+02	3.19473177186E-05	1.28041746500E+02	1.13273733955E-01	-1.07364922963E+02
7.67254509018E+10	1.60222224205E-01	-6.58168321455E+01	8.22352617481E-05	-1.35708765441E+02	6.64070205295E-05	6.18180500559E+01	1.13544431416E-01	-1.08589766361E+02
7.67314629259E+10	1.58064943970E-01	-6.50942076796E+01	2.07490319904E-05	1.28329554864E+02	6.64963867677E-05	2.25278587168E+01	1.13102061945E-01	-1.08034155554E+02
7.67374749499E+10	1.60648056387E-01	-6.59475940750E+01	1.41852798458E-05	-2.80990723320E+01	8.56837175970E-05	2.45955496589E+01	1.11135676821E-01	-1.08362769374E+02
7.67434869739E+10	1.60319169740E-01	-6.54389383692E+01	4.76709138563E-05	-1.15307049531E+02	3.18424138225E-05	-6.43654671729E+01	1.10569133027E-01	-1.08900938561E+02
7.67494989980E+10	1.56797016302E-01	-6.39702133796E+01	7.69103317203E-05	-1.69078147263E+02	4.55048039145E-05	-2.30826327930E+01	1.10721050848E-01	-1.10367147367E+02
7.67555110220E+10	1.56098959607E-01	-6.60474710453E+01	8.34916241782E-05	1.55430960095E+02	5.75281610133E-06	1.04400778888E+02	1.10582738627E-01	-1.10800967067E+02
7.67615230461E+10	1.55633106551E-01	-6.48418656921E+01	5.54255880335E-05	8.77702101717E+01	8.04777836476E-05	1.73893188312E+01	1.09433326105E-01	-1.11746152674E+02
7.67675350701E+10	1.55669108811E-01	-6.49845835736E+01	7.41457546296E-05	1.08306036537E+02	6.19542732802E-05	-9.91817250463E+01	1.08196522756E-01	-1.12117143279E+02
7.67735470942E+10	1.57911121272E-01	-6.64066170162E+01	1.00721981476E-04	1.66933744497E+02	6.17835899206E-05	-4.72696513064E+01	1.07456048489E-01	-1.10778304182E+02
7.67795591182E+10	1.57083485198E-01	-6.51568247976E+01	2.69203169602E-05	-5.34990647194E+01	5.54877238555E-06	-7.10939514704E+01	1.06801395058E-01	-1.10205591614E+02
7.67855711423E+10	1.59718669770E-01	-6.72870268878E+01	2.51230765390E-05	1.73525102626E+02	2.08598795452E-05	6.18757931482E+01	1.06505553466E-01	-1.12481414656E+02
7.67915831663E+10	1.57503042554E-01	-6.83350438058E+01	8.33654475228E-05	1.51417963461E+02	7.19701780585E-05	1.61095895335E+02	1.06754866587E-01	-1.13923613490E+02
7.67975951904E+10	1.57426671497E-01	-6.67611520037E+01	5.25592581341E-05	1.25860490593E+02	2.72412495064E-05	7.18153472109E+01	1.05174416904E-01	-1.12365748904E+02
7.68036072144E+10	1.53201626865E-01	-6.61676996128E+01	4.86273307914E-05	-6.54957643008E+01	4.83530316853E-05	8.75505337251E+00	1.04491434830E-01	-1.12977583061E+02
7.68096192385E+10	1.58851401753E-01	-6.89853565545E+01	1.04909874307E-04	6.15997055256E+01	1.19614452727E-05	-3.63759518080E+00	1.03754027328E-01	-1.13212128519E+02
7.68156312625E+10	1.54324556097E-01	-6.54772882768E+01	9.14171651843E-05	9.32569511419E+01	4.19425266474E-05	-1.39341472228E+01	1.02784662504E-01	-1.14201960948E+02
7.68216432866E+10	1.56801322142E-01	-6.79846200749E+01	9.20775846187E-05	6.87940720667E+01	1.86160336990E-05	-1.67995162181E+02	1.01651123516E-01	-1.15136596494E+02
7.68276553106E+10	1.56290944743E-01	-6.86710184641E+01	1.00605893908E-04	4.39759446998E+01	5.56764447012E-05	3.96087513775E+01	1.01125167800E-01	-1.13992473236E+02
7.68336673347E+10	1.56595221370E-01	-6.84732820290E+01	6.23555991508E-05	6.42539802506E+00	2.11434683329E-05	-1.25996464150E+02	1.00849415198E-01	-1.13486359186E+02
7.68396793587E+10	1.56326521093E-01	-6.71279563360E+01	7.52876987806E-05	5.98142589412E+01	1.50518002568E-05	1.20497219228E+01	9.99455007683E-02	-1.15670623309E+02
7.68456913828E+10	1.56953760607E-01	-6.81319693631E+01	4.15514417558E-05	4.18724920230E+01	7.00699807856E-05	1.66061681631E+02	9.94893045790E-02	-1.16109015400E+02
7.68517034068E+10	1.57741982574E-01	-6.90858410015E+01	7.04357007499E-05	6.00128532178E-01	7.10811846523E-05	-1.47280539722E+02	9.78517172697E-02	-1.15021169779E+02
7.68577154309E+10	1.52385915536E-01	-6.77243575143E+01	7.82734054528E-05	1.31130545972E+01	2.10046534192E-05	1.36734558897E+02	9.78347061463E-02	-1.15094123965E+02
7.68637274549E+10	1.58917450598E-01	-7.05917989331E+01	8.47265475722E-05	-1.45468175982E+01	7.85677880937E-05	1.29170894586E+02	9.77227055773E-02	-1.16977767308E+02
7.68697394790E+10	1.55866692662E-01	-6.93269739006E+01	9.12013104281E-06	-9.62145191846E+01	4.69753698156E-05	9.51602830705E+01	9.73527868235E-02	-1.17895433178E+02
7.68757515030E+10	1.56707264127E-01	-6.91879680794E+01	4.98841044562E-05	6.98681758531E+01	4.95474149799E-05	5.79513727484E+01	9.55792336712E-02	-1.16676860511E+02
7.68817635271E+10	1.58541885940E-01	-7.02610781259E+01	8.68161195060E-05	-3.98526476797E+01	5.45862063952E-05	1.03375163291E+02	9.38659640753E-02	-1.16930767459E+02
7.68877755511E+10	1.53352842084E-01	-6.76489050159E+01	2.03597269724E-06	-6.81620613130E+01	4.91225341842E-05	5.87084671825E+01	9.37490663880E-02	-1.18303455803E+02
7.68937875752E+10	1.58553744459E-01	-7.10421536861E+01	5.55150323643E-05	-1.51930561107E+01	1.47505414374E-04	6.29374428288E+01	9.33773979617E-02	-1.18833355031E+02
7.68997995992E+10	1.53014928871E-01	-6.84556671232E+01	1.02127871134E-04	-4.98881591436E+00	1.14249092117E-04	2.41928847565E+01	9.32561357096E-02	-1.20249612211E+02
7.69058116232E+10	1.57479915698E-01	-7.16658351983E+01	8.29033014026E-05	-2.40647360598E+01	1.00217894864E-04	4.39354104303E+01	9.18394071770E-02	-1.19203437429E+02
7.69118236473E+10	1.54711767594E-01	-7.11712015015E+01	9.22997841158E-05	-1.39602069168E+01	1.24791278427E-04	-1.52180693354E+01	9.07780528094E-02	-1.18669851969E+02
7.69178356713E+10	1.56382038874E-01	-7.08129217459E+01	1.24516958782E-04	-8.58420437312E+01	1.32250643307E-04	-1.78142200491E+00	8.98234597965E-02	-1.19172727449E+02
7.69238476954E+10	1.54511194159E-01	-6.98604225397E+01	1.42492934512E-04	-6.08956958403E+01	9.32746108825E-05	-5.79905160769E+01	9.00409193294E-02	-1.20700728633E+02
7.69298597194E+10	1.59256249599E-01	-7.26797727397E+01	8.71697154115E-05	-1.02199944730E+02	5.43151193466E-05	-6.87906405172E+01	8.91829954040E-02	-1.21846618950E+02
7.69358717435E+10	1.55268257074E-01	-7.21941373040E+01	1.24109927998E-04	-1.37657602656E+02	5.22037636008E-05	-1.18577252551E+02	8.85362303510E-02	-1.21742166529E+02
7.69418837675E+10	1.54644302772E-01	-7.21369844225E+01	7.06120198873E-05	-1.20894578139E+02	6.64346133521E-05	-1.13407311966E+02	8.72425208040E-02	-1.21153496414E+02
7.69478957916E+10	1.55359952626E-01	-7.07523899128E+01	5.83191820156E-05	-1.75305480482E+02	4.57329448147E-05	3.47647958949E+01	8.60077968424E-02	-1.20627808558E+02
7.69539078156E+10	1.54136158250E-01	-7.04724895927E+01	6.00922571489E-05	-1.27664056857E+02	4.63625952973E-05	4.31465912961E+01	8.64508820271E-02	-1.22196655745E+02
7.69599198397E+10	1.54338288666E-01	-7.22053793501E+01	6.03495810513E-05	-9.06394567878E+01	8.47746901504E-05	-2.80491338615E+01	8.58011496733E-02	-1.21809649088E+02
7.69659318637E+10	1.56667708907E-01	-7.33107575891E+01	2.90220516843E-05	-1.50207641006E+01	9.48927208963E-05	-2.99028014688E+01	8.40890655696E-02	-1.22291471637E+02
7.69719438878E+10	1.52356326318E-01	-7.13915116699E+01	1.51725107269E-05	3.36401702538E+01	9.62376936686E-05	-1.40625688770E+01	8.34500125206E-02	-1.23754399252E+02
7.69779559118E+10	1.54652311184E-01	-7.31765267963E+01	6.25079394100E-05	-6.91325152124E+01	1.43567355369E-04	-8.16934961059E+01	8.24475799026E-02	-1.24452598326E+02
7.69839679359E+10	1.51577361185E-01	-7.10043098883E+01	1.32415076358E-04	-1.04640922163E+02	8.83430628448E-05	-8.66683148905E+01	8.12002693530E-02	-1.23012669457E+02
7.69899799599E+10	1.53260313223E-01	-7.24181194411E+01	8.32644208520E-05	-9.26652953585E+01	4.98283438912E-05	-1.39185812779E+02	8.04280143120E-02	-1.22927025961E+02
7.69959919840E+10	1.52392697424E-01	-7.25998324734E+01	1.10724336952E-04	-1.12698409893E+02	1.31846408538E-04	-1.06571009604E+02	8.04258840940E-02	-1.25392811953E+02
7.70020040080E+10	1.52669169740E-01	-7.27327709812E+01	9.30246641921E-05	-1.25484030040E+02	7.40849472926E-05	-1.20013393550E+02	8.01969819060E-02	-1.25828597936E+02
7.70080160321E+10	1.53925402597E-01	-7.35594194827E+01	7.42288463626E-05	1.45620990809E+02	9.28012469112E-05	-1.42128514816E+02	7.90948748889E-02	-1.24426816337E+02
7.70140280561E+10	1.53254214692E-01	-7.18581468911E+01	6.42179771577E-05	-3.00427083106E+01	1.02858619709E-04	-1.17167341626E+02	7.78881911354E-02	-1.23854814686E+02
7.70200400802E+10	1.52916170413E-01	-7.28981672614E+01	4.23844320356E-05	-1.58227425649E+02	4.42007730792E-05	-1.48138588714E+02	7.76306578916E-02	-1.24921132536E+02
7.70260521042E+10	1.51552858949E-01	-7.37341121466E+01	5.39805311753E-05	-6.65646048897E+01	6.68219263537E-05	-1.62057483044E+02	7.65625356551E-02	-1.26865312020E+02
7.70320641283E+10	1.51947427909E-01	-7.38065422240E+01	4.83479250135E-05	1.53016848781E+02	7.76166768598E-05	-1.62231335774E+02	7.56818728951E-02	-1.26984323803E+02
7.70380761523E+10	1.54242655199E-01	-7.48287140841E+01	7.35300449851E-05	1.72057832163E+02	6.70120580725E-05	-1.72342835629E+02	7.58685318288E-02	-1.26500837979E+02
7.70440881764E+10	1.52767993030E-01	-7.55464590887E+01	3.20017974220E-05	9.64794017798E+01	1.85417410736E-05	-1.72139996537E+02	7.44036843668E-02	-1.26051216184E+02
7.70501002004E+10	1.53477134231E-01	-7.54303715355E+01	5.71001739852E-05	7.43810665098E+01	6.67483268712E-05	4.20012710301E+01	7.34460185495E-02	-1.27518530503E+02
7.70561122244E+10	1.55238036639E-01	-7.59298904337E+01	8.06578397224E-05	-5.12039546504E+01	6.43467881147E-05	-1.33183723840E+02	7.25814649630E-02	-1.28571576491E+02
7.70621242485E+10	1.54131437215E-01	-7.57847882087E+01	7.02844636646E-05	-4.76303786315E+01	5.59428106229E-05	-1.29836346258E+02	7.19991293376E-02	-1.29731715108E+02
7.70681362725E+10	1.51539733998E-01	-7.51022171431E+01	1.13525663663E-04	-1.26051750075E+02	1.06264529661E-04	-1.39210427065E+02	7.20818492578E-02	-1.29796232494E+02
7.70741482966E+10	1.50286415355E-01	-7.37158174393E+01	5.01718421839E-05	-1.70492199909E+02	1.03833442090E-04	-1.45252371990E+02	7.10973897154E-02	-1.28733617167E+02
7.70801603206E+10	1.51781321687E-01	-7.51328181286E+01	7.76655158983E-05	-1.07999631124E+02	4.93777462129E-05	-1.40780064971E+02	6.96721057670E-02	-1.27014423118E+02
7.70861723447E+10	1.50421735767E-01	-7.59051015436E+01	5.07018221323E-05	-1.25012609206E+02	6.38612388653E-05	1.79873844308E+02	6.93925873898E-02	-1.28890934857E+02
7.70921843687E+10	1.50430913489E-01	-7.60892204508E+01	9.74280153831E-05	-9.23899779441E+01	4.06236351686E-05	-1.58346803754E+02	6.90486186310E-02	-1.32161267906E+02
7.70981963928E+10	1.52219611648E-01	-7.54988138694E+01	7.63974382569E-05	-1.21057066521E+02	8.00417380638E-05	1.32220157471E+02	6.78266042677E-02	-1.31374903294E+02
7.71042084168E+10	1.53374932990E-01	-7.69781826716E+01	1.08633649736E-04	-1.57816623704E+02	9.99522165304E-05	1.62262801609E+02	6.65052546022E-02	-1.28511486299E+02
7.71102204409E+10	1.53169137599E-01	-7.71327231165E+01	6.42631621244E-05	-1.72304799511E+02	1.01052585850E-04	1.33246647535E+02	6.61498830839E-02	-1.29824287278E+02
7.71162324649E+10	1.50704842613E-01	-7.63100725547E+01	6.73625372109E-05	1.72855962143E+02	1.02303788860E-04	1.41333560828E+02	6.53576621186E-02	-1.32534725639E+02
7.71222444890E+10	1.48031409918E-01	-7.64625778979E+01	7.06896541064E-05	1.20982815764E+02	6.17851143003E-05	1.34822878139E+02	6.49657738169E-02	-1.32940253080E+02
7.71282565130E+10	1.48590893186E-01	-7.53214462259E+01	1.10081324330E-04	1.42859213479E+02	1.26950093623E-04	1.30682663349E+02	6.40278904713E-02	-1.33918335274E+02
7.71342685371E+10	1.48923874419E-01	-7.56408521026E+01	7.52413475947E-05	5.44668761212E+01	1.18058207978E-04	1.19021352767E+02	6.28818270423E-02	-1.34339261453E+02
7.71402805611E+10	1.53625788356E-01	-7.78973726284E+01	6.42369232057E-06	-8.39594750518E+01	9.99408180674E-05	1.19098272986E+02	6.24083102953E-02	-1.33355357260E+02
7.71462925852E+10	1.48457854866E-01	-7.78824471415E+01	1.73091956489E-05	-1.56492120480E+02	1.36518068978E-04	1.19525299282E+02	6.18258367123E-02	-1.33912635797E+02
7.71523046092E+10	1.48898758066E-01	-7.74366834624E+01	8.46454127293E-05	1.35140457369E+02	2.35924762283E-05	1.46855592749E+02	6.02827459899E-02	-1.34007040364E+02
7.71583166333E+10	1.52166662366E-01	-7.89758995501E+01	7.73738207502E-05	1.49062066253E+02	8.30473467430E-05	9.11589649462E+01	5.96873905082E-02	-1.33353556152E+02
7.71643286573E+10	1.49151750608E-01	-7.70612409932E+01	7.85525118330E-05	1.66831486801E+02	8.90915916951E-05	9.36959322826E+01	5.95530155391E-02	-1.35307894440E+02
7.71703406814E+10	1.47593955557E-01	-7.77656133455E+01	7.80407684946E-05	7.90302242380E+01	7.90527374784E-05	1.09442169632E+02	5.77944493224E-02	-1.35263040664E+02
7.71763527054E+10	1.47640727719E-01	-7.87395133026E+01	5.26163990951E-05	3.29301362835E+01	5.96161602132E-05	6.35032701247E+01	5.76901040883E-02	-1.34970173327E+02
7.71823647295E+10	1.48286352895E-01	-7.91656993000E+01	1.26636285524E-04	1.67588681288E+02	8.67739162960E-05	7.69251221330E+01	5.60365931985E-02	-1.33899156249E+02
7.71883767535E+10	1.48380896778E-01	-7.93954696785E+01	8.51494291978E-05	9.66020364832E+01	1.74273992093E-04	8.84085461158E+01	5.54269657494E-02	-1.34611624123E+02
7.71943887776E+10	1.46399585954E-01	-7.86275355671E+01	5.76259393674E-05	8.03332205521E+01	1.10131573057E-04	3.73265310814E+01	5.54724339517E-02	-1.37762080463E+02
7.72004008016E+10	1.46139837768E-01	-7.90720082547E+01	6.01308950769E-05	3.05801300539E+01	1.09656067278E-04	3.96881849878E+01	5.48553422958E-02	-1.38041934921E+02
7.72064128257E+10	1.47022011157E-01	-7.87703487353E+01	1.29559408649E-04	2.90498928336E+01	1.06261815896E-04	4.28724224976E+01	5.29439836097E-02	-1.34933681731E+02
7.72124248497E+10	1.47716832087E-01	-8.06702081939E+01	4.18379467919E-05	-1.75864521373E+02	7.63986978831E-05	1.13812739788E+01	5.24164758766E-02	-1.38311705014E+02
7.72184368737E+10	1.47865710840E-01	-7.98752021736E+01	6.02727734567E-05	2.27878156599E+01	1.41566060687E-04	1.34405362799E+01	5.20713346130E-02	-1.40087831097E+02
7.72244488978E+10	1.48328398947E-01	-8.02620489523E+01	3.44099241781E-05	-2.06610503508E+01	8.74765178873E-05	-1.25166695006E+01	5.09209015297E-02	-1.38125514472E+02
7.72304609218E+10	1.47592901483E-01	-7.97910646599E+01	7.02041262341E-05	2.61410925246E+01	5.72134060855E-05	-2.90953344874E+01	4.95269992046E-02	-1.36478116761E+02
7.72364729459E+10	1.47420453536E-01	-7.93428961679E+01	7.39717041043E-05	6.27215588735E+00	3.57829502280E-05	-6.81000662469E+01	4.90835368063E-02	-1.38862234016E+02
7.72424849699E+10	1.48163182508E-01	-8.06287294838E+01	3.86147923424E-05	-1.06303507153E+01	4.04881771984E-05	-2.57077005922E+01	4.89880651625E-02	-1.40081444750E+02
7.72484969940E+10	1.47929954752E-01	-8.14105264652E+01	5.63086648857E-05	1.11060396592E+02	4.35596336901E-05	4.30918763519E+01	4.75064491176E-02	-1.38850637003E+02
7.72545090180E+10	1.47104187050E-01	-8.15337074312E+01	3.04134179904E-05	-1.43530437301E+02	5.79891607650E-05	8.39975529916E+01	4.68804281682E-02	-1.39569372906E+02
7.72605210421E+10	1.45372653387E-01	-8.08332448509E+01	5.11603006419E-05	4.54094143983E+01	2.36148109538E-05	-1.81635911702E+01	4.61181288483E-02	-1.41555241600E+02
7.72665330661E+10	1.48168652153E-01	-8.20954792410E+01	6.98914847329E-05	1.12862712789E+02	1.16134990784E-04	-6.10290704326E+00	4.49701162839E-02	-1.38867951887E+02
7.72725450902E+10	1.46418855120E-01	-8.08446333817E+01	7.38784781099E-05	-1.32933081216E+01	7.80231630570E-05	-2.21244868786E+01	4.45237846549E-02	-1.40303489361E+02
7.72785571142E+10	1.47560293304E-01	-8.12064918042E+01	1.02240348112E-04	4.84094683581E+01	1.72642852109E-05	-5.56161679718E+01	4.44708235259E-02	-1.43813144190E+02
7.72845691383E+10	1.45528728205E-01	-8.23442378498E+01	7.72386176148E-05	9.62072997389E+00	1.06308569666E-04	-4.42450647440E+01	4.32073131584E-02	-1.43728568188E+02
7.72905811623E+10	1.45145890675E-01	-8.27515859280E+01	5.34355044517E-05	1.04641408842E+01	3.57251640547E-05	4.05475987859E+00	4.25141114443E-02	-1.44041298558E+02
7.72965931864E+10	1.43661243225E-01	-8.04718513168E+01	7.98442844029E-05	-7.20206481150E+01	8.92946016291E-05	-2.81842714006E+01	4.07293095582E-02	-1.41737832168E+02
7.73026052104E+10	1.44318141945E-01	-8.12166167296E+01	8.83037856440E-05	-2.94397259326E+01	2.78399778061E-05	-5.48479227311E+01	4.02397801135E-02	-1.43126990629E+02
7.73086172345E+10	1.45162616375E-01	-8.27118069952E+01	6.32637518007E-06	-1.01871851928E+02	3.48143290367E-05	-6.27513795230E+01	3.94084827609E-02	-1.43696380340E+02
7.73146292585E+10	1.45910050452E-01	-8.30283388582E+01	2.87853609148E-05	-6.49041485324E+01	5.70946190518E-05	-7.53492888385E+01	3.86814816810E-02	-1.44624721569E+02
7.73206412826E+10	1.46745211578E-01	-8.28255655177E+01	2.37369032517E-05	1.13360997556E+02	6.34622592740E-05	-6.25922447130E+01	3.80501564143E-02	-1.45784088061E+02
7.73266533066E+10	1.43539594686E-01	-8.28592739087E+01	3.93920372908E-05	4.49580125465E+01	3.15286961586E-05	8.38758815237E+00	3.67503707276E-02	-1.43505879791E+02
7.73326653307E+10	1.45619286778E-01	-8.34736171205E+01	1.12923065158E-04	2.02487788107E+01	5.01029945425E-05	2.73036001566E+01	3.60028541795E-02	-1.44496283818E+02
7.73386773547E+10	1.46177376947E-01	-8.39562025410E+01	1.36878338865E-04	4.92209842690E+00	1.29615314023E-04	-2.04958784208E+01	3.47590937173E-02	-1.44786775280E+02
7.73446893788E+10	1.44261278260E-01	-8.41800997978E+01	1.22226457732E-04	-3.41580656574E+01	1.04466795583E-04	-4.64527991385E+01	3.41932235627E-02	-1.44968435095E+02
7.73507014028E+10	1.45656432714E-01	-8.51246798663E+01	1.67700964394E-04	-5.43137299875E+01	1.10734708325E-04	-5.49867932860E+01	3.42893659914E-02	-1.47315344726E+02
7.73567134269E+10	1.42643431738E-01	-8.50036618509E+01	1.10689583384E-04	-7.96243464130E+01	1.29116084274E-04	-5.37186086975E+01	3.22658917705E-02	-1.43652862516E+02
7.73627254509E+10	1.42561000535E-01	-8.52402754030E+01	1.23187177025E-04	-7.95938656692E+01	4.56699615796E-05	-9.20047793340E+01	3.21663955355E-02	-1.47959507883E+02
7.73687374749E+10	1.45096983355E-01	-8.45304979439E+01	3.66708033079E-05	-6.58387120916E+01	5.66604620274E-05	-1.19319995262E+02	3.05742047850E-02	-1.45650038766E+02
7.73747494990E+10	1.43733473961E-01	-8.36363570805E+01	1.50769130540E-04	-6.76207495128E+01	3.86756532672E-05	-6.21572567708E+01	3.02804832995E-02	-1.47301120202E+02
7.73807615230E+10	1.41083266513E-01	-8.46494001307E+01	4.86072079659E-05	-5.90157731871E+01	8.69858267782E-05	-3.39760973483E+01	2.98201642983E-02	-1.49167849516E+02
7.73867735471E+10	1.42253340670E-01	-8.48250823850E+01	6.35901910517E-05	-1.06651603672E+02	7.44058969367E-05	-9.12324653675E+01	2.89472795601E-02	-1.50024389449E+02
7.73927855711E+10	1.43349840716E-01	-8.57977786468E+01	3.09031850595E-05	-1.24895922497E+02	8.41124695886E-05	-8.20895179978E+01	2.70826452296E-02	-1.48256415734E+02
7.73987975952E+10	1.42191079819E-01	-8.63110968694E+01	1.09015465236E-04	-1.27611674433E+02	8.84986296340E-05	-1.58373111833E+02	2.64658882475E-02	-1.50075271673E+02
7.74048096192E+10	1.42357502013E-01	-8.56209478323E+01	1.07491687183E-04	-8.84605261307E+01	8.18241130443E-05	-1.08270701831E+02	2.63398235517E-02	-1.50971645201E+02
7.74108216433E+10	1.41487691427E-01	-8.39934819756E+01	1.18402306450E-04	-1.36366385571E+02	1.34740613567E-04	-1.46765475336E+02	2.46003755971E-02	-1.48878943743E+02
7.74168336673E+10	1.41048176785E-01	-8.63309505039E+01	1.21629915505E-04	-1.10143531492E+02	8.89541211933E-05	-1.31662856636E+02	2.42986206664E-02	-1.52103834716E+02
7.74228456914E+10	1.40543086328E-01	-8.50613495646E+01	1.01797638629E-04	-1.07137688281E+02	1.67752396704E-04	-1.47421374514E+02	2.39213728274E-02	-1.51635589588E+02
7.74288577154E+10	1.41954821637E-01	-8.69676674043E+01	7.23348585175E-05	-1.38955955291E+02	5.65253987447E-05	7.88253787159E+01	2.30916772358E-02	-1.52614378617E+02
7.74348697395E+10	1.40458780168E-01	-8.70480453795E+01	6.21423898793E-05	-1.32074011900E+02	5.64968348076E-05	1.04716082327E+02	2.16451881391E-02	-1.51823279724E+02
7.74408817635E+10	1.40135108259E-01	-8.45696887184E+01	4.93038569108E-05	-8.68147968440E+01	3.19318589127E-05	1.49334043235E+02	2.07377344552E-02	-1.52583787089E+02
7.74468937876E+10	1.40405497706E-01	-8.76852904797E+01	1.19321039790E-04	-1.38852403179E+02	8.86894726907E-05	-1.10220647414E+02	1.95293417318E-02	-1.51059499182E+02
7.74529058116E+10	1.39401539382E-01	-8.65444680460E+01	8.26658152924E-05	-1.62911523128E+02	6.63928547895E-05	-1.26753746811E+02	1.99704481398E-02	-1.55314982081E+02
7.74589178357E+10	1.38481001163E-01	-8.60117588145E+01	9.02329608067E-05	-1.74543005692E+02	9.94889803555E-05	-1.57574107268E+02	1.91074154953E-02	-1.56176750500E+02
7.74649298597E+10	1.38050545813E-01	-8.60616266100E+01	7.87729605752E-05	-1.52627947732E+02	2.88632848467E-05	-1.64801015340E+02	1.72507566150E-02	-1.54909934053E+02
7.74709418838E+10	1.41462275791E-01	-8.74983199573E+01	1.89586810887E-04	1.79066207587E+02	9.64536884756E-05	1.52346966613E+02	1.67637435123E-02	-1.55712653145E+02
7.74769539078E+10	1.43538790034E-01	-8.93711122677E+01	5.65269529171E-05	1.52440722637E+02	7.89285194715E-05	1.54136229611E+02	1.57662179610E-02	-1.55727783700E+02
7.74829659319E+10	1.38847409069E-01	-8.56027846793E+01	1.16308585346E-04	1.10810062840E+02	4.39264009892E-05	1.79601957912E+02	1.44502112482E-02	-1.54070669564E+02
7.74889779559E+10	1.38824639065E-01	-8.63598758308E+01	8.82221945676E-05	1.41433718245E+02	9.03960002011E-05	1.06257580419E+02	1.41134976948E-02	-1.55529935391E+02
7.74949899800E+10	1.38019669336E-01	-8.66685974747E+01	5.68573833708E-05	1.24855337998E+02	5.75326493103E-05	-9.51078908900E+01	1.35611733761E-02	-1.57934671381E+02
7.75010020040E+10	1.36675749818E-01	-8.75689648030E+01	6.14363150448E-05	-1.53699233186E+02	7.79842437007E-05	1.03654628626E+02	1.23284101325E-02	-1.55701743250E+02
7.75070140281E+10	1.40190203577E-01	-8.84382313610E+01	1.02668879168E-04	1.54145333939E+02	6.54114036259E-05	1.54775362233E+02	1.18832372108E-02	-1.58326766774E+02
7.75130260521E+10	1.39229804255E-01	-8.75964314660E+01	1.05295595045E-04	1.04523777024E+02	1.39506587086E-04	1.36703706030E+02	1.08516921945E-02	-1.59447897242E+02
7.75190380762E+10	1.37889769012E-01	-8.80120461771E+01	1.35928646549E-04	8.35694791784E+01	2.47275337854E-05	1.22654444259E+02	9.93547721427E-03	-1.61056191652E+02
7.75250501002E+10	1.40349913221E-01	-8.87792240003E+01	2.01782226120E-05	-1.34429885521E+02	4.04435751544E-05	1.55534507830E+02	9.54345672119E-03	-1.62142913946E+02
7.75310621242E+10	1.37052536254E-01	-8.71406598170E+01	8.10224632461E-05	1.17076757538E+02	2.86380996940E-05	5.80666812350E+01	8.87702245643E-03	-1.63085390777E+02
7.75370741483E+10	1.37443739111E-01	-8.96847807119E+01	3.64664371868E-05	-1.44962236082E+02	3.63913292799E-05	1.66905667036E+02	7.36279808792E-03	-1.61484395623E+02
7.75430861723E+10	1.39008107628E-01	-8.93230123027E+01	8.64630275519E-05	6.49186355055E+01	6.77751742772E-05	5.41326560554E+01	6.22279587853E-03	-1.61205178216E+02
7.75490981964E+10	1.39952989805E-01	-8.97878450691E+01	8.39663464238E-05	6.94109088340E+01	9.61136503095E-05	1.52220861841E+02	6.04127519131E-03	-1.65135594347E+02
7.75551102204E+10	1.38463909600E-01	-8.91546757610E+01	4.12314612800E-05	6.80654001241E+01	7.24484391697E-05	1.03667263990E+02	4.82971924964E-03	-1.65461070865E+02
7.75611222445E+10	1.37318754585E-01	-8.81111921641E+01	1.13103239687E-05	-1.15141701607E+02	6.89826753706E-05	1.66735945616E+02	4.82967375515E-03	-1.67344081735E+02
7.75671342685E+10	1.37790647767E-01	-9.01407990727E+01	5.39832232798E-05	1.66975587717E+01	9.31857104288E-05	1.55212502294E+02	3.41446757950E-03	-1.68443924654E+02
7.75731462926E+10	1.35274460191E-01	-9.04501874642E+01	1.44727340817E-05	-5.30686439770E+01	4.32282386712E-05	1.06679083630E+02	2.06037195494E-03	-1.74381070764E+02
7.75791583166E+10	1.36116883435E-01	-9.06952945354E+01	3.88557208626E-05	6.34765814877E+01	9.84759990141E-05	1.04755921382E+02	2.10039925397E-03	-1.72154888938E+02
7.75851703407E+10	1.36483637213E-01	-9.13440987447E+01	5.87670166293E-05	1.28055367567E+02	1.12968555878E-04	1.20150186614E+02	1.13301457104E-03	1.69666738846E+02
7.75911823647E+10	1.37645604914E-01	-9.19019635776E+01	6.82410624851E-05	1.12420048366E+02	1.72855692597E-04	1.02055722706E+02	6.91123388970E-04	8.56996021774E+01
7.75971943888E+10	1.34952304796E-01	-8.98336873492E+01	6.57245759312E-05	7.54544900369E+01	7.62417245772E-05	8.66090526425E+01	8.96501699757E-04	6.58130661387E+01
7.76032064128E+10	1.34333183390E-01	-8.85580188652E+01	6.45466267192E-05	4.27285240585E+01	6.53827641338E-05	4.23653148444E+01	1.20356856764E-03	4.82649348104E+01
7.76092184369E+10	1.36267280478E-01	-9.08901020943E+01	9.84468804856E-05	1.47481088634E+01	7.00106910717E-05	6.80391224238E+01	1.72898223304E-03	3.52833715363E+01
7.76152304609E+10	1.38442883964E-01	-9.16910755462E+01	1.52261010551E-05	8.14086365345E+01	7.55234673777E-05	-9.62735311212E+00	3.28688930575E-03	3.01625811312E+01
7.76212424850E+10	1.35151348112E-01	-8.99169085422E+01	3.96235085459E-05	-1.88313788097E+01	9.18637170538E-05	6.04628780985E+01	4.23721298621E-03	2.71566703469E+01
7.76272545090E+10	1.35904323831E-01	-9.19662315641E+01	1.08778397706E-05	-1.82543905101E+01	8.93399917721E-05	5.17754786846E+01	5.03668094890E-03	2.53869290528E+01
7.76332665331E+10	1.37472246006E-01	-9.32499491239E+01	2.79639746758E-05	-7.07433113968E+01	4.73951496157E-05	1.11588635291E+01	5.37655817247E-03	2.08866893275E+01
7.76392785571E+10	1.35765841071E-01	-9.23385196027E+01	3.06269072381E-05	7.04647247651E+01	2.29714666485E-05	-1.02642651468E+02	6.49136391281E-03	2.46458925967E+01
7.76452905812E+10	1.35660105172E-01	-9.12332410714E+01	4.20599764088E-05	3.56762968065E+01	3.69683183175E-05	-8.29088455801E+01	7.11591254423E-03	1.96147277373E+01
7.76513026052E+10	1.34633116218E-01	-9.19720063579E+01	8.10652349558E-05	4.30601234661E+01	3.43707571086E-05	5.55413097896E+01	8.06469948043E-03	2.04487407857E+01
7.76573146293E+10	1.36960664618E-01	-9.17446397920E+01	3.76960594518E-05	4.91715342434E+01	1.39286663629E-04	3.17671335821E+01	9.12781475880E-03	2.26589374308E+01
7.76633266533E+10	1.34833300196E-01	-9.07018095907E+01	4.20371279365E-05	3.53209425501E+01	5.35944176838E-05	-1.23730254858E+01	9.63198912070E-03	1.71285787884E+01
7.76693386774E+10	1.34961319680E-01	-9.17356305907E+01	5.15053131944E-05	-4.56380788765E+01	1.06865277770E-04	-1.87144103396E+01	1.04260422285E-02	1.54663829564E+01
7.76753507014E+10	1.34582394715E-01	-9.44924284671E+01	1.02177181208E-04	1.99373479312E+01	7.83918764119E-05	-4.58153085443E+00	1.13271830399E-02	1.78076226090E+01
7.76813627255E+10	1.34093378325E-01	-9.23702435146E+01	5.69464239272E-05	-1.64445464622E+01	6.35911075909E-05	-7.44682946471E+00	1.20905990910E-02	1.85341629762E+01
7.76873747495E+10	1.36905688934E-01	-9.21430384910E+01	4.52947136163E-05	-6.05266948625E+01	7.86505535027E-05	-9.69411408839E+01	1.29833062508E-02	1.65655800961E+01
7.76933867735E+10	1.33319534233E-01	-9.20875253221E+01	8.44599470446E-05	-1.53147021451E+02	4.70585964461E-05	-1.10179751544E+02	1.36339694920E-02	1.52446914006E+01
7.76993987976E+10	1.36294497242E-01	-9.44473587052E+01	2.17157629339E-05	6.87254001408E+01	2.35711030324E-05	3.51080850225E+01	1.42211450231E-02	1.34965302853E+01
7.77054108216E+10	1.34476747822E-01	-9.39492124901E+01	7.00406045551E-05	-3.37923275710E+01	1.70530642574E-05	8.83862598840E+00	1.53396368277E-02	1.66726216965E+01
7.77114228457E+10	1.35842163022E-01	-9.49124656802E+01	6.58886778183E-05	-4.21415091165E+01	2.19012103926E-05	-7.81711106893E+01	1.62514141815E-02	1.71952777521E+01
7.77174348697E+10	1.31980213122E-01	-9.19924095556E+01	6.11677191662E-05	-8.45315247200E+01	2.76794113557E-05	-3.45177386955E+01	1.70952592208E-02	1.24359688366E+01
7.77234468938E+10	1.31501850193E-01	-9.31334656029E+01	6.57712997432E-05	-4.45901506340E+01	3.43807052377E-05	-4.98558122546E+01	1.80309896268E-02	1.51676773726E+01
7.77294589178E+10	1.34291564427E-01	-9.38043568861E+01	3.52918752482E-05	-1.26453475289E+02	6.03053271860E-05	7.06212364754E+01	1.88168316198E-02	1.39097528579E+01
7.77354709419E+10	1.32315588774E-01	-9.47134252766E+01	4.44612002826E-05	7.26050774317E+01	2.65285705873E-05	-2.71716360859E+01	1.93556819586E-02	1.15949090138E+01
7.77414829659E+10	1.32891559878E-01	-9.48686565418E+01	2.52965801747E-05	-5.88757312033E+01	9.49901702720E-05	-2.40632381006E+01	2.00497876266E-02	1.06304312693E+01
7.77474949900E+10	1.33444043511E-01	-9.62301549064E+01	3.84784156909E-05	-7.13544315878E+01	3.15811662970E-05	-6.28684546465E+01	2.07996534344E-02	1.02393738520E+01
7.77535070140E+10	1.33182289164E-01	-9.59097170061E+01	2.09105794298E-05	-5.27423621870E+01	3.68207511298E-05	-1.40594481686E+02	2.16690072988E-02	1.23631123975E+01
7.77595190381E+10	1.31827330800E-01	-9.39195407125E+01	4.59594671438E-05	3.80596736663E+01	6.44538483065E-05	-8.04505364929E+00	2.25144438109E-02	1.19048902212E+01
7.77655310621E+10	1.30903068720E-01	-9.47448248403E+01	3.29465284416E-05	2.72236237738E+01	4.70478795312E-05	-4.42735144627E+01	2.33876553569E-02	1.08546441390E+01
7.77715430862E+10	1.30356733571E-01	-9.23205392396E+01	5.75610808308E-05	-5.38799355134E+01	2.08816507292E-05	-6.08440381115E+01	2.43145583176E-02	9.81030286608E+00
7.77775551102E+10	1.33769141688E-01	-9.67635753991E+01	7.17662275779E-05	-6.65524068917E+01	7.81420751825E-05	-4.54075449818E+01	2.51482792235E-02	8.17847640320E+00
7.77835671343E+10	1.31973649290E-01	-9.42622130166E+01	6.10560857463E-05	-9.97665522452E+01	7.58605979602E-05	-1.35446597816E+02	2.60766923930E-02	9.41766233369E+00
7.77895791583E+10	1.31453610106E-01	-9.46656984640E+01	9.57216470592E-05	-1.00501766930E+02	7.39249200503E-05	-1.38450819690E+02	2.66678933213E-02	1.04428531758E+01
7.77955911824E+10	1.32000460181E-01	-9.47906206242E+01	3.94994013849E-05	-1.46918415621E+02	4.49692908628E-05	-1.38806191843E+02	2.72070142935E-02	7.27522869915E+00
7.78016032064E+10	1.31016363655E-01	-9.54530182017E+01	3.99495763639E-05	1.53714315292E+02	7.83032523640E-05	1.28740844899E+02	2.80964588196E-02	6.39559847814E+00
7.78076152305E+10	1.30825719733E-01	-9.57713260549E+01	2.67858528499E-05	6.80055103246E+01	6.56730691703E-05	-7.39649296700E+01	2.87725873514E-02	8.48770186171E+00
7.78136272545E+10	1.33017480669E-01	-9.71075413808E+01	5.21452421988E-05	1.44350561273E+02	5.26664843422E-05	-4.68976156520E+01	2.99219600154E-02	7.62472747361E+00
7.78196392786E+10	1.32636947353E-01	-9.69424162096E+01	2.21569700115E-05	-7.89251129516E+01	3.29446910092E-05	-7.77915358734E+01	3.03652401611E-02	7.44351720405E+00
7.78256513026E+10	1.30810249872E-01	-9.47857811674E+01	3.93399555068E-05	1.72804873210E+02	1.26763302466E-04	-9.36534318778E+01	3.12353321198E-02	6.08978163005E+00
7.78316633267E+10	1.29626266634E-01	-9.66937028327E+01	4.57568244435E-05	-8.79856467386E+01	4.82264273347E-05	-1.16482512845E+02	3.21009255220E-02	5.46687464458E+00
7.78376753507E+10	1.31597674096E-01	-9.79876242838E+01	1.01825509308E-04	-1.19989643250E+02	6.24489234896E-05	1.58935773468E+02	3.29455873171E-02	5.46640452132E+00
7.78436873747E+10	1.31900657371E-01	-9.77662352403E+01	4.21597290864E-05	-1.50446325516E+02	6.04879868872E-05	-1.05594612392E+02	3.35857192265E-02	5.48339973282E+00
7.78496993988E+10	1.31047102024E-01	-9.64019031789E+01	2.13560849080E-05	-1.22945371384E+02	1.10800195333E-04	-1.26158080905E+02	3.44646665256E-02	4.63967570238E+00
7.78557114228E+10	1.28249240375E-01	-9.62360397078E+01	8.69731630365E-05	-1.29482663244E+02	1.23246444840E-04	-1.38880973459E+02	3.53080376164E-02	3.10005566983E+00
7.78617234469E+10	1.28812004342E-01	-9.58039538425E+01	1.24167093162E-04	1.18276050526E+02	5.74133783582E-05	-1.71307040902E+02	3.60887915469E-02	2.84928413732E+00
7.78677354709E+10	1.30395225535E-01	-9.71706831044E+01	3.37292474943E-05	9.92437556340E+00	4.34792227440E-05	1.12142725275E+02	3.62412923739E-02	4.68751443251E+00
7.78737474950E+10	1.28572660381E-01	-9.46540923988E+01	1.20945796340E-05	-1.35320889162E+02	8.66723407998E-06	6.59948430826E+01	3.71694108907E-02	4.00270935337E+00
7.78797595190E+10	1.30067414934E-01	-9.72943377130E+01	4.09253719004E-05	1.56266211021E+02	1.54853823844E-05	1.16267741761E+02	3.80192022076E-02	3.21488535115E+00
7.78857715431E+10	1.29513542132E-01	-9.92942277256E+01	5.00962392229E-05	-1.24555884683E+02	5.23651598057E-05	-1.52102500947E+02	3.87023584450E-02	3.65806982742E+00
7.78917835671E+10	1.30708214689E-01	-9.87943898698E+01	4.44305061461E-05	-6.59258750932E+01	7.35541520809E-05	1.59398603970E+02	3.95312085393E-02	2.94801472272E+00
7.78977955912E+10	1.29454055481E-01	-9.75289682271E+01	7.98194382326E-05	-1.20940760343E+02	8.25732443120E-05	-1.66774441127E+02	4.10569885474E-02	7.89393794818E-01
7.79038076152E+10	1.28647504807E-01	-9.78520416419E+01	8.31951436073E-05	1.63924273208E+02	5.98104766141E-05	1.73897395743E+02	4.12249544514E-02	1.28275371884E+00
7.79098196393E+10	1.29493608385E-01	-9.82186696261E+01	2.66302060026E-05	1.77058863891E+02	5.87697666377E-05	-1.40768692553E+02	4.08729643704E-02	2.01606475970E+00
7.79158316633E+10	1.28064480526E-01	-9.67584602113E+01	4.92186799826E-05	1.79921182378E+02	9.24618364694E-05	1.50435479427E+02	4.18935936470E-02	2.07103965956E+00
7.79218436874E+10	1.28765207206E-01	-9.82963903641E+01	4.74904636281E-05	-1.01445505960E+02	8.03674592919E-05	1.13455256760E+02	4.33439271157E-02	8.30540487730E-01
7.79278557114E+10	1.29267210554E-01	-9.90547911356E+01	4.86985468803E-05	1.49726110963E+02	6.77801301792E-05	1.00321114842E+02	4.39743724420E-02	1.96739125467E+00
7.79338677355E+10	1.32504145818E-01	-1.00688379555E+02	2.93252602629E-05	8.17439184280E+01	7.31434906042E-05	1.05435237250E+02	4.45735031412E-02	-3.33746512499E-01
7.79398797595E+10	1.28721729809E-01	-9.86309307609E+01	4.80048616015E-05	1.15756873349E+02	4.22223192304E-05	4.45939952538E+01	4.53640284971E-02	-3.07748421346E-01
7.79458917836E+10	1.27880533707E-01	-9.78560041841E+01	2.13517462883E-05	1.60650633725E+02	3.79675448655E-05	4.08574666123E+01	4.66042881527E-02	-9.12825905145E-01
7.79519038076E+10	1.26583503894E-01	-9.84068962463E+01	1.70916207243E-05	3.25654082432E+01	7.23012606396E-05	9.78448180990E+01	4.74064107936E-02	-2.07732595375E+00
7.79579158317E+10	1.29761368776E-01	-9.97895571434E+01	6.44175269091E-05	1.57727069105E+02	1.76886322487E-05	1.77531352475E+01	4.78040885212E-02	-5.17828116013E-01
7.79639278557E+10	1.28459630680E-01	-9.81437878173E+01	1.80195567317E-05	1.59512554374E+02	4.31558331557E-05	3.93298305534E+01	4.86787557301E-02	-1.92728582060E+00
7.79699398798E+10	1.28395270436E-01	-1.00491396270E+02	3.83894349434E-05	-1.00001212409E+02	2.50158654677E-05	1.08918729104E+01	4.93067206377E-02	-1.98603000669E+00
7.79759519038E+10	1.28562080809E-01	-1.00767947499E+02	2.05156712537E-05	2.85322655844E+00	8.78042380816E-05	1.51732238314E+02	4.98967158337E-02	-2.05663222414E+00
7.79819639279E+10	1.30797608618E-01	-1.01673077169E+02	5.07932357845E-05	-1.76977938952E+02	5.55749291571E-05	1.20690029418E+02	5.13370363750E-02	-2.79729607721E+00
7.79879759519E+10	1.26240919308E-01	-9.84437757484E+01	7.96472942989E-05	8.63163833322E+01	9.20841666002E-05	1.19337393428E+02	5.28114590554E-02	-4.87831271630E+00
7.79939879760E+10	1.28125660127E-01	-9.97606306489E+01	8.84992681340E-05	1.08010221790E+02	6.71546520722E-05	9.67709707482E+01	5.15783205938E-02	-2.93720547805E+00
7.80000000000E+10	1.28361383152E-01	-1.01490540291E+02	9.84397231191E-05	7.27814885202E+01	4.91144817791E-05	6.29091585485E+01	5.18818828197E-02	-2.51181654412E+00
