# Hz S MA R 50
! CMT, C4420, 21421029, 25.1.2/3
! Date: 8/7/2025 4:26:35 PM
! Data: Format (Calibration Info)
! Freq	S33:Mag/Ang(F2)	S43:Mag/Ang(F2)	S34:Mag/Ang(F2)	S44:Mag/Ang(F2)
7.50000000000E+10	1.97867489398E-01	-1.31646594856E+01	2.92931942266E-05	7.08875696104E+01	5.36194323682E-05	2.58321784927E+01	2.11708462209E-01	-2.45064156716E+01
7.50060120240E+10	1.98250544834E-01	-1.28042395390E+01	8.84206679342E-05	1.42331822281E+02	9.92850463281E-05	1.34369901880E+02	2.10976071443E-01	-2.50024189135E+01
7.50120240481E+10	2.00969457439E-01	-1.40215131786E+01	5.95220894108E-05	1.05515361900E+02	1.14228920364E-05	-1.20683183601E+02	2.12601127787E-01	-2.60815532675E+01
7.50180360721E+10	2.00515615367E-01	-1.56043896165E+01	1.17769817710E-04	6.75365177192E+01	1.16877326611E-04	1.09965916920E+02	2.12501771683E-01	-2.68448581774E+01
7.50240480962E+10	2.00627330984E-01	-1.62017673137E+01	7.42625553618E-05	5.97886105044E+01	6.04510454336E-05	5.63569336168E+01	2.11587868455E-01	-2.73341123518E+01
7.50300601202E+10	1.98290448017E-01	-1.33611901406E+01	6.34203835794E-05	6.75255693882E+01	2.71004390603E-05	2.22067376837E+01	2.11271281733E-01	-2.68733377864E+01
7.50360721443E+10	2.00530206392E-01	-1.43662741215E+01	3.54636771730E-05	-1.96556212008E+01	8.40075414580E-05	-7.70453843489E+01	2.08179269155E-01	-2.55341691579E+01
7.50420841683E+10	2.00257077898E-01	-1.55056620782E+01	4.39428404010E-05	-1.61110294995E+01	9.08723968696E-05	2.64326516413E+01	2.10338508727E-01	-2.72527262493E+01
7.50480961924E+10	1.99440162732E-01	-1.77616007765E+01	5.93669709636E-05	8.29711908054E+01	3.69087486185E-05	5.95673314312E+01	2.07144892306E-01	-2.77724241695E+01
7.50541082164E+10	1.96945211712E-01	-1.70689778456E+01	2.39610048518E-05	-1.65903805077E+01	3.55984373293E-05	6.94590622137E+01	2.07200616583E-01	-2.65978624752E+01
7.50601202405E+10	1.98595915625E-01	-1.41048084823E+01	1.25838325678E-04	1.86324155052E+01	8.90279475472E-05	5.25980405952E+01	2.09289754862E-01	-2.74216304409E+01
7.50661322645E+10	2.01759216772E-01	-1.66533657730E+01	1.77703059593E-05	-5.66422654362E+00	1.17669829677E-04	6.74800144833E+01	2.09668364322E-01	-2.86399959478E+01
7.50721442886E+10	1.96931519148E-01	-1.48486500674E+01	2.60498731141E-05	6.06653354598E+01	6.35936038636E-05	-2.84361771754E+01	2.06507313659E-01	-2.71183744836E+01
7.50781563126E+10	1.98636735093E-01	-1.76369359025E+01	6.67908020828E-05	-6.24125905835E+01	6.04957822785E-05	-2.69666512555E+01	2.08764543202E-01	-2.86297664380E+01
7.50841683367E+10	1.96383507233E-01	-1.70947703425E+01	5.52911937482E-05	-4.63220659219E+01	1.86044665879E-05	1.09065850033E+02	2.11818962921E-01	-2.96645055752E+01
7.50901803607E+10	1.98864145571E-01	-1.76774211385E+01	7.45410197273E-05	-5.06528826356E+01	4.06105709571E-05	8.95678838541E+00	2.12982854129E-01	-3.01671205350E+01
7.50961923848E+10	2.00420834473E-01	-1.80637693607E+01	4.49223740188E-05	-3.64313382556E+01	8.40112806436E-05	1.52857824500E+01	2.08659913685E-01	-3.00575894991E+01
7.51022044088E+10	1.95381821977E-01	-1.63057802280E+01	2.60003948877E-05	-1.31753986703E+02	1.10963472175E-04	-1.85422014667E+01	2.07353882463E-01	-2.89419097206E+01
7.51082164329E+10	1.93903938589E-01	-1.56558445219E+01	1.64012864181E-05	1.12847292689E+02	5.14857572739E-05	3.02462838014E+01	2.06244994207E-01	-2.87067228463E+01
7.51142284569E+10	1.94770850684E-01	-1.71516324778E+01	5.17408167704E-05	5.73970567367E+01	1.11457977329E-05	-4.74974140746E+00	2.09520205691E-01	-3.11029429620E+01
7.51202404810E+10	1.98533950779E-01	-1.93267430447E+01	4.15591530831E-05	-3.23244906913E+01	4.55520700548E-05	-4.38848089514E+01	2.10907698770E-01	-3.17502351213E+01
7.51262525050E+10	1.97226435850E-01	-2.00964111697E+01	4.06662979845E-05	4.40195435802E+01	1.40516865644E-04	-4.72028055036E+01	2.05784058128E-01	-3.09225170989E+01
7.51322645291E+10	1.97669315249E-01	-1.94992727477E+01	4.95783963951E-05	2.04018944338E+01	1.83461803328E-05	4.99511032958E+01	2.05381861921E-01	-2.92045090332E+01
7.51382765531E+10	1.96696879646E-01	-1.85535452420E+01	1.25253040040E-04	-2.78571395984E+01	8.33945626377E-05	-1.98364658799E+01	2.07883608398E-01	-3.18617933516E+01
7.51442885772E+10	1.94715595549E-01	-1.80241993887E+01	1.12401970004E-05	9.76272046665E+01	2.79560072890E-05	1.57060628625E+02	2.08706640512E-01	-3.11156276336E+01
7.51503006012E+10	1.92878481911E-01	-1.67688235928E+01	1.01583311233E-05	2.38512521382E-01	1.95066675892E-05	-7.17010242916E+01	2.05489980340E-01	-3.13209400039E+01
7.51563126253E+10	1.92133925142E-01	-1.83618258713E+01	3.83220653246E-06	-1.55741412126E+01	4.20218948197E-05	-4.45831856358E+01	2.04886940423E-01	-3.09605299351E+01
7.51623246493E+10	1.98277894950E-01	-2.15696229522E+01	4.84356061122E-05	-1.47791944649E+02	7.11695437632E-05	7.28929829236E+01	2.06730933626E-01	-3.16659560623E+01
7.51683366733E+10	1.92517841079E-01	-1.87551441875E+01	5.67212578882E-05	-5.75551382769E+01	4.68228717560E-05	-6.54527917181E+01	2.09798526716E-01	-3.27929924803E+01
7.51743486974E+10	1.96584236979E-01	-1.96129973293E+01	1.41031286108E-05	1.63227168805E+02	9.99264056891E-06	3.28870914147E+01	2.09651892031E-01	-3.39208341887E+01
7.51803607214E+10	1.93703680178E-01	-1.85358862970E+01	7.99735717924E-05	-6.20549417438E+01	3.15604654403E-05	-5.77316675927E+01	2.06383659736E-01	-3.35242826163E+01
7.51863727455E+10	1.95872428047E-01	-1.99363618244E+01	3.95810165946E-05	-3.02817856746E+00	4.79322389452E-05	-8.50661341736E+01	2.03870047272E-01	-3.18646409205E+01
7.51923847695E+10	1.91654689441E-01	-1.95925328240E+01	4.20772192977E-05	-6.01918830054E+01	4.23229506263E-05	-6.32460393903E+01	2.06539126007E-01	-3.24127671524E+01
7.51983967936E+10	1.92199886905E-01	-1.89366057213E+01	7.62654595248E-06	3.86416604102E+01	2.53309163750E-05	-9.73320789022E+01	2.07951603771E-01	-3.35441365934E+01
7.52044088176E+10	1.97895825217E-01	-2.19682259172E+01	6.35693209431E-05	5.42716051770E+01	3.93475634084E-05	-1.27814093574E+02	2.05794906505E-01	-3.32565554853E+01
7.52104208417E+10	1.94953718742E-01	-2.18440846858E+01	3.45807644189E-05	-6.31027160896E+01	1.00392536542E-04	-5.89618804335E+01	2.03607420908E-01	-3.32019871083E+01
7.52164328657E+10	1.94934783360E-01	-2.14016726048E+01	5.25323084149E-05	-8.05421353340E+01	1.44878745288E-04	-7.91150301446E+01	2.06651292595E-01	-3.45556357435E+01
7.52224448898E+10	1.93133234668E-01	-2.11221603149E+01	7.98158555796E-05	-1.02853967157E+02	1.34962039034E-04	-1.50520891128E+02	2.03299358390E-01	-3.33754469450E+01
7.52284569138E+10	1.95743985705E-01	-2.01326251597E+01	4.29594835430E-05	1.67898684992E+02	9.99879713276E-05	-7.42216532173E+01	2.03135235252E-01	-3.43288364570E+01
7.52344689379E+10	1.92841407721E-01	-2.14628092114E+01	1.27951184772E-05	-4.84978127142E+01	4.91366637329E-05	-1.29729200460E+02	2.07809030160E-01	-3.65668877056E+01
7.52404809619E+10	1.96095411816E-01	-2.20412099013E+01	3.45346349742E-05	-1.60617327134E+02	6.49396158680E-05	1.35666800625E+01	2.07128015281E-01	-3.55330979597E+01
7.52464929860E+10	1.92661480708E-01	-2.07349607266E+01	3.86791130735E-05	1.62525954179E+02	6.60638958651E-05	1.42211535510E+02	2.04080850034E-01	-3.46716556578E+01
7.52525050100E+10	1.90231332672E-01	-2.13849001721E+01	3.28531927360E-05	-1.30848811960E+02	2.71695442343E-05	-4.25181890453E+01	2.03085689611E-01	-3.54154416114E+01
7.52585170341E+10	1.90592445308E-01	-2.10655059047E+01	8.56383218431E-05	-2.63473926294E+01	2.52389789561E-05	1.17975697547E+02	2.06433441016E-01	-3.65972497825E+01
7.52645290581E+10	1.94996178131E-01	-2.30371042195E+01	6.00333773868E-05	-8.69295792833E+01	7.27435686050E-05	-4.63227811123E+01	2.05380208084E-01	-3.61762970062E+01
7.52705410822E+10	1.93015178248E-01	-2.33855318022E+01	5.81595429852E-05	-9.07837038614E+01	6.83486374917E-05	-1.04542788231E+02	2.03721910099E-01	-3.64635490463E+01
7.52765531062E+10	1.92258838503E-01	-2.36093940982E+01	1.13443548101E-04	-1.23280890299E+02	6.96392010970E-05	-1.74420908562E+02	2.01419872445E-01	-3.60641144272E+01
7.52825651303E+10	1.89847224578E-01	-2.26837171004E+01	5.56351565598E-05	-1.76013186662E+02	5.91045107782E-05	-1.61925905014E+02	2.01339077809E-01	-3.61620002685E+01
7.52885771543E+10	1.90970403524E-01	-2.22780365784E+01	8.79930872048E-05	-1.53394054120E+02	9.00487215530E-05	1.24322098416E+02	2.04887442710E-01	-3.77417599639E+01
7.52945891784E+10	1.91219155745E-01	-2.06006452860E+01	1.54188852144E-05	1.30034714856E+02	9.84659574680E-05	1.56933713348E+02	2.05610483279E-01	-3.77358853694E+01
7.53006012024E+10	1.92830729011E-01	-2.34748254113E+01	1.69313934046E-05	-1.46598970958E+02	7.67751208400E-05	1.37358253626E+02	2.03748243124E-01	-3.77410912126E+01
7.53066132265E+10	1.90116571547E-01	-2.32161456768E+01	6.76854038162E-05	1.07855523902E+02	8.42041888713E-05	-1.11234135643E+02	2.01377408850E-01	-3.72669316835E+01
7.53126252505E+10	1.89487123748E-01	-2.34314464645E+01	1.10464832556E-04	8.91282339574E+01	7.34661168435E-05	-1.74678200904E+02	1.99276950122E-01	-3.74995253991E+01
7.53186372745E+10	1.92621339109E-01	-2.41814493870E+01	7.28917950211E-05	8.10094581114E+01	8.84937335982E-05	7.15432952594E+01	2.01506660326E-01	-3.83244579317E+01
7.53246492986E+10	1.90464668249E-01	-2.26421344496E+01	9.33904241810E-05	6.60010753965E+01	4.47272922465E-05	-1.78851972532E+02	2.03516932242E-01	-3.83734548312E+01
7.53306613226E+10	1.90372363179E-01	-2.28296625246E+01	5.72400622236E-05	-9.54947857870E+01	4.29328224049E-05	-2.09093374754E+01	2.04798525818E-01	-3.91067335024E+01
7.53366733467E+10	1.88344109188E-01	-2.41108660226E+01	1.59412129030E-05	-1.25804378263E+02	4.31265093805E-05	1.40187282631E+02	2.02429070456E-01	-4.05328536854E+01
7.53426853707E+10	1.89194913239E-01	-2.34940539839E+01	4.47962252953E-05	-1.53984410890E+02	4.52580423021E-05	1.07069668502E+02	2.01267620214E-01	-3.91967988117E+01
7.53486973948E+10	1.94705595851E-01	-2.55274713709E+01	1.05184360099E-04	-1.50681698581E+02	9.47472482480E-05	1.77583071800E+02	1.99988953283E-01	-3.87507009148E+01
7.53547094188E+10	1.91015754035E-01	-2.46500911915E+01	2.95723435267E-05	-1.02543760903E+02	1.72657262926E-05	1.60624000693E+02	2.01151886765E-01	-3.96894844467E+01
7.53607214429E+10	1.90786947638E-01	-2.48853686649E+01	5.81998687756E-05	-1.35265656495E+02	7.09848315746E-05	1.57150184768E+02	2.02255374593E-01	-4.09080895678E+01
7.53667334669E+10	1.91104036101E-01	-2.56690075071E+01	1.82542080290E-05	3.03175433488E+01	8.07963531699E-05	5.54838529194E+01	2.00763111841E-01	-4.08625242003E+01
7.53727454910E+10	1.92204059024E-01	-2.57678659192E+01	1.72391645650E-05	-1.69894230645E+02	5.69337361271E-05	-1.53776617286E+02	1.97142052169E-01	-3.87519225306E+01
7.53787575150E+10	1.89247752179E-01	-2.58886458051E+01	6.41596811490E-06	3.82236722250E+01	6.73955878133E-05	9.51691191287E+01	1.98483443900E-01	-4.02118309519E+01
7.53847695391E+10	1.89436079614E-01	-2.49062686600E+01	4.23354105089E-05	7.53052129044E+01	3.86326206216E-05	1.25687474827E+02	2.01071625815E-01	-4.14725583052E+01
7.53907815631E+10	1.87498344256E-01	-2.35554612063E+01	6.24600168743E-05	9.63829393730E+00	3.63366007070E-05	4.79795196808E+01	2.00695772513E-01	-4.24997618352E+01
7.53967935872E+10	1.90016632414E-01	-2.53599458950E+01	7.14881761658E-05	9.87185794776E+00	4.06385346045E-05	-9.56142295733E+01	2.01993470129E-01	-4.21335642379E+01
7.54028056112E+10	1.92299444974E-01	-2.75447514670E+01	2.37232228951E-05	2.67340505013E+01	4.12826620177E-05	5.29547017853E+01	1.98414684665E-01	-4.03232350915E+01
7.54088176353E+10	1.88705200395E-01	-2.67572566566E+01	7.97459547896E-05	6.13033934343E+01	5.94594009831E-05	-3.40288236212E+01	1.99313681053E-01	-4.22405419309E+01
7.54148296593E+10	1.89215120827E-01	-2.56348465029E+01	3.30198972645E-05	1.25275905570E+02	4.78188816298E-05	6.09273846717E+01	1.96517546310E-01	-4.27254008282E+01
7.54208416834E+10	1.94116501876E-01	-2.73389243188E+01	2.11107672765E-05	4.01940437307E-01	7.38306127624E-05	1.31393342513E+01	1.96819774681E-01	-4.11818578233E+01
7.54268537074E+10	1.89456963983E-01	-2.59758046523E+01	2.35022072460E-05	6.82707465315E+01	7.90040605244E-05	-2.27511529815E+00	2.00732844384E-01	-4.36740159988E+01
7.54328657315E+10	1.86717098143E-01	-2.58961141952E+01	3.39762275468E-05	-1.59644724388E+02	5.37332168876E-06	5.99530640753E+01	1.97545203972E-01	-4.28477865343E+01
7.54388777555E+10	1.86503676851E-01	-2.63048190383E+01	2.65377379099E-06	-1.11791287794E+02	2.18533614900E-05	9.94845092999E+01	1.94451030910E-01	-4.24484800805E+01
7.54448897796E+10	1.86743137336E-01	-2.78018085324E+01	5.98417919360E-05	-1.80764491044E-01	8.76090775125E-05	-4.70681488778E+01	1.96870525063E-01	-4.39837936251E+01
7.54509018036E+10	1.92769649593E-01	-2.92726864055E+01	8.68789019272E-05	1.70001020677E+01	3.34688103365E-05	5.16352892853E+01	1.97575513915E-01	-4.46514318980E+01
7.54569138277E+10	1.89056433890E-01	-2.80560974866E+01	4.64327865910E-05	7.59106247984E+01	5.89695979522E-05	3.69269992035E+01	1.97773691704E-01	-4.59573810718E+01
7.54629258517E+10	1.87593268486E-01	-2.62195507680E+01	1.20908286767E-04	2.71842047444E+01	5.61483698011E-05	2.11538418071E+01	1.96186965760E-01	-4.40397483110E+01
7.54689378758E+10	1.87620554136E-01	-2.85428987006E+01	3.37364152416E-06	1.17683035014E+02	5.42334335227E-05	-1.01226566213E+02	1.96612903867E-01	-4.43227682675E+01
7.54749498998E+10	1.88474939067E-01	-2.80394844435E+01	1.02003852146E-04	-3.39155700848E+01	3.60732858680E-05	3.87175173887E+01	1.95317694813E-01	-4.41290069602E+01
7.54809619238E+10	1.89850003521E-01	-2.87410220305E+01	5.65265037520E-05	-3.36659892971E+01	6.79898476341E-05	-5.08038428279E+01	1.94897952231E-01	-4.48788771236E+01
7.54869739479E+10	1.91339184128E-01	-2.93720254480E+01	2.86698320689E-05	4.76308807439E+00	3.02004452622E-05	-4.97376443831E+01	1.95822964010E-01	-4.68039716932E+01
7.54929859719E+10	1.88462614526E-01	-2.89408124489E+01	1.99423001849E-05	-2.52948203523E+01	6.57840405281E-05	-6.98806229441E+01	1.96818084024E-01	-4.66907211127E+01
7.54989979960E+10	1.86680828932E-01	-2.94988874034E+01	2.83846233396E-05	4.38989806816E+01	3.78293000956E-05	-4.87806471285E+01	1.94372372023E-01	-4.53340211993E+01
7.55050100200E+10	1.86662075776E-01	-2.85543500524E+01	6.35194830787E-05	-7.04011068252E+01	3.24225669757E-05	-1.31527381703E+01	1.96672819678E-01	-4.70512814473E+01
7.55110220441E+10	1.90663843668E-01	-3.01717712529E+01	4.57241830910E-05	-3.25303632651E+01	4.04211734260E-05	-1.13737722132E+01	1.95654015623E-01	-4.80505353372E+01
7.55170340681E+10	1.86950153142E-01	-2.97575779124E+01	4.93564223670E-05	-1.63410928787E+02	2.43429032201E-05	-1.52907639436E+01	1.95360911242E-01	-4.76089674625E+01
7.55230460922E+10	1.85533742914E-01	-2.89776513949E+01	4.89228562920E-05	-1.18641742033E+02	3.26991841183E-05	5.72421576608E+00	1.93759457132E-01	-4.68966252383E+01
7.55290581162E+10	1.87162811911E-01	-3.08159411044E+01	6.32130938113E-05	-1.57499769847E+02	2.98300053219E-05	-1.02453521561E+02	1.92628370545E-01	-4.66361624986E+01
7.55350701403E+10	1.87182809777E-01	-2.97262137128E+01	2.56237890156E-06	-1.47540881727E+02	5.55881485408E-05	-9.28827800125E+01	1.91393060495E-01	-4.77418916968E+01
7.55410821643E+10	1.86655803427E-01	-2.98442660568E+01	3.39005962515E-05	-1.03667327930E+02	5.21039165613E-05	-1.66905287539E+02	1.92793260094E-01	-4.77688364487E+01
7.55470941884E+10	1.87313408841E-01	-2.98711350302E+01	6.20000290905E-05	-1.51309975805E+02	6.72658870598E-05	-6.06671224703E+01	1.92145933545E-01	-4.81560846056E+01
7.55531062124E+10	1.86617296428E-01	-3.01349542668E+01	4.97054117666E-05	-1.17129676625E+02	3.37327365437E-05	1.61543879805E+02	1.92479945205E-01	-4.83709660102E+01
7.55591182365E+10	1.86332200547E-01	-3.21668137746E+01	3.48982032371E-05	-1.39432760784E+02	6.55075368154E-05	-8.85840516882E+01	1.91009721463E-01	-4.97490255456E+01
7.55651302605E+10	1.85550695831E-01	-3.11652268638E+01	3.41789118339E-05	1.48099557714E+02	3.95328109841E-05	-3.49860279611E+01	1.90794361830E-01	-4.91213203206E+01
7.55711422846E+10	1.89024860128E-01	-3.15021050792E+01	5.17131470480E-05	1.69255837718E+02	3.76906152072E-05	-9.47081136413E+01	1.92238334908E-01	-4.87479611602E+01
7.55771543086E+10	1.84988245981E-01	-3.03079286746E+01	4.06224714249E-05	1.34951147251E+02	7.29508635900E-05	-1.70082142552E+02	1.90802261464E-01	-4.94603235873E+01
7.55831663327E+10	1.82666670680E-01	-3.12098545252E+01	5.44479573250E-05	1.74161290724E+02	4.45241653223E-05	1.53708975023E+02	1.89228403082E-01	-4.97802794807E+01
7.55891783567E+10	1.85238237037E-01	-3.11978963072E+01	2.41646072577E-05	3.53912294458E+01	4.89987652442E-05	1.57285787867E+02	1.90300337420E-01	-5.07889148832E+01
7.55951903808E+10	1.87887952783E-01	-3.36120393145E+01	6.17746029734E-05	8.16506688944E+01	2.41455696121E-05	1.66808598422E+02	1.92539238463E-01	-5.15324757821E+01
7.56012024048E+10	1.91873904400E-01	-3.43309568626E+01	1.19673399336E-04	1.20419907950E+02	7.85921999870E-05	6.32891331900E+01	1.89681248167E-01	-5.03064404972E+01
7.56072144289E+10	1.86619181623E-01	-3.28606741751E+01	6.86840853604E-05	9.97037185924E+01	4.43312341334E-05	4.68635416810E+01	1.86999303567E-01	-5.02136043998E+01
7.56132264529E+10	1.85193062909E-01	-3.19546362406E+01	6.06045856061E-05	1.12100062214E+02	3.69236994757E-05	-4.45398868878E+01	1.89393060825E-01	-5.10467257037E+01
7.56192384770E+10	1.81978146033E-01	-3.19637724972E+01	3.75695476030E-05	4.38296956881E+01	1.04932883431E-04	5.88836825794E+01	1.87888951608E-01	-5.02723874815E+01
7.56252505010E+10	1.83641235294E-01	-3.25266030125E+01	4.45154127025E-05	1.90299233973E+01	2.88335718079E-05	4.71577146434E+01	1.90095488417E-01	-5.24339764266E+01
7.56312625251E+10	1.85808356599E-01	-3.28213900889E+01	3.30177970027E-05	1.52980751579E+02	1.06441238538E-05	-1.73872271873E+01	1.87908103521E-01	-5.24771821315E+01
7.56372745491E+10	1.82986250014E-01	-3.19819013998E+01	4.09186050882E-05	7.62816247738E+01	3.31827711553E-05	4.00710799392E+01	1.86695526148E-01	-5.07406507015E+01
7.56432865731E+10	1.82457073915E-01	-3.35897598991E+01	4.45196751912E-05	1.16614859156E+02	3.99785916106E-05	-1.16107138583E+02	1.88869923347E-01	-5.19004119811E+01
7.56492985972E+10	1.85111163505E-01	-3.45602237589E+01	4.68928791428E-05	7.93114308798E+01	3.62141964473E-05	9.75621602341E+01	1.87413634725E-01	-5.28845404865E+01
7.56553106212E+10	1.84616527709E-01	-3.33493931128E+01	4.73521371589E-05	1.51037126106E+02	1.86447445382E-05	1.43687481764E+02	1.87237876547E-01	-5.34056068602E+01
7.56613226453E+10	1.86885680149E-01	-3.40832650174E+01	4.33224004882E-05	-8.93263028479E+01	6.27382903441E-05	8.47962342461E+01	1.85689460978E-01	-5.16244306474E+01
7.56673346693E+10	1.85332626083E-01	-3.43823060328E+01	6.34513141630E-05	3.60938274939E+01	8.13858557134E-05	2.10169754185E+01	1.87932812852E-01	-5.39521561930E+01
7.56733466934E+10	1.84713025066E-01	-3.50483930786E+01	4.97755778540E-05	-1.79434261000E+00	1.26470620215E-04	6.70412217058E+01	1.86421807639E-01	-5.43010626142E+01
7.56793587174E+10	1.83874596779E-01	-3.53707015821E+01	7.34876360777E-05	-1.86594311063E+00	9.55434385546E-05	-2.00932435315E+01	1.83519243312E-01	-5.26101176726E+01
7.56853707415E+10	1.83277855502E-01	-3.52201189779E+01	9.47572951737E-05	-6.71237806027E+01	1.11456325036E-04	-2.38566064766E+01	1.87374533639E-01	-5.42231583267E+01
7.56913827655E+10	1.83324336492E-01	-3.49356471411E+01	6.29428605765E-05	-1.25529195269E+02	4.35175786849E-05	4.30757023965E+01	1.84866939998E-01	-5.36974267763E+01
7.56973947896E+10	1.84306814502E-01	-3.56480271830E+01	7.35992445762E-05	-3.00172824793E+01	9.52301344658E-05	-1.53068983953E+01	1.83834900682E-01	-5.49762438841E+01
7.57034068136E+10	1.86388697192E-01	-3.57255574526E+01	4.39215051902E-05	-2.64303144944E+01	2.24069816491E-05	-1.03274494318E+01	1.82130861683E-01	-5.32516998215E+01
7.57094188377E+10	1.83552386869E-01	-3.67590894618E+01	9.57180295917E-05	-4.35942777741E+01	4.94823703225E-05	-6.98717351860E+01	1.83723998756E-01	-5.52615375687E+01
7.57154308617E+10	1.81338537213E-01	-3.49820944736E+01	4.86319057227E-05	-8.37634359654E+01	6.71522198458E-05	-5.91250161753E+01	1.84973569675E-01	-5.60027467978E+01
7.57214428858E+10	1.85460889310E-01	-3.65250154609E+01	8.06955806675E-05	-1.12536425424E+02	5.61367661986E-05	-5.97718835812E+01	1.86075842896E-01	-5.62266463362E+01
7.57274549098E+10	1.84307424895E-01	-3.55554248924E+01	5.84422477515E-05	-1.47945531447E+02	1.06890728684E-04	-6.43300259879E+01	1.83329707692E-01	-5.57247363303E+01
7.57334669339E+10	1.82473664658E-01	-3.65803838296E+01	4.25913003360E-05	-1.56423159600E+02	6.96700261183E-05	-1.23757044707E+02	1.85331553619E-01	-5.66480777811E+01
7.57394789579E+10	1.80640318555E-01	-3.62120467473E+01	6.88891567452E-05	-1.34886444937E+02	7.65407980162E-05	-9.83333241601E+01	1.83400992423E-01	-5.62192499388E+01
7.57454909820E+10	1.81979650788E-01	-3.62543062751E+01	3.01248376969E-05	-9.66587300598E+01	6.90118295624E-05	-9.90583983609E+01	1.81813265600E-01	-5.66692296860E+01
7.57515030060E+10	1.85947488517E-01	-3.76503663428E+01	2.66603257516E-05	-2.28513615266E+01	4.69786524903E-05	-6.95937216561E+01	1.85333699210E-01	-5.72801983807E+01
7.57575150301E+10	1.83882710580E-01	-3.76230521216E+01	4.05950770858E-05	-1.28030959424E+02	8.36172993043E-05	-9.22921976753E+01	1.82497088292E-01	-5.70357660738E+01
7.57635270541E+10	1.79281274488E-01	-3.60866633373E+01	1.28656151692E-04	-1.20201038013E+02	1.05233464237E-04	-1.01048603183E+02	1.79919597312E-01	-5.67780085251E+01
7.57695390782E+10	1.81344581181E-01	-3.74258694291E+01	6.77198568880E-05	1.54895317948E+02	1.17396326823E-04	-1.28355244848E+02	1.85076271935E-01	-5.89028707790E+01
7.57755511022E+10	1.81826208695E-01	-3.76833982992E+01	1.54297727468E-05	-2.59820570941E+01	7.30110425802E-05	-1.15578696536E+02	1.82829201836E-01	-5.85840972550E+01
7.57815631263E+10	1.82426444080E-01	-3.86384530852E+01	4.98719739733E-05	9.26596906616E+01	6.66570626585E-05	-1.27962869501E+02	1.81267869950E-01	-5.81803229179E+01
7.57875751503E+10	1.81625954564E-01	-3.88344682125E+01	2.25676327498E-05	9.16455965311E+01	1.19518857215E-05	-1.12934555107E+02	1.79369159914E-01	-5.85188413093E+01
7.57935871743E+10	1.82786584696E-01	-3.76654015165E+01	4.85595218606E-05	1.70358482384E+02	2.29744909200E-05	1.19540448687E+02	1.80358936850E-01	-5.77951240359E+01
7.57995991984E+10	1.79748854004E-01	-3.96551415292E+01	7.65118075303E-06	-1.75960633669E+01	8.46203195274E-05	-1.27069499568E+02	1.81148059757E-01	-5.97984223810E+01
7.58056112224E+10	1.82892164211E-01	-3.95498667644E+01	6.81958683121E-05	-1.01249347354E+02	5.00881484159E-05	1.70888594560E+02	1.79850579079E-01	-5.83606920038E+01
7.58116232465E+10	1.84333828443E-01	-3.94706717658E+01	7.20398803798E-05	-1.21357926015E+02	5.34195356069E-05	1.74835740119E+02	1.78945805668E-01	-5.91811874816E+01
7.58176352705E+10	1.79787639171E-01	-3.83443938624E+01	4.90854427132E-05	-1.79551859371E+02	1.65249318857E-05	1.13854725658E+02	1.77783862549E-01	-5.90290851757E+01
7.58236472946E+10	1.81044678107E-01	-3.95420026710E+01	9.54063506380E-05	9.97795915963E+01	3.44708957010E-05	1.27733101365E+02	1.78782161963E-01	-5.92787366033E+01
7.58296593186E+10	1.81464014776E-01	-4.04490817195E+01	1.17226663991E-05	9.17077743668E+01	7.92602332350E-05	3.31958374337E+01	1.80379972578E-01	-6.11602673861E+01
7.58356713427E+10	1.81839131672E-01	-4.05222703657E+01	2.21942751434E-05	6.30693394136E+01	3.41573571599E-05	-1.00003843936E+02	1.78544702295E-01	-6.11691345995E+01
7.58416833667E+10	1.81043736770E-01	-4.02302138126E+01	5.37937493172E-06	-1.39403793292E+02	5.06958036679E-05	-1.48688734329E+02	1.75619394689E-01	-5.93075248758E+01
7.58476953908E+10	1.80151088991E-01	-4.12298081267E+01	1.84683607502E-05	-5.28545276143E+01	4.02194170176E-05	1.66190821752E+02	1.75188242596E-01	-6.07635273409E+01
7.58537074148E+10	1.80855729104E-01	-3.93579280435E+01	5.65366338594E-05	7.75968939504E+01	6.82634668613E-05	1.39118702896E+02	1.78712640287E-01	-6.18335050523E+01
7.58597194389E+10	1.82043142169E-01	-4.05483179727E+01	9.48741950271E-05	-1.24868029469E+02	5.38925659493E-05	-1.65195063926E+02	1.76888328235E-01	-6.25236567499E+01
7.58657314629E+10	1.79814365644E-01	-3.98793900186E+01	1.03836571489E-04	-1.30439005672E+02	5.83540520580E-05	1.17881139744E+02	1.77063413018E-01	-6.08358619294E+01
7.58717434870E+10	1.77347291815E-01	-4.08636789013E+01	1.18450788283E-05	-1.52051182914E+02	2.57534415588E-05	3.57778069113E+01	1.76827009507E-01	-6.18744735128E+01
7.58777555110E+10	1.78343188932E-01	-3.98791407094E+01	3.89398934199E-05	-1.56042268231E+02	5.71944512532E-05	1.21021769610E+02	1.77492750344E-01	-6.15040509181E+01
7.58837675351E+10	1.77696032550E-01	-4.18204134152E+01	1.06154638164E-05	8.15268669314E+01	4.86907136607E-05	3.62294861028E+01	1.75744119360E-01	-6.31272340712E+01
7.58897795591E+10	1.78687623334E-01	-4.15306408877E+01	7.28362770938E-05	-3.78804443896E+01	1.67532247818E-05	9.34380871075E+00	1.75399888499E-01	-6.33531506725E+01
7.58957915832E+10	1.80028619785E-01	-4.32311793967E+01	5.06463728449E-05	-1.29499505685E+02	9.56680133597E-05	1.60244549882E+02	1.74239950615E-01	-6.41973575519E+01
7.59018036072E+10	1.79342720168E-01	-4.21904854402E+01	3.58250282915E-05	-1.35202639268E+02	1.79727631894E-04	1.05096801363E+02	1.74593903621E-01	-6.33815581565E+01
7.59078156313E+10	1.77574770719E-01	-4.10532944347E+01	7.36762161641E-05	1.05996855160E+02	3.19842812286E-05	8.43265273932E+01	1.74486720244E-01	-6.34077779911E+01
7.59138276553E+10	1.76079222534E-01	-4.10846234782E+01	9.81424028921E-05	1.14494174452E+02	3.84465224919E-05	6.51090633907E+01	1.74402793825E-01	-6.47293183076E+01
7.59198396794E+10	1.80323411437E-01	-4.23440915187E+01	3.84504311789E-05	-1.14630565212E+02	6.33575820514E-05	-2.65939331445E+00	1.74389155237E-01	-6.51362369288E+01
7.59258517034E+10	1.79505303928E-01	-4.32887991869E+01	7.87459133866E-05	-7.73643643994E+01	4.24924964492E-05	3.70624587812E+01	1.73833036460E-01	-6.38129612563E+01
7.59318637275E+10	1.78507892876E-01	-4.38641530125E+01	7.15265706307E-05	1.72232799749E+02	6.92271986860E-05	-1.10760075969E+02	1.74288431218E-01	-6.42679513354E+01
7.59378757515E+10	1.75227582556E-01	-4.26561702007E+01	2.28655161839E-05	-4.07809063660E+01	4.52144223103E-05	1.49696835310E+02	1.73082251659E-01	-6.54385041521E+01
7.59438877756E+10	1.78581645785E-01	-4.26913803712E+01	8.51446314145E-05	-1.38485206320E+02	4.01136214014E-05	-1.20147850630E+02	1.74690050927E-01	-6.65468182838E+01
7.59498997996E+10	1.79006718361E-01	-4.30544972124E+01	1.05549193149E-04	6.62433948322E+01	3.10105031604E-05	6.25378489858E+01	1.73124390913E-01	-6.65648368077E+01
7.59559118236E+10	1.78598476452E-01	-4.38533766217E+01	8.36927779973E-05	1.64810567844E+02	4.48284982986E-05	-1.21613403346E+02	1.71255335094E-01	-6.50319528764E+01
7.59619238477E+10	1.77694102546E-01	-4.57650538622E+01	4.24358875641E-05	6.53675622869E+01	2.19654009929E-05	1.68949471888E+02	1.70837291193E-01	-6.63851086591E+01
7.59679358717E+10	1.77351268232E-01	-4.48076018194E+01	1.86630362382E-05	1.37506889741E+02	8.72544665684E-06	1.09734750690E+02	1.71226954534E-01	-6.75727174866E+01
7.59739478958E+10	1.79027244023E-01	-4.46047198488E+01	3.50163439439E-05	-1.76629671060E+02	9.08084748087E-05	-1.36186499621E+02	1.71250041927E-01	-6.73479563589E+01
7.59799599198E+10	1.78312268231E-01	-4.43655871971E+01	4.05430294477E-05	1.48141200340E+02	2.64645435112E-05	-1.31873859985E+02	1.71807316792E-01	-6.67906341283E+01
7.59859719439E+10	1.73612491469E-01	-4.41230548984E+01	8.98693655366E-05	7.16445924611E+01	2.15673209424E-05	-8.71587734472E+01	1.69546181387E-01	-6.65798957743E+01
7.59919839679E+10	1.77160823873E-01	-4.50111079815E+01	9.45114135216E-05	6.37269340910E+01	4.91603651706E-05	5.57803091616E+01	1.71761792039E-01	-6.86725647326E+01
7.59979959920E+10	1.78385413100E-01	-4.51993251747E+01	5.51935110918E-05	1.68242535130E+00	2.21282436875E-05	-6.49708706164E+01	1.69456058606E-01	-6.88162924198E+01
7.60040080160E+10	1.74907289074E-01	-4.38259207449E+01	7.55399899967E-05	9.29856153206E+01	1.01821939804E-05	1.06524152464E+02	1.69848019355E-01	-6.77378223078E+01
7.60100200401E+10	1.76440086119E-01	-4.63184678035E+01	7.11750328215E-05	-6.01499390915E+01	6.54253846720E-05	-1.61297852704E+00	1.68695629778E-01	-6.92976675850E+01
7.60160320641E+10	1.74856628858E-01	-4.55369520832E+01	6.25053385758E-05	-1.27262444279E+02	6.93762256174E-05	-1.09852922142E+02	1.70991627039E-01	-6.96849691349E+01
7.60220440882E+10	1.75161388260E-01	-4.65676664832E+01	7.57109865487E-05	1.13523836271E+02	3.30087602462E-05	1.71239124503E+02	1.69283644537E-01	-6.90942047186E+01
7.60280561122E+10	1.76158632462E-01	-4.68850294193E+01	2.56765946074E-05	1.61637711049E+02	4.39663400216E-05	1.04844328359E+02	1.65812950794E-01	-6.84018638021E+01
7.60340681363E+10	1.74823153029E-01	-4.52401361835E+01	7.84421019603E-05	5.30714600306E+01	3.24641492419E-05	1.50836941971E+02	1.65903055041E-01	-6.94693017037E+01
7.60400801603E+10	1.73832068003E-01	-4.47490051148E+01	2.08557745867E-05	-1.70246459162E+02	7.10604044291E-05	1.62141877367E+02	1.68985030668E-01	-7.17591581999E+01
7.60460921844E+10	1.73437742282E-01	-4.44200312085E+01	3.67352712987E-05	3.14838579681E+01	1.13124666893E-04	7.45634823016E+01	1.66035547900E-01	-6.89758865506E+01
7.60521042084E+10	1.71758148873E-01	-4.45344349317E+01	1.44500639534E-04	6.28503487813E+01	4.29882628623E-05	8.04781662151E+01	1.66084724629E-01	-6.98392701681E+01
7.60581162325E+10	1.73901968296E-01	-4.77966137781E+01	6.88030508936E-05	2.07548402738E+01	7.22571424351E-05	2.87411492445E+01	1.68230118053E-01	-7.19754604137E+01
7.60641282565E+10	1.75561074957E-01	-4.79817999590E+01	1.30670614334E-04	1.19086687067E+01	1.36831949897E-04	-1.57887740598E+01	1.67018140640E-01	-7.27729115823E+01
7.60701402806E+10	1.72220959309E-01	-4.65749373700E+01	7.61367900828E-05	4.26241017015E+01	1.55638915420E-05	-3.86890347973E+01	1.63921028151E-01	-6.96021234910E+01
7.60761523046E+10	1.72909964104E-01	-4.70980993947E+01	7.40219527613E-05	3.15905330097E+00	8.59477231294E-05	4.33852432054E+00	1.65466769208E-01	-7.17293317965E+01
7.60821643287E+10	1.74556741015E-01	-4.62409451014E+01	5.76976788211E-05	4.40856267174E+00	8.48435012952E-05	-3.15582564050E+01	1.62852293294E-01	-7.02419589186E+01
7.60881763527E+10	1.73875752192E-01	-4.65823007530E+01	3.02599946031E-05	-3.63964001188E+00	1.01031133742E-04	3.56859413284E+01	1.66208997265E-01	-7.37264083516E+01
7.60941883768E+10	1.71830920987E-01	-4.88921918198E+01	8.79882941284E-05	-1.21067948429E+02	4.94425442282E-05	-2.29477798225E+00	1.64750167673E-01	-7.35304423382E+01
7.61002004008E+10	1.72801712595E-01	-4.84612814264E+01	9.50952216478E-05	-5.11431293091E+01	8.55674096369E-05	-3.30369344893E+01	1.63078631841E-01	-7.24239281765E+01
7.61062124248E+10	1.74917515223E-01	-4.87339335203E+01	9.89843668182E-05	-1.05578652963E+02	7.23439977040E-05	-5.62915363314E-01	1.61716042229E-01	-7.20632367164E+01
7.61122244489E+10	1.70529053777E-01	-4.66539135873E+01	9.50051722465E-05	-7.91157873927E+01	6.55882998257E-05	-1.00759014741E+02	1.61812540430E-01	-7.29969666061E+01
7.61182364729E+10	1.74526807474E-01	-4.87963810732E+01	7.50050370044E-05	-7.87501378042E+01	8.97145960453E-05	-3.22509074890E+01	1.62782456450E-01	-7.40570187784E+01
7.61242484970E+10	1.69997080950E-01	-4.74473551158E+01	4.31104843654E-05	1.08396370811E+02	1.07429763294E-04	-4.32058728683E+01	1.63821010450E-01	-7.50182841073E+01
7.61302605210E+10	1.70854714617E-01	-4.71970950131E+01	6.73657164162E-05	-6.35950446700E+01	7.72596526077E-05	1.97804664967E+01	1.62531973894E-01	-7.46266615128E+01
7.61362725451E+10	1.70929894427E-01	-4.85619031792E+01	9.72843439107E-06	-2.15524911814E+01	1.04554193077E-04	-3.23127525935E+01	1.61887675262E-01	-7.52558362628E+01
7.61422845691E+10	1.72322686665E-01	-4.91479556792E+01	2.70668135456E-05	-1.31379741252E+02	1.21143115102E-04	-7.23526269097E+01	1.60557826427E-01	-7.48932338436E+01
7.61482965932E+10	1.69598062151E-01	-5.02520966671E+01	9.04291469413E-05	-8.80498315075E+01	1.57090099401E-04	-1.03653438582E+02	1.61778830992E-01	-7.54751127455E+01
7.61543086172E+10	1.73009779728E-01	-4.83021962434E+01	9.62301202352E-05	-1.38046266655E+02	9.37892462847E-05	-8.89305718464E+01	1.60292509636E-01	-7.47207359362E+01
7.61603206413E+10	1.70958259659E-01	-4.95081468557E+01	1.45559939580E-04	-1.16671814868E+02	8.64873695947E-05	-9.69974077311E+01	1.62423055918E-01	-7.66403540052E+01
7.61663326653E+10	1.70261799870E-01	-4.97958026195E+01	4.91566814766E-05	1.51704949555E+02	7.48563845848E-05	-9.97850855359E+01	1.59299997369E-01	-7.59297767008E+01
7.61723446894E+10	1.71981238305E-01	-4.94696034135E+01	4.57190495537E-05	6.90350806274E+01	5.01914939607E-05	-1.22798062054E+02	1.58847446428E-01	-7.60880713101E+01
7.61783567134E+10	1.71787093182E-01	-4.98809162312E+01	5.64427093146E-05	1.09847393047E+02	7.20521191926E-05	1.70046377806E+02	1.58869909359E-01	-7.65545310601E+01
7.61843687375E+10	1.69640299078E-01	-4.98841114576E+01	7.05722634262E-05	-1.71773192892E+02	1.19472457229E-04	-8.96329334323E+01	1.59875586191E-01	-7.81078424616E+01
7.61903807615E+10	1.70203214683E-01	-5.03530828484E+01	9.23646239599E-05	-1.30724573782E+02	5.19120677071E-05	-1.53441953483E+02	1.58818158552E-01	-7.77755489769E+01
7.61963927856E+10	1.70698986624E-01	-4.92228498071E+01	4.95948602155E-05	-1.99392381430E+01	1.31536463096E-04	-1.49958897694E+02	1.56179265745E-01	-7.62246196096E+01
7.62024048096E+10	1.67429146036E-01	-4.97613224963E+01	1.05857407821E-05	-1.42414818381E+02	8.62843744017E-05	-1.57804737601E+02	1.57455158566E-01	-7.74082795557E+01
7.62084168337E+10	1.67570793178E-01	-4.90772369813E+01	4.34786385488E-05	1.33744603467E+02	1.01968717918E-04	1.58833421249E+02	1.57787394448E-01	-7.86520962321E+01
7.62144288577E+10	1.68412524845E-01	-4.91587688625E+01	7.48289887185E-05	1.25936956570E+02	9.36579989455E-05	-1.69961508232E+02	1.58935884819E-01	-7.93049100341E+01
7.62204408818E+10	1.69800704985E-01	-5.03902527646E+01	9.30595306004E-05	7.61241681973E+01	1.04393014659E-04	1.14576222087E+02	1.56647109528E-01	-7.88834190743E+01
7.62264529058E+10	1.69770251568E-01	-5.19820042215E+01	6.56100239928E-06	-1.28039166509E+02	9.51352873978E-05	1.60707408986E+02	1.54705188259E-01	-7.82537235631E+01
7.62324649299E+10	1.68437106902E-01	-5.22630009769E+01	7.64025495057E-05	1.38813295303E+02	3.92813247396E-05	6.50765641760E+01	1.55763814129E-01	-7.89828764814E+01
7.62384769539E+10	1.67512120898E-01	-4.98487107526E+01	4.36656519026E-05	-1.39416392147E+02	6.12390911802E-06	1.43660337066E+02	1.55156070729E-01	-8.00049044492E+01
7.62444889780E+10	1.67011851899E-01	-5.05586618056E+01	3.71069817196E-05	-1.53876916650E+02	2.55403625300E-05	1.67770372360E+02	1.55444119071E-01	-8.06138599144E+01
7.62505010020E+10	1.69996132126E-01	-5.23520582921E+01	7.92969367088E-05	-1.45698832319E+02	4.33507757508E-05	1.18892972348E+02	1.54752890530E-01	-8.06527110153E+01
7.62565130261E+10	1.68204452116E-01	-5.02258114303E+01	1.12734544172E-04	1.60522326378E+02	5.97588882462E-05	1.32735646907E+02	1.53403904128E-01	-8.05328887110E+01
7.62625250501E+10	1.68094341813E-01	-5.26015584494E+01	1.89200492045E-05	1.11477415780E+02	7.07053148097E-05	1.37137553436E+02	1.55538092810E-01	-8.12791741910E+01
7.62685370741E+10	1.67687287533E-01	-5.11136422928E+01	1.00137469679E-04	1.04002569669E+02	8.89803451095E-05	1.10438077177E+02	1.53148345357E-01	-8.12135986505E+01
7.62745490982E+10	1.67882987825E-01	-5.37245724033E+01	3.51765322613E-05	-3.06926367001E+01	8.54754868718E-05	6.57907881328E+01	1.55559606500E-01	-8.26445923140E+01
7.62805611222E+10	1.68956316181E-01	-5.13300899124E+01	2.59000994703E-05	9.22014480464E+01	1.07158813365E-04	5.43483628604E+01	1.53160106414E-01	-8.26312089520E+01
7.62865731463E+10	1.68531295796E-01	-5.12143360474E+01	8.22064358015E-05	1.12691514175E+02	1.29412154854E-04	6.27182748382E+01	1.52066873548E-01	-8.25116403684E+01
7.62925851703E+10	1.67190980423E-01	-5.32348861952E+01	1.03382034409E-04	-9.47773246306E+01	7.74817390631E-05	2.33427886801E+00	1.49950464510E-01	-8.13833272518E+01
7.62985971944E+10	1.68697840719E-01	-5.36907425294E+01	6.56854086702E-05	-6.25808055188E+01	6.46238873525E-05	7.26533797484E+00	1.51103734117E-01	-8.26646063291E+01
7.63046092184E+10	1.67323374239E-01	-5.47852156686E+01	6.70854200227E-05	-4.98574527077E+01	3.31166174289E-05	-1.71830924524E+02	1.51798571034E-01	-8.37109830333E+01
7.63106212425E+10	1.67376981921E-01	-5.37028732732E+01	3.36085306384E-05	-2.68266723304E+01	3.15445990669E-05	1.44333974387E+02	1.51633212497E-01	-8.44064453082E+01
7.63166332665E+10	1.65203209281E-01	-5.33069250509E+01	6.15300182259E-05	1.53795945843E+02	3.94426959599E-06	1.79887587746E+02	1.49370948067E-01	-8.40190351329E+01
7.63226452906E+10	1.68942441224E-01	-5.32811263319E+01	9.65400680752E-05	-1.69156364843E+02	3.95771397323E-05	1.76614009634E+02	1.48681127651E-01	-8.42140270814E+01
7.63286573146E+10	1.65377784648E-01	-5.25741814230E+01	8.98045889943E-05	1.50984895294E+02	9.87584845482E-05	7.96048195447E+01	1.48796480038E-01	-8.45759575778E+01
7.63346693387E+10	1.65078297972E-01	-5.41176174124E+01	7.29191248483E-05	1.65471177074E+02	8.64487740520E-05	6.85743029597E+01	1.51076228251E-01	-8.63800904009E+01
7.63406813627E+10	1.65853388132E-01	-5.45493959272E+01	6.42800562848E-05	1.57916772825E+02	7.36257206568E-05	1.08872108124E+02	1.48495000249E-01	-8.65519420376E+01
7.63466933868E+10	1.68605162841E-01	-5.43699496451E+01	1.11572582175E-04	9.25391015894E+01	6.62705107213E-05	9.18098631750E+01	1.46839904969E-01	-8.55156004366E+01
7.63527054108E+10	1.65013890106E-01	-5.33398572724E+01	8.50427955529E-05	2.42369000534E+01	1.02498637912E-04	1.63905431933E+01	1.47440790367E-01	-8.62235911175E+01
7.63587174349E+10	1.64298542863E-01	-5.28868524797E+01	3.71373367847E-05	1.79325896596E+01	7.94810567582E-05	-1.58431130080E+01	1.46857263875E-01	-8.61255370101E+01
7.63647294589E+10	1.66720476112E-01	-5.51464759206E+01	8.81660870536E-05	3.41809142420E+01	5.07646578634E-05	-1.47777028761E+01	1.45983469706E-01	-8.66730539005E+01
7.63707414830E+10	1.65692533252E-01	-5.35636882500E+01	2.65497247329E-05	-1.27185989054E+02	3.57971634940E-05	-8.00632955853E+00	1.44419481395E-01	-8.73244847999E+01
7.63767535070E+10	1.66059711426E-01	-5.48594115236E+01	3.07754320337E-05	-6.88518628504E+01	9.86965873142E-05	5.16647286121E+00	1.44562457582E-01	-8.70416308019E+01
7.63827655311E+10	1.65820733262E-01	-5.63078917595E+01	5.18717859970E-05	9.10067494399E+01	8.78018289139E-05	9.10386267712E+01	1.45325064692E-01	-8.85522768252E+01
7.63887775551E+10	1.66066593817E-01	-5.56845731397E+01	6.84310487798E-05	-7.02488893261E+01	9.15680320254E-06	-3.64311856490E+01	1.44607199987E-01	-8.87141612352E+01
7.63947895792E+10	1.65274798375E-01	-5.48997830242E+01	2.62243036713E-05	-1.16744503336E+02	8.34180226985E-05	-7.83916016771E+01	1.41692784227E-01	-8.73065721895E+01
7.64008016032E+10	1.62439098835E-01	-5.56646904118E+01	5.12230751716E-05	9.93284366260E+01	7.98142219273E-05	-1.02662034127E+02	1.41023949053E-01	-8.83921538710E+01
7.64068136273E+10	1.66209302520E-01	-5.46436963234E+01	6.27214493231E-05	-4.05301317146E+01	5.68228347816E-05	-7.15534700326E+01	1.41418222089E-01	-8.95622340756E+01
7.64128256513E+10	1.65479299784E-01	-5.67795555505E+01	3.32356136583E-05	3.31599561432E+01	1.69786617196E-05	-5.90390551360E+01	1.42683055494E-01	-9.12392659458E+01
7.64188376754E+10	1.63660577870E-01	-5.56889379650E+01	3.91102785821E-05	-6.53828436715E+01	6.41722349397E-05	-2.27038437663E+01	1.40335051186E-01	-8.92838948493E+01
7.64248496994E+10	1.62999843826E-01	-5.52541151011E+01	4.91711600350E-05	-1.72862311173E+00	3.65645477571E-05	-5.12247516454E+01	1.38584151180E-01	-8.97667602412E+01
7.64308617234E+10	1.63966670454E-01	-5.53501890048E+01	3.39558432966E-05	-1.72271371712E+02	7.71077140752E-05	-5.52313156339E+01	1.39631654527E-01	-9.09975643842E+01
7.64368737475E+10	1.65139772905E-01	-5.66394112836E+01	9.07526794856E-05	-9.53299441376E+01	6.70015537728E-05	-1.02776311726E+02	1.41128764427E-01	-9.23245331492E+01
7.64428857715E+10	1.64794951343E-01	-5.68002818987E+01	6.67314559957E-05	-1.04551621883E+02	9.01019163423E-05	-1.21267261950E+02	1.39232080363E-01	-9.15859610697E+01
7.64488977956E+10	1.63974799020E-01	-5.74144762204E+01	1.23153522208E-04	-8.88422488733E+01	4.83869910310E-05	-1.37466921126E+02	1.37468236242E-01	-9.06680340696E+01
7.64549098196E+10	1.61913475207E-01	-5.64987017554E+01	6.18977436452E-05	1.56239140429E+02	7.88763427448E-05	-1.23903016383E+02	1.36657041102E-01	-9.08446073992E+01
7.64609218437E+10	1.62136061736E-01	-5.64951872346E+01	3.44036181803E-05	-5.81246620974E+01	3.36196647178E-05	-1.13646612017E+02	1.36071238871E-01	-9.19693634611E+01
7.64669338677E+10	1.62780138530E-01	-5.68456715983E+01	1.22965282454E-04	1.43166226644E+02	5.46816466760E-05	-1.66127598377E+02	1.36982340830E-01	-9.41585503434E+01
7.64729458918E+10	1.62799975971E-01	-5.52581753238E+01	4.00576883165E-05	1.22828203359E+02	5.14151614123E-05	1.02594251207E+02	1.35847301887E-01	-9.29975720640E+01
7.64789579158E+10	1.65984983980E-01	-5.88582212470E+01	3.42002990556E-05	8.00920035213E+01	8.23218323730E-05	7.37682480163E+01	1.34417099540E-01	-9.24321614266E+01
7.64849699399E+10	1.65859245928E-01	-5.88603687260E+01	2.85903466338E-05	-9.09147704415E+00	1.12357660298E-05	1.16959459394E+02	1.34536354167E-01	-9.31756055459E+01
7.64909819639E+10	1.63782515539E-01	-5.82730433193E+01	1.51646482742E-05	1.31398709815E+00	5.67487707688E-05	-1.91783048050E+01	1.34705679372E-01	-9.50941183992E+01
7.64969939880E+10	1.62703087612E-01	-5.81856058848E+01	4.68195932249E-05	6.89058048125E+01	9.08860309849E-05	-2.26774645156E+01	1.33013114826E-01	-9.51951879417E+01
7.65030060120E+10	1.62339671794E-01	-5.87230897479E+01	2.83426488210E-05	-2.92828500333E+01	5.48842095287E-05	-3.23871811665E+01	1.31387090956E-01	-9.40901392651E+01
7.65090180361E+10	1.63803285330E-01	-5.86355836725E+01	2.88086902415E-05	-5.79607613893E+01	2.05598395578E-05	-1.17126412361E+02	1.30437374502E-01	-9.41570252883E+01
7.65150300601E+10	1.62969642467E-01	-5.84297508617E+01	3.63196831382E-05	-1.41615269012E+02	8.20988827517E-05	-1.36864947658E+02	1.30602486317E-01	-9.54263582382E+01
7.65210420842E+10	1.62096320694E-01	-6.00020468337E+01	8.20091566814E-05	1.42863146816E+02	9.90371918439E-05	-1.73968012528E+02	1.30355653166E-01	-9.53534298331E+01
7.65270541082E+10	1.60999708357E-01	-5.92439807699E+01	5.96619932268E-05	-4.92671949112E+01	5.27088587170E-05	1.46330885650E+02	1.30176404032E-01	-9.61532685626E+01
7.65330661323E+10	1.63889575353E-01	-5.99352586356E+01	4.13120921646E-05	1.05212003890E+02	6.10084764969E-05	-1.24531095001E+02	1.29562296192E-01	-9.66565491755E+01
7.65390781563E+10	1.62151073432E-01	-5.84209497143E+01	3.08426067241E-05	-2.11881035336E+01	4.19541571427E-05	1.84612047114E+00	1.28004198854E-01	-9.71436332557E+01
7.65450901804E+10	1.64972327258E-01	-5.99549767502E+01	5.24683741854E-05	-2.41924621683E+01	2.14842826087E-05	-1.14429670318E+02	1.26291907341E-01	-9.64112062310E+01
7.65511022044E+10	1.62648960181E-01	-5.92380819062E+01	5.06078826461E-05	5.67852522285E+01	6.11754490654E-05	1.99772919408E+01	1.26240559200E-01	-9.74997305423E+01
7.65571142285E+10	1.62430717126E-01	-5.97736451118E+01	7.11130700277E-05	-1.24906848832E+02	4.56517197969E-05	-7.54900208895E+01	1.26283937652E-01	-9.75564416170E+01
7.65631262525E+10	1.64531892697E-01	-6.19289561545E+01	3.10816883811E-05	-8.12941886559E+01	7.31797220816E-05	-7.71648500400E+01	1.25995892115E-01	-9.81211687291E+01
7.65691382766E+10	1.63896411750E-01	-6.21280022162E+01	1.15606950430E-05	-1.54016042200E+02	1.01050350233E-04	1.75004643507E+02	1.23871625724E-01	-9.84313763763E+01
7.65751503006E+10	1.61500983307E-01	-5.97515958785E+01	9.15554509683E-05	1.72900250753E+02	1.04707868009E-04	1.76670467319E+02	1.24329910353E-01	-9.87597161156E+01
7.65811623246E+10	1.62804834122E-01	-6.20451219608E+01	9.91361874048E-05	1.48546695516E+02	4.36456290237E-05	1.19246118697E+02	1.23299159077E-01	-9.87783703762E+01
7.65871743487E+10	1.62318294607E-01	-6.20657194646E+01	1.01895902737E-04	7.98572007395E+01	4.37379426602E-05	-1.17244539082E+02	1.23398055558E-01	-1.00472870729E+02
7.65931863727E+10	1.61856866450E-01	-6.16016087847E+01	3.01332537177E-05	1.09865955389E+02	8.52573275210E-06	5.88058671772E+01	1.22314787636E-01	-1.00391098851E+02
7.65991983968E+10	1.63764217651E-01	-6.30694928244E+01	6.18410756612E-05	3.16981754997E+00	3.83106316516E-05	-1.70530065266E+02	1.20865421904E-01	-9.93466003573E+01
7.66052104208E+10	1.61967242535E-01	-6.26049515223E+01	7.75978688836E-05	-6.81930527242E+01	7.81457600459E-05	-1.23356301125E+02	1.19990708253E-01	-1.00471676296E+02
7.66112224449E+10	1.59657715558E-01	-6.22354586937E+01	2.65251886804E-05	1.06410539169E+02	6.41306342745E-05	-1.78456619144E+02	1.20523585733E-01	-1.01790125203E+02
7.66172344689E+10	1.60766956165E-01	-6.17231763289E+01	8.54176819444E-05	1.47071404936E+02	4.03293377321E-05	7.46753454169E+01	1.19650360237E-01	-1.01809673873E+02
7.66232464930E+10	1.60879213477E-01	-6.14039885426E+01	1.27063375041E-04	9.19757899425E+01	8.39117596189E-05	3.60141648367E+01	1.18252003246E-01	-1.00994000416E+02
7.66292585170E+10	1.60172149246E-01	-6.05490678285E+01	6.89744397935E-06	1.48376464386E+02	9.00416057018E-05	1.19219367654E+02	1.17310898750E-01	-1.01730175939E+02
7.66352705411E+10	1.62257643764E-01	-6.32461323340E+01	7.44699682746E-05	8.79738574555E+01	9.35839333594E-05	8.41941115637E+01	1.16510121859E-01	-1.01945882175E+02
7.66412825651E+10	1.61265764261E-01	-6.26224083919E+01	4.66042838703E-05	9.04021750027E+01	6.42394197195E-05	8.28666632225E+01	1.16083827429E-01	-1.02519670107E+02
7.66472945892E+10	1.60494194679E-01	-6.28199255194E+01	5.34758271560E-05	5.74365534499E+01	5.86484741299E-05	8.75401738799E+01	1.15880028151E-01	-1.02722769110E+02
7.66533066132E+10	1.60316303884E-01	-6.18384989316E+01	2.69166041132E-05	1.57794141037E+02	1.11679598387E-05	-4.28137725284E+01	1.15087038142E-01	-1.02334857487E+02
7.66593186373E+10	1.58913442821E-01	-6.31058445140E+01	6.99668077387E-05	-1.56801906869E+01	2.27242930043E-05	1.18684291865E+02	1.14410563515E-01	-1.04519269921E+02
7.66653306613E+10	1.62865710684E-01	-6.50580350974E+01	4.11677803789E-05	1.01085230770E+02	6.98999841721E-05	-1.52366913120E+02	1.14191816607E-01	-1.04818421006E+02
7.66713426854E+10	1.62687997409E-01	-6.50669041107E+01	1.30686661554E-05	3.42095254966E+01	2.26344600043E-05	1.32364345799E+02	1.12404703075E-01	-1.04017498817E+02
7.66773547094E+10	1.62135910781E-01	-6.44570952951E+01	7.74834526409E-05	1.43384399575E+02	9.65065201818E-05	1.53159795300E+02	1.11174159134E-01	-1.04384118127E+02
7.66833667335E+10	1.58535296182E-01	-6.22430370692E+01	6.15858572981E-05	6.57315977234E+01	1.33217316998E-04	1.00212078234E+02	1.11969356005E-01	-1.04164692410E+02
7.66893787575E+10	1.58952633696E-01	-6.45990806653E+01	1.17795012471E-04	8.26829263616E+01	7.71813935651E-05	7.49089528175E+01	1.10801851393E-01	-1.04465040069E+02
7.66953907816E+10	1.59499931681E-01	-6.39035875426E+01	2.73239998616E-05	1.13807172433E+02	5.49517347988E-05	1.14644031728E+01	1.10355795985E-01	-1.05175588721E+02
7.67014028056E+10	1.60226518022E-01	-6.37123986816E+01	3.72304679252E-05	6.60023117047E+00	3.08061559284E-05	6.21802375447E+01	1.09931677617E-01	-1.06645144138E+02
7.67074148297E+10	1.60074074713E-01	-6.45091617541E+01	2.92820868539E-05	3.20449379010E+01	2.61141691151E-05	1.23120722174E+02	1.08710630769E-01	-1.05030862011E+02
7.67134268537E+10	1.58610228757E-01	-6.45846599970E+01	4.05279647785E-05	-4.07852666632E+01	3.32409188694E-05	2.19225574027E+01	1.07665386387E-01	-1.06391520427E+02
7.67194388778E+10	1.61563409185E-01	-6.65622867115E+01	4.27784310710E-05	2.73520018276E+01	6.35816374021E-05	2.15849260079E+01	1.06649282895E-01	-1.05700231043E+02
7.67254509018E+10	1.61886698002E-01	-6.69186905187E+01	1.29543556392E-05	-8.45299219830E+00	8.18877138055E-05	-2.57075126663E+01	1.06466008332E-01	-1.05719612681E+02
7.67314629259E+10	1.59252150827E-01	-6.59669491973E+01	7.89215910387E-05	-5.20126359105E+01	1.80343896511E-04	-3.47345894978E+01	1.06435349333E-01	-1.07372767016E+02
7.67374749499E+10	1.59477857353E-01	-6.45406770344E+01	4.95862288589E-06	-1.14113311160E+01	1.01368857132E-04	-4.65079636283E+01	1.04239983170E-01	-1.07275623303E+02
7.67434869739E+10	1.60133108034E-01	-6.47490410653E+01	5.30550239606E-05	-2.58728399336E+01	6.28920045468E-05	-7.06299255041E+01	1.03370801764E-01	-1.06252191929E+02
7.67494989980E+10	1.60190427077E-01	-6.61566806370E+01	8.21446140370E-05	-1.56331451733E+00	3.29082788635E-05	-1.04269713112E+01	1.03731179975E-01	-1.08866759320E+02
7.67555110220E+10	1.58073307644E-01	-6.71234713248E+01	3.02315376611E-05	1.43442414705E+02	6.28677434659E-05	-1.78512351461E+02	1.03663340471E-01	-1.09249301992E+02
7.67615230461E+10	1.57167087382E-01	-6.55473651037E+01	3.24487047171E-05	1.71603634828E+02	2.07703135523E-05	-4.04453360644E+01	1.02391473857E-01	-1.09855045504E+02
7.67675350701E+10	1.57380894197E-01	-6.61220596185E+01	2.38830406331E-05	-1.17069641910E+02	1.07898989247E-05	-9.31190971738E+01	1.00669917534E-01	-1.09881687178E+02
7.67735470942E+10	1.57588468158E-01	-6.57720086524E+01	5.97143853442E-05	6.31077381500E+01	8.93773670187E-05	-5.16987040104E+01	9.99408027058E-02	-1.08450296266E+02
7.67795591182E+10	1.60110635544E-01	-6.74320227501E+01	3.59326193795E-05	1.72244719577E+02	8.72791152356E-05	-1.04863837133E+02	9.94654564099E-02	-1.08724884952E+02
7.67855711423E+10	1.60561258671E-01	-6.77638120227E+01	3.29745262181E-05	-1.76383619493E+02	5.19225010627E-05	-1.69480153248E+02	9.87190534445E-02	-1.09395687829E+02
7.67915831663E+10	1.58384769775E-01	-6.90663358066E+01	1.53901745031E-05	1.62268543016E+02	3.70567395810E-05	4.54402608278E+01	9.90965397009E-02	-1.11192519557E+02
7.67975951904E+10	1.56906873744E-01	-6.64645993785E+01	8.83019125526E-05	1.65696379667E+01	4.12455196325E-05	-1.09644591154E+02	9.80866404825E-02	-1.11650114840E+02
7.68036072144E+10	1.53941940927E-01	-6.68280633320E+01	9.30457456268E-05	2.90013521984E+01	3.59707812958E-05	-3.68972912262E+01	9.72714044908E-02	-1.10636983307E+02
7.68096192385E+10	1.58538660292E-01	-6.88894476348E+01	2.58396705618E-05	2.04170197611E+01	3.79707614760E-05	-1.42249445054E+02	9.63372178944E-02	-1.10716147364E+02
7.68156312625E+10	1.57623420376E-01	-6.79437048071E+01	4.85530381424E-05	-1.01985988811E+02	3.20217923261E-05	-5.14312658016E+01	9.50968654249E-02	-1.11221368899E+02
7.68216432866E+10	1.54968783700E-01	-6.65606831030E+01	1.74656018824E-05	-3.53888285900E+01	4.80175068309E-05	-1.68768082470E+02	9.39296522433E-02	-1.12527331199E+02
7.68276553106E+10	1.55377593828E-01	-6.77306563592E+01	5.80252294865E-05	-4.63595588337E+01	1.03202864757E-04	1.18515782798E+02	9.34363300386E-02	-1.11557728639E+02
7.68336673347E+10	1.58406114311E-01	-6.97346482043E+01	4.51907137784E-05	5.14674778162E+01	7.10740996108E-05	1.12358148653E+02	9.31163015843E-02	-1.11216209867E+02
7.68396793587E+10	1.58824109712E-01	-6.90141363311E+01	6.40088224878E-05	1.15457611601E+01	3.32044763832E-05	-3.54589868020E+00	9.19158874754E-02	-1.12280341406E+02
7.68456913828E+10	1.56328170654E-01	-6.75763433094E+01	1.56105694015E-04	-2.72686915839E+01	2.56677160340E-05	1.67881157669E+01	9.13310224321E-02	-1.12125452352E+02
7.68517034068E+10	1.56729944137E-01	-6.81666277528E+01	1.03413046775E-04	-9.10639829452E+01	1.09730618562E-04	-1.02532512917E+02	9.01670179752E-02	-1.13168147420E+02
7.68577154309E+10	1.55064245017E-01	-6.98453197964E+01	1.11477470172E-04	-1.03714857687E+02	9.38701928841E-05	-1.21310352809E+02	8.97952934298E-02	-1.12591984988E+02
7.68637274549E+10	1.59215988579E-01	-7.08616107676E+01	1.17628016116E-04	-1.53440733499E+02	6.94971061349E-05	1.75785496355E+02	8.96422541610E-02	-1.13083245547E+02
7.68697394790E+10	1.54922587111E-01	-6.85517562055E+01	8.09163229994E-05	-1.48546681028E+02	3.46099556949E-05	4.47304086903E+01	8.92310792909E-02	-1.13418662261E+02
7.68757515030E+10	1.55105806623E-01	-6.83304142744E+01	7.18874802852E-05	1.21553993997E+02	7.75697648375E-05	6.69550144104E+01	8.78454766575E-02	-1.14833182765E+02
7.68817635271E+10	1.58098771497E-01	-6.98374657069E+01	5.55044921640E-05	1.02907253280E+02	3.59325609896E-05	5.89761878108E+01	8.61329479816E-02	-1.14340637977E+02
7.68877755511E+10	1.55305225603E-01	-6.92774327350E+01	2.06442305713E-05	7.04729678833E+01	6.95753401766E-05	-2.02509561676E+01	8.55066205216E-02	-1.14173571293E+02
7.68937875752E+10	1.58211672388E-01	-7.10386223171E+01	8.01716244650E-05	-7.44199577341E+01	8.74352882841E-05	-2.06967689465E+01	8.48952062538E-02	-1.14339931249E+02
7.68997995992E+10	1.56019303741E-01	-7.10031498699E+01	6.67264475010E-05	-1.03271944667E+02	3.28577375138E-05	6.46015198777E+01	8.45836427956E-02	-1.16472987908E+02
7.69058116232E+10	1.57873838829E-01	-7.23139847760E+01	3.94968892744E-05	-1.12255194549E+02	4.96852552683E-05	-4.51189968686E+01	8.37049790796E-02	-1.17122761989E+02
7.69118236473E+10	1.56038690139E-01	-7.23318800596E+01	4.68896186794E-05	-1.67578011977E+02	1.30674088004E-05	6.53617661321E+01	8.25558142294E-02	-1.15143384828E+02
7.69178356713E+10	1.58381980336E-01	-7.28026455834E+01	6.04320643993E-05	-1.51346328491E+02	8.48314980394E-05	-6.78077982100E+01	8.18544346180E-02	-1.14951329861E+02
7.69238476954E+10	1.57097580217E-01	-7.25326065030E+01	5.94621587609E-05	1.79410803863E+02	7.25336555506E-05	-1.00513524714E+02	8.18810668269E-02	-1.15518639475E+02
7.69298597194E+10	1.59386156064E-01	-7.33201621959E+01	2.39181166555E-05	3.39398942633E+00	4.25756801060E-05	-1.58401435961E+02	8.13137672185E-02	-1.17785444558E+02
7.69358717435E+10	1.52489053479E-01	-7.06386206312E+01	5.61863636761E-05	1.67232840921E+02	4.94459103534E-05	-1.09177088211E+02	8.06477945301E-02	-1.18248084696E+02
7.69418837675E+10	1.53104157102E-01	-7.11658026753E+01	5.74240393498E-05	8.46430376095E+01	6.27251485290E-05	-2.46017660944E+01	7.91482133136E-02	-1.17249072739E+02
7.69478957916E+10	1.56195603940E-01	-7.21602708775E+01	7.65481653389E-05	7.41907995476E+01	2.67085304609E-05	-4.83626415045E+01	7.81209824803E-02	-1.16910594975E+02
7.69539078156E+10	1.54890893913E-01	-7.20909301154E+01	5.18523520410E-05	9.53010752860E+01	4.30658553350E-05	1.00535113846E+02	7.82165964597E-02	-1.16662595517E+02
7.69599198397E+10	1.54260969115E-01	-7.28373075864E+01	1.48948832127E-05	-1.79139202400E+02	1.07710448600E-04	-6.04411693044E+01	7.76678914964E-02	-1.17069373286E+02
7.69659318637E+10	1.56139962141E-01	-7.38822711442E+01	7.42112724849E-05	-5.72804645337E+01	5.63587576875E-05	-1.19718488187E+02	7.59500480718E-02	-1.18121079228E+02
7.69719438878E+10	1.53813757812E-01	-7.35984176298E+01	4.89588066593E-05	-1.19147843830E+02	6.81435022499E-05	-1.17949624003E+02	7.51388414828E-02	-1.17343246336E+02
7.69779559118E+10	1.53044506060E-01	-7.28825140105E+01	1.22702729358E-04	1.48524339257E+02	9.04091259744E-05	-9.97473076703E+01	7.42882587640E-02	-1.18858870165E+02
7.69839679359E+10	1.51981593683E-01	-7.25769488908E+01	2.96464460925E-05	7.94140796943E+01	3.11644488604E-05	-5.87414396655E+01	7.36182123596E-02	-1.18955906562E+02
7.69899799599E+10	1.52026890003E-01	-7.24983736755E+01	6.46460955848E-05	-1.48078767802E+01	5.33422137245E-05	-1.35425386452E+02	7.31535450423E-02	-1.18855208046E+02
7.69959919840E+10	1.51902683441E-01	-7.32171832036E+01	1.23919375120E-05	1.23466523851E+02	6.25121140215E-05	1.47625215443E+02	7.22190162162E-02	-1.18953493218E+02
7.70020040080E+10	1.53379453406E-01	-7.44518623121E+01	6.69006614604E-05	-5.13924176194E+01	3.84193829324E-05	-1.16904268051E+02	7.19424605915E-02	-1.19117878783E+02
7.70080160321E+10	1.54476408517E-01	-7.55514060139E+01	6.73171143876E-05	-1.62021228936E+02	1.12774348984E-04	1.79590236779E+02	7.10349239865E-02	-1.19759472593E+02
7.70140280561E+10	1.55344817711E-01	-7.49828518840E+01	4.98428899555E-05	-1.61621562139E+02	6.70140072934E-05	1.67718150963E+02	6.99013381515E-02	-1.19885987774E+02
7.70200400802E+10	1.54129462117E-01	-7.52203684424E+01	3.79537493042E-05	-1.64732292598E+02	1.02402006168E-04	1.27246117126E+02	6.93244680821E-02	-1.18246306668E+02
7.70260521042E+10	1.50681959070E-01	-7.41720981154E+01	9.75173182570E-05	1.07093485064E+02	1.07220084133E-04	1.09843954031E+02	6.83813592398E-02	-1.19172717558E+02
7.70320641283E+10	1.52598348995E-01	-7.59334595185E+01	4.16222870642E-05	7.86769612415E+01	1.38528404115E-04	7.30237116892E+01	6.80236370422E-02	-1.22230421204E+02
7.70380761523E+10	1.52702687545E-01	-7.48648448032E+01	2.07507372034E-05	5.30273834143E+01	5.19915370582E-05	2.88528309764E+01	6.82110830758E-02	-1.22085495290E+02
7.70440881764E+10	1.50701100166E-01	-7.53068630214E+01	3.45401550087E-05	-3.40448582887E+01	8.31523951589E-05	2.94486219598E+00	6.68941819650E-02	-1.20562530438E+02
7.70501002004E+10	1.51653634788E-01	-7.52182671302E+01	3.55846855752E-05	9.11995814235E+01	4.23900288015E-05	3.95769680022E+01	6.56588927827E-02	-1.19836417024E+02
7.70561122244E+10	1.53655978773E-01	-7.62273374990E+01	1.94232021799E-05	6.65152694426E+01	4.37617136943E-05	-6.97449844445E+01	6.48626331624E-02	-1.22266084364E+02
7.70621242485E+10	1.53665229053E-01	-7.70022008425E+01	9.14761267280E-05	-9.67427524335E+01	3.88834078944E-05	-1.03520540240E+02	6.39475281796E-02	-1.22466308602E+02
7.70681362725E+10	1.52271850147E-01	-7.78133450704E+01	5.95852753138E-05	-1.06049853321E+02	3.34587367064E-05	-1.78627412810E+02	6.35216038233E-02	-1.21240662773E+02
7.70741482966E+10	1.51420058016E-01	-7.65568626815E+01	6.29285686078E-05	1.59881809865E+02	2.57438234249E-05	9.98055382409E+01	6.33654173024E-02	-1.22730350034E+02
7.70801603206E+10	1.51172315322E-01	-7.62638315998E+01	8.04517859455E-05	1.29241617485E+02	6.57139894637E-05	1.15536976411E+02	6.22716764776E-02	-1.21743357914E+02
7.70861723447E+10	1.50087967450E-01	-7.73836181944E+01	4.65650217923E-05	9.57014850951E+01	1.33394981128E-04	4.68534503142E+01	6.15675318517E-02	-1.21583457845E+02
7.70921843687E+10	1.48581781750E-01	-7.57092613072E+01	6.30778428042E-05	2.28500641348E+01	1.98112355775E-04	1.04290344985E+01	6.05376022785E-02	-1.22383925593E+02
7.70981963928E+10	1.52518696892E-01	-7.71948931256E+01	8.51605761753E-05	-5.84860713424E+01	9.27969293974E-05	-8.54693591787E+00	6.02662407044E-02	-1.23992437976E+02
7.71042084168E+10	1.52953662768E-01	-7.80073168788E+01	3.21226426199E-05	1.74149697764E+01	1.45809026249E-05	-1.10620590809E+02	5.90679307643E-02	-1.20576428563E+02
7.71102204409E+10	1.53921554705E-01	-7.87455261536E+01	9.22496994561E-05	-2.12339122150E+01	6.30267831562E-05	-4.51102935239E+01	5.87610426944E-02	-1.22871934729E+02
7.71162324649E+10	1.51264954088E-01	-7.84119532253E+01	9.18923019416E-05	-1.46010268203E+02	8.53987683045E-05	-8.43810320236E+01	5.75806010782E-02	-1.23579850677E+02
7.71222444890E+10	1.48575422387E-01	-7.86512943130E+01	5.31356241874E-05	6.04850530292E+00	5.24099291186E-06	4.40671367848E-01	5.72347141117E-02	-1.23246440865E+02
7.71282565130E+10	1.49251599021E-01	-7.78286537786E+01	8.51925444405E-05	-1.49617044500E+02	3.50305472591E-06	7.68443038106E+01	5.60652538957E-02	-1.25249727603E+02
7.71342685371E+10	1.48086944354E-01	-7.61996041008E+01	6.67659195642E-06	-3.07326387602E-01	6.85256633821E-05	-1.74420305770E+02	5.53245844861E-02	-1.25945423482E+02
7.71402805611E+10	1.53954263013E-01	-8.00402845134E+01	1.76200898205E-05	-1.33598215192E+02	2.55544252320E-05	6.24595719142E+01	5.49267665021E-02	-1.25746975356E+02
7.71462925852E+10	1.48211704631E-01	-7.96240585457E+01	6.83843790786E-05	-7.78318720984E+01	8.48009236184E-05	1.76236908426E+02	5.39846880421E-02	-1.23962871412E+02
7.71523046092E+10	1.47904274775E-01	-7.79184795107E+01	5.04850619345E-05	1.03185392435E+02	1.01960416765E-04	-1.11275266223E+02	5.27599902426E-02	-1.24604656725E+02
7.71583166333E+10	1.50257569608E-01	-7.79032701032E+01	8.29172684701E-05	1.54281386900E+02	7.77701660310E-05	-1.51986401083E+02	5.27009430326E-02	-1.26186056877E+02
7.71643286573E+10	1.47938486833E-01	-7.70432030159E+01	1.00071203939E-05	-9.57457465568E+01	7.04324633918E-05	-1.26314795317E+02	5.22703427200E-02	-1.26836454184E+02
7.71703406814E+10	1.48533201654E-01	-8.03396546956E+01	3.85899142254E-05	1.45209378674E+01	3.12383360455E-05	-1.77556199046E+02	5.08368953452E-02	-1.25566642728E+02
7.71763527054E+10	1.47693544170E-01	-7.97292329137E+01	4.18021069744E-05	4.27633606899E+00	8.83061827660E-05	-1.47740742731E+02	5.07002987726E-02	-1.24202455745E+02
7.71823647295E+10	1.47530706117E-01	-7.89973691307E+01	5.02876438104E-05	-1.63085221816E+02	8.30009507299E-05	1.68290249254E+02	4.93573389370E-02	-1.24122870157E+02
7.71883767535E+10	1.47061211188E-01	-7.88513075381E+01	6.28273296582E-05	1.76539793779E+02	1.08529549430E-04	1.71015192316E+02	4.87250494925E-02	-1.25166459103E+02
7.71943887776E+10	1.46343279533E-01	-7.97228818220E+01	3.98078223999E-05	1.64345357858E+02	9.50437322831E-05	1.29873615121E+02	4.77723049540E-02	-1.24249992809E+02
7.72004008016E+10	1.46063482102E-01	-7.98773833708E+01	3.25401119198E-05	1.29028748290E+02	4.96173023932E-05	1.65753778336E+02	4.74905632242E-02	-1.27181632946E+02
7.72064128257E+10	1.46547869909E-01	-7.91471001763E+01	7.80336120610E-05	1.25362028889E+02	7.03939261019E-05	5.25165338128E+01	4.65640319801E-02	-1.26773779849E+02
7.72124248497E+10	1.45647229098E-01	-7.81064612792E+01	2.58050519271E-05	3.28941085867E+01	3.63867164286E-05	-1.52552643262E+02	4.53024723636E-02	-1.26025214682E+02
7.72184368737E+10	1.48825488869E-01	-8.27139473611E+01	1.16209110721E-05	-1.61974237011E+02	6.35320072072E-05	6.43376008916E+01	4.45738373478E-02	-1.26082361793E+02
7.72244488978E+10	1.48682112931E-01	-8.18033070358E+01	7.57887420193E-06	-1.46033524693E+02	3.84471903317E-05	4.43986853432E+01	4.45245094564E-02	-1.25399862140E+02
7.72304609218E+10	1.47695100585E-01	-8.13799269573E+01	2.89940305999E-05	-1.53082504551E+02	4.28893674464E-05	2.08343798916E+01	4.35496593008E-02	-1.25532606724E+02
7.72364729459E+10	1.47065173397E-01	-8.04036181855E+01	5.70746509413E-05	1.29066215978E+02	3.65558191372E-05	1.53430351655E+02	4.29719014435E-02	-1.27023935969E+02
7.72424849699E+10	1.47435354981E-01	-8.12174473103E+01	3.55466432878E-05	1.59295877272E+02	5.70046178039E-05	8.59656958996E+01	4.27698585878E-02	-1.28377354818E+02
7.72484969940E+10	1.46924562223E-01	-8.17143496049E+01	5.35711222256E-05	1.19489376966E+02	4.12896432487E-05	9.50911411732E+01	4.11512843760E-02	-1.25855473824E+02
7.72545090180E+10	1.46150954322E-01	-8.14243800165E+01	6.05205774704E-05	6.90137436983E+01	1.17812713056E-04	4.94940429522E+01	4.07222235287E-02	-1.27626693358E+02
7.72605210421E+10	1.45247908648E-01	-8.24340872736E+01	5.37611925234E-05	2.38171026805E+00	9.80942102116E-05	7.92521441666E+00	3.99205721101E-02	-1.28384695101E+02
7.72665330661E+10	1.48053135136E-01	-8.36525970269E+01	4.29728247661E-05	-7.79729707111E+01	5.10480413054E-05	-4.26958512785E+01	3.95322074036E-02	-1.27001136797E+02
7.72725450902E+10	1.45992990855E-01	-8.23406707703E+01	1.01165846754E-04	3.53761488638E+01	4.31902757896E-05	-1.58130478725E+01	3.86934335026E-02	-1.27054648994E+02
7.72785571142E+10	1.47335465127E-01	-8.27415374154E+01	3.70415105955E-05	-6.95147276010E+01	6.85615281516E-05	-1.76236620402E+01	3.78315036899E-02	-1.27658934086E+02
7.72845691383E+10	1.44874361912E-01	-8.25865847270E+01	4.58926294792E-05	-1.54806345475E+01	9.56081258864E-05	-3.12544390377E+01	3.65958339845E-02	-1.27526939611E+02
7.72905811623E+10	1.44713955280E-01	-8.36905939122E+01	1.13451602442E-05	1.27791920911E+02	4.07774129499E-05	-1.82973710151E+01	3.67466632954E-02	-1.30361553907E+02
7.72965931864E+10	1.44007202419E-01	-8.32250985932E+01	6.47928057180E-05	4.00100806514E+01	6.78815795692E-05	-3.42376780994E+01	3.56436054092E-02	-1.30537474573E+02
7.73026052104E+10	1.44319328102E-01	-8.31244690858E+01	6.51876710855E-05	1.40778900305E+01	4.95032563077E-05	-4.49601699851E+01	3.46828449927E-02	-1.28546855198E+02
7.73086172345E+10	1.43926022272E-01	-8.30537267250E+01	3.90490426618E-05	7.19811562697E+01	1.51561503565E-05	-8.90548248320E+01	3.30937872332E-02	-1.24798955076E+02
7.73146292585E+10	1.44479947450E-01	-8.30799300014E+01	8.05398099207E-05	4.33907461850E+00	5.38582392543E-05	-2.43832861504E+01	3.26698140791E-02	-1.26952883092E+02
7.73206412826E+10	1.45253414800E-01	-8.23972381979E+01	6.21019027025E-05	-5.36757796384E+00	2.62537360004E-05	-9.27710631516E+01	3.23231259393E-02	-1.29709721206E+02
7.73266533066E+10	1.43102410045E-01	-8.47922729358E+01	6.53688484873E-05	-9.12621956537E+00	7.11001104164E-05	-6.96013841508E+01	3.15295208862E-02	-1.29574930810E+02
7.73326653307E+10	1.44957806345E-01	-8.54721025191E+01	4.90506720995E-05	-3.25220298829E+01	6.30010581446E-05	-6.49329713540E+01	3.07341291111E-02	-1.29140985850E+02
7.73386773547E+10	1.44266070745E-01	-8.32125091802E+01	7.31888898811E-05	-6.42736184784E+01	4.86165351951E-05	-5.39820242576E+01	2.91027684263E-02	-1.24329457858E+02
7.73446893788E+10	1.42861353264E-01	-8.46931555061E+01	1.02015438503E-04	-8.91891405488E+01	8.62368212228E-05	-1.11546592358E+02	2.93403341008E-02	-1.29966359467E+02
7.73507014028E+10	1.44311262300E-01	-8.50658367259E+01	8.05448685724E-05	-7.44528913106E+01	1.26207202520E-04	-1.06954515816E+02	2.88415660242E-02	-1.29172083920E+02
7.73567134269E+10	1.41074574733E-01	-8.38675923784E+01	1.06513148858E-04	-8.91227471981E+01	9.31675287063E-05	-1.16086965676E+02	2.74532133289E-02	-1.26711266485E+02
7.73627254509E+10	1.41574309025E-01	-8.54940784149E+01	7.56414530873E-05	-1.08362307007E+02	5.78016968536E-05	-1.47382420195E+02	2.62490931819E-02	-1.26045862648E+02
7.73687374749E+10	1.44538562879E-01	-8.57186791102E+01	2.09169486309E-05	-7.82352251422E+01	8.73415558661E-05	-1.59440545886E+02	2.56103432969E-02	-1.25797189178E+02
7.73747494990E+10	1.42876032795E-01	-8.33004045375E+01	1.04142820012E-04	-1.18964981128E+02	9.54780422856E-05	-1.59455420843E+02	2.53170845627E-02	-1.28444187497E+02
7.73807615230E+10	1.40460256432E-01	-8.44079653681E+01	9.51108872728E-05	-1.54080555273E+02	6.58357931037E-05	1.38653981559E+02	2.39328176832E-02	-1.24723592806E+02
7.73867735471E+10	1.41793168699E-01	-8.44181284836E+01	6.31995512633E-05	-1.28962308426E+02	1.99199574234E-05	-1.67700139939E+02	2.32106434802E-02	-1.25843413453E+02
7.73927855711E+10	1.42869895847E-01	-8.66203614625E+01	9.91104520846E-05	-1.33119853193E+02	6.98452357142E-05	-1.50087660419E+02	2.24291958704E-02	-1.26860007526E+02
7.73987975952E+10	1.41439279771E-01	-8.60615084257E+01	6.12556931217E-05	1.51526071428E+02	7.00867881250E-05	-1.47324725956E+02	2.14722130247E-02	-1.24994398535E+02
7.74048096192E+10	1.41489320702E-01	-8.52313886356E+01	8.09215087957E-05	1.58891515928E+02	5.22335229527E-05	1.45393676551E+02	2.10211014417E-02	-1.24455377034E+02
7.74108216433E+10	1.41049169239E-01	-8.55774850477E+01	7.18216596938E-05	1.58489141923E+02	6.91729295839E-05	-1.56516223460E+02	1.99926123264E-02	-1.21259301084E+02
7.74168336673E+10	1.40244469335E-01	-8.55810199128E+01	7.60292903938E-05	1.56247896932E+02	4.98794890707E-05	1.73655642844E+02	1.93878542026E-02	-1.22746003455E+02
7.74228456914E+10	1.39915273606E-01	-8.56187120103E+01	9.81667196072E-05	1.53840128170E+02	1.09824495116E-05	1.21919675522E-01	1.92026808304E-02	-1.24905585245E+02
7.74288577154E+10	1.41203059624E-01	-8.80508974333E+01	3.71899795283E-05	1.59156721161E+02	9.34617586965E-05	-1.77590285908E+02	1.77369089774E-02	-1.20217780875E+02
7.74348697395E+10	1.39934609814E-01	-8.71774579716E+01	7.41903128831E-05	1.09122954762E+02	3.74431976515E-05	5.95879696253E+01	1.68934831672E-02	-1.18171973433E+02
7.74408817635E+10	1.39850085111E-01	-8.67717955318E+01	2.20512184798E-05	-2.43206491017E+01	3.68677293740E-05	8.15647598229E+01	1.61712051730E-02	-1.16444469765E+02
7.74468937876E+10	1.39273767390E-01	-8.63597064246E+01	6.10800573630E-05	-1.59632051970E+02	5.00107240309E-05	1.61244883927E+02	1.56476965085E-02	-1.16830730123E+02
7.74529058116E+10	1.39087408594E-01	-8.61341402391E+01	2.54656672909E-05	1.45546773812E+02	4.25363773712E-05	1.38205128364E+02	1.52584773974E-02	-1.16781530304E+02
7.74589178357E+10	1.38107871881E-01	-8.58326401694E+01	5.02099636928E-05	1.68812535432E+02	4.85622563185E-05	1.31546341946E+02	1.43483457043E-02	-1.13710080271E+02
7.74649298597E+10	1.38012208288E-01	-8.57556825006E+01	8.10631138588E-05	1.19615201684E+02	8.07499421930E-05	3.36969003594E+01	1.35367330277E-02	-1.09149940019E+02
7.74709418838E+10	1.41020123009E-01	-8.64913881590E+01	6.01738862238E-05	2.18931208543E+01	8.42201299523E-05	7.85915471235E+01	1.30739350451E-02	-1.11167434536E+02
7.74769539078E+10	1.43041024491E-01	-8.82419117066E+01	5.17261991264E-05	9.78879518598E+01	4.30133572825E-05	-1.01774686825E+02	1.25116988038E-02	-1.08003646606E+02
7.74829659319E+10	1.39456222610E-01	-8.75138493708E+01	3.28817437186E-05	5.08077334774E+01	3.28216277521E-05	1.65587843042E+01	1.18662772640E-02	-9.95606391560E+01
7.74889779559E+10	1.39635672094E-01	-8.79515022908E+01	1.17698946074E-04	4.32730855144E+01	7.89031462352E-05	1.26008306645E+02	1.14492569873E-02	-9.76616345688E+01
7.74949899800E+10	1.38288777948E-01	-8.84459240064E+01	7.59266323041E-05	8.53646462439E+01	2.16849700688E-05	-1.68861344348E+02	1.09369971111E-02	-9.88781959622E+01
7.75010020040E+10	1.36056122894E-01	-8.65920093827E+01	8.20480807061E-05	5.41828798401E+01	8.09724342946E-05	6.13360766347E+01	1.06667151566E-02	-9.49710104475E+01
7.75070140281E+10	1.40108003467E-01	-8.89604240270E+01	7.72117399472E-05	2.42160986204E+01	8.46958392573E-05	3.67574365681E+01	1.03987768046E-02	-9.31817053723E+01
7.75130260521E+10	1.39615241988E-01	-8.92561928541E+01	6.71955570055E-05	-4.57613135868E+01	8.73930878131E-05	-2.15874203225E+01	9.88395394494E-03	-8.33407472388E+01
7.75190380762E+10	1.37557242417E-01	-8.75938861179E+01	4.53769360534E-05	5.23186654953E+01	1.06343648163E-04	-3.71859348851E+01	9.84922428844E-03	-7.90870301116E+01
7.75250501002E+10	1.40408043530E-01	-8.95340196259E+01	5.76460346204E-05	-7.01268189489E+01	1.16584174113E-05	1.71070922725E+02	9.51971270604E-03	-7.45111149722E+01
7.75310621242E+10	1.36658081560E-01	-8.69775628537E+01	6.68283004370E-05	-1.16141633424E+02	3.81510298792E-05	-1.38243630171E+02	9.66493867765E-03	-6.97984748424E+01
7.75370741483E+10	1.37061277169E-01	-8.85676803902E+01	4.77939590630E-05	8.38472379188E+01	7.13791169203E-05	-3.19852871235E+01	9.66630370869E-03	-6.87175309365E+01
7.75430861723E+10	1.39331811644E-01	-8.91590184988E+01	5.11839182873E-05	1.64398036489E+01	4.50924033720E-05	9.93210332733E+01	9.74156798269E-03	-6.22511773260E+01
7.75490981964E+10	1.40390123332E-01	-8.99754586488E+01	5.99902933461E-05	1.55170771313E+01	3.28934455264E-05	-6.46444242843E+01	1.00874407763E-02	-5.25916862649E+01
7.75551102204E+10	1.39275791078E-01	-8.94362915976E+01	4.20977334317E-05	-3.03644429372E+01	1.02942766792E-04	-8.54332981083E+00	1.00423941782E-02	-5.34148869303E+01
7.75611222445E+10	1.38210515736E-01	-8.76764491179E+01	6.96208463841E-05	-1.05116133337E+02	2.91831776605E-05	-3.98729725712E+01	1.02529794327E-02	-5.20246530733E+01
7.75671342685E+10	1.39062897090E-01	-9.07507816858E+01	7.11362552867E-05	-9.51506927249E+01	2.53133777724E-05	-1.21870760851E+02	1.12725220961E-02	-3.94179171659E+01
7.75731462926E+10	1.36386624518E-01	-9.10926820941E+01	1.05539616405E-05	1.79388938454E+02	9.38609872266E-05	-1.73804231255E+02	1.16202026397E-02	-4.03841843818E+01
7.75791583166E+10	1.36231836881E-01	-8.99510075952E+01	8.81531721855E-05	7.69884440072E+01	3.93000509599E-05	6.25959032818E+01	1.19476033584E-02	-4.19636890231E+01
7.75851703407E+10	1.36592493559E-01	-9.02277146197E+01	7.80775875743E-05	-7.01535178550E+01	5.72509859152E-05	-1.06731425401E+02	1.25458191089E-02	-3.58816696185E+01
7.75911823647E+10	1.37252986085E-01	-9.05999127868E+01	8.79002343196E-05	-1.37245024870E+02	8.44495522087E-05	-1.03457955509E+02	1.30778933458E-02	-3.12030289951E+01
7.75971943888E+10	1.34691819257E-01	-8.89102250436E+01	7.73746989156E-05	1.14724395926E+02	1.05519466036E-04	-1.95507011831E+01	1.36365735570E-02	-2.83818758124E+01
7.76032064128E+10	1.35015048891E-01	-8.99901924094E+01	3.92703548072E-05	1.46386816826E+02	3.84127973724E-05	-7.24144427036E+01	1.41331637542E-02	-2.86552478009E+01
7.76092184369E+10	1.36140202324E-01	-9.03984987462E+01	1.45608362249E-05	2.80838262246E+00	2.46647883933E-05	-1.07463340910E+02	1.45803669711E-02	-2.94217603525E+01
7.76152304609E+10	1.38270975057E-01	-9.18336381595E+01	7.66549325812E-05	-1.33595516489E+02	3.67407116138E-05	-6.66013718174E+01	1.55319749933E-02	-2.63115340283E+01
7.76212424850E+10	1.35419175908E-01	-8.97512668280E+01	6.44885094120E-05	-1.28516241134E+02	1.87184868611E-05	2.23596419726E+00	1.62300024206E-02	-2.46077446716E+01
7.76272545090E+10	1.36173478712E-01	-9.16311501286E+01	7.02199180642E-05	1.02097306733E+02	7.77491319374E-05	-1.53582196803E+02	1.68363443262E-02	-2.01316273496E+01
7.76332665331E+10	1.37845320073E-01	-9.28834497858E+01	5.58220312097E-05	1.66221465200E+02	4.60928247170E-05	4.34329443103E+01	1.73854261383E-02	-2.03622811444E+01
7.76392785571E+10	1.36584098514E-01	-9.23456928112E+01	6.66029713295E-05	1.35417104667E+02	1.02654100161E-04	1.65256976133E+02	1.80670261158E-02	-1.98381452336E+01
7.76452905812E+10	1.36362653215E-01	-9.14551817853E+01	3.64808250805E-05	2.44297374428E+01	8.29940748482E-05	1.04460630773E+02	1.92044163571E-02	-1.84325571538E+01
7.76513026052E+10	1.35076001805E-01	-9.09120021538E+01	6.59494815647E-05	4.44339031519E+01	5.83602981387E-05	6.83906203430E+01	2.00367292425E-02	-1.51288324089E+01
7.76573146293E+10	1.37825072974E-01	-9.13949505104E+01	5.04932284863E-05	-5.02761777537E+01	9.92632687837E-06	1.78642741797E+02	2.05751807895E-02	-1.74909601439E+01
7.76633266533E+10	1.35417052119E-01	-9.04190854814E+01	5.92106228204E-05	-1.51201276916E+02	4.27717347506E-05	1.31842549383E+02	2.13221012704E-02	-1.76088771194E+01
7.76693386774E+10	1.35398000363E-01	-9.11485444078E+01	3.49036259925E-05	1.35193312834E+02	5.80329110696E-05	-1.70693833395E+02	2.19250850168E-02	-1.53008377599E+01
7.76753507014E+10	1.34746537105E-01	-9.34131545969E+01	3.67282206973E-05	-8.09928533871E+01	5.16108558508E-05	1.67018640025E+02	2.23628534434E-02	-1.64114309290E+01
7.76813627255E+10	1.34068656576E-01	-9.18424121772E+01	5.89288464252E-05	1.09066445960E+02	1.74487402444E-05	1.63453327648E+02	2.31920277737E-02	-1.58249295815E+01
7.76873747495E+10	1.37477207835E-01	-9.26371218584E+01	1.01892160120E-04	2.78729325543E+01	1.35959946117E-05	4.97175422384E+01	2.43752383965E-02	-1.40672324682E+01
7.76933867735E+10	1.33692239698E-01	-9.21278679605E+01	3.23110134964E-05	4.49978532154E+01	1.11419891700E-04	5.76311156777E+01	2.50047503190E-02	-1.18387772387E+01
7.76993987976E+10	1.35348952178E-01	-9.26063108039E+01	5.81758816526E-05	1.01642535151E+02	5.22172110042E-05	2.55403235812E+01	2.57365430748E-02	-1.52856325226E+01
7.77054108216E+10	1.33918856540E-01	-9.19997938578E+01	3.92255418072E-05	-1.62207655784E+01	4.80090191609E-05	-1.46741737136E+00	2.64294654937E-02	-1.48686491459E+01
7.77114228457E+10	1.36480665668E-01	-9.50020031076E+01	2.90140643171E-05	5.07517204387E+01	3.95852760437E-05	1.09999598316E+02	2.70978620258E-02	-1.38574112011E+01
7.77174348697E+10	1.33833240561E-01	-9.38136494444E+01	3.84028581746E-05	3.00944027677E+01	2.50587045695E-05	-1.40604685768E+02	2.78525471876E-02	-1.17186356286E+01
7.77234468938E+10	1.32677705739E-01	-9.42294873401E+01	2.58137983497E-05	1.03956355995E+02	8.01145672506E-05	-9.14092419897E+00	2.86559521167E-02	-1.30994271388E+01
7.77294589178E+10	1.35019627361E-01	-9.32097267216E+01	7.66323886326E-05	-2.33301218208E+01	2.29334328897E-05	5.62263857925E+01	2.93373707420E-02	-1.22141532719E+01
7.77354709419E+10	1.32529244293E-01	-9.31313762526E+01	3.18546288936E-05	-4.92374647811E+01	5.91825194189E-05	-2.18268805533E+01	3.01504556930E-02	-1.34182301043E+01
7.77414829659E+10	1.33471187780E-01	-9.46184016606E+01	1.97509524068E-05	6.88141922159E+01	5.02473118679E-05	1.37743962353E+02	3.07505762274E-02	-1.19522912203E+01
7.77474949900E+10	1.34396953558E-01	-9.55280473510E+01	4.78409483704E-05	1.53421262756E+02	8.71641079377E-05	3.09330053947E+01	3.19162504013E-02	-1.22988197170E+01
7.77535070140E+10	1.33568461558E-01	-9.48054859362E+01	1.05008511114E-05	1.04501888294E+02	2.26740414381E-05	1.56280446287E+02	3.24946111911E-02	-1.18504101159E+01
7.77595190381E+10	1.33091106602E-01	-9.41239406549E+01	4.58813780795E-05	8.45911126319E+01	2.83883386467E-05	2.63342532670E+00	3.31111777350E-02	-1.18681808631E+01
7.77655310621E+10	1.32208222929E-01	-9.55797714427E+01	3.27495463671E-05	1.06195809060E+02	5.86955663981E-05	5.90324727847E+01	3.37143941500E-02	-1.26483037747E+01
7.77715430862E+10	1.32579713171E-01	-9.48421948148E+01	2.76648744032E-05	-8.94483658944E+01	9.76333455228E-05	-3.32950085997E+01	3.44321096588E-02	-1.28801795362E+01
7.77775551102E+10	1.32787203260E-01	-9.41154981393E+01	8.00652498864E-05	-1.58545601379E+02	5.90352228796E-05	7.21364106708E+00	3.49094800422E-02	-1.07294067265E+01
7.77835671343E+10	1.34213014127E-01	-9.71800201545E+01	4.74797249815E-05	-9.36781393162E+01	3.84180398367E-05	3.83058526356E+01	3.63243037390E-02	-1.24722038856E+01
7.77895791583E+10	1.32107495611E-01	-9.51894980186E+01	7.07819833911E-05	1.18080359820E+02	5.10069507497E-06	-2.09919533778E+01	3.72261518997E-02	-1.24499889715E+01
7.77955911824E+10	1.32786503250E-01	-9.57083426649E+01	6.56839180278E-05	-1.63897323740E+02	3.54516287258E-05	-5.57467724083E+00	3.77286379651E-02	-1.29130072399E+01
7.78016032064E+10	1.31364640744E-01	-9.51540053534E+01	4.19846559817E-05	-9.88503858057E+01	5.23661099885E-05	1.67992657360E+02	3.85416758471E-02	-1.21027379582E+01
7.78076152305E+10	1.30949075202E-01	-9.50999933515E+01	5.58471590757E-05	1.15856535841E+02	4.36581899244E-05	-5.15236458656E+01	3.89366541911E-02	-1.05714806482E+01
7.78136272545E+10	1.32801348050E-01	-9.56507668828E+01	1.82554684092E-05	1.59588999548E+02	5.58096394911E-05	-3.19878391649E+01	4.09062376655E-02	-1.30882532739E+01
7.78196392786E+10	1.32676862941E-01	-9.53580434267E+01	2.41336263848E-05	1.01550179232E+02	3.86358650292E-05	-1.42936347559E+02	4.11375093048E-02	-1.30248874025E+01
7.78256513026E+10	1.32560379921E-01	-9.57525466708E+01	7.29033924705E-05	1.72217587878E+02	1.28461264955E-05	1.38287661179E+02	4.14506974186E-02	-1.25227828835E+01
7.78316633267E+10	1.30821138353E-01	-9.68110973057E+01	4.88903998217E-05	1.26001583243E+02	2.58799694928E-05	9.10981229780E+01	4.22143134985E-02	-1.25583524734E+01
7.78376753507E+10	1.31531110542E-01	-9.67517810395E+01	5.52803887277E-05	6.00923873048E+01	2.39103561826E-05	6.87641342468E+01	4.29280025803E-02	-1.24887508428E+01
7.78436873747E+10	1.31347756544E-01	-9.60938686732E+01	7.73722957716E-05	-1.00065155707E+01	3.56544314127E-05	-1.05092798751E+02	4.41311671547E-02	-1.31997134139E+01
7.78496993988E+10	1.31698742491E-01	-9.62293071761E+01	6.82001590837E-06	-7.06277752039E+00	6.54041331627E-05	-3.32508855466E+01	4.45165117907E-02	-1.27115889103E+01
7.78557114228E+10	1.29219863682E-01	-9.67319382829E+01	3.96546804369E-05	1.36055070681E+02	8.84031941472E-05	-1.20203991702E+02	4.54904700213E-02	-1.32346143303E+01
7.78617234469E+10	1.30935920502E-01	-9.81125285984E+01	2.52309754651E-05	1.29645233997E+02	3.90357902162E-05	-1.21929564382E+02	4.65748542129E-02	-1.38498466851E+01
7.78677354709E+10	1.31218965362E-01	-9.83248804993E+01	4.52919262932E-05	1.11482542575E+02	3.83082135751E-05	-1.45271256258E+02	4.68652446513E-02	-1.32569261738E+01
7.78737474950E+10	1.30410850031E-01	-9.71837542770E+01	2.11057721176E-05	-1.81036023540E+01	4.13456966678E-05	1.39147248789E+02	4.71939801423E-02	-1.23944424149E+01
7.78797595190E+10	1.29579750365E-01	-9.70094708521E+01	1.61152154891E-05	6.49548661790E+01	3.63866151558E-05	2.12808931898E+01	4.78829138725E-02	-1.27628281229E+01
7.78857715431E+10	1.27876039527E-01	-9.72344847276E+01	5.54647994221E-05	3.12000684132E+01	8.94614622958E-05	1.21644754452E+02	4.94677020454E-02	-1.41063843551E+01
7.78917835671E+10	1.31267770316E-01	-9.90717839698E+01	6.86509659468E-05	-8.39045605920E+01	6.60337082007E-05	3.84414300687E+01	5.04968731735E-02	-1.47444718387E+01
7.78977955912E+10	1.31171866045E-01	-9.94924706793E+01	2.54824084137E-05	-4.60949119098E+01	3.15101382867E-05	-3.10728869857E+01	5.07783549683E-02	-1.35576109228E+01
7.79038076152E+10	1.30793936912E-01	-9.99030723484E+01	8.10704477509E-05	-6.19238702164E+01	9.66901131141E-06	-5.68781614320E+01	5.07419690708E-02	-1.30562837399E+01
7.79098196393E+10	1.31016867344E-01	-9.90714616666E+01	7.32776699457E-05	-1.41626305936E+01	6.00104578127E-05	-3.18477967830E+01	5.16181584731E-02	-1.54229601723E+01
7.79158316633E+10	1.28057716145E-01	-9.62825579698E+01	3.81582434004E-05	-1.05858160319E+02	5.91510754622E-05	3.41141676427E+00	5.25899026874E-02	-1.47892101471E+01
7.79218436874E+10	1.30669881448E-01	-1.00165854160E+02	2.88451024861E-05	2.81553190292E+01	1.88842406489E-05	2.22270935757E+01	5.30156278667E-02	-1.34246761569E+01
7.79278557114E+10	1.28032180814E-01	-9.75561184688E+01	3.92467345944E-05	-1.53725552708E+02	8.43306267488E-05	-6.57411687944E+01	5.43982051582E-02	-1.37043358889E+01
7.79338677355E+10	1.32758193653E-01	-1.00968707006E+02	7.04849114086E-05	-1.07699068604E+02	3.01765038951E-05	5.49369141381E+01	5.47473230578E-02	-1.52952660154E+01
7.79398797595E+10	1.27540313686E-01	-9.73207449449E+01	6.73144250419E-05	-3.56681841603E+01	4.54893090826E-05	-1.05053218454E+01	5.55842162514E-02	-1.54271743756E+01
7.79458917836E+10	1.29607633304E-01	-9.96255091816E+01	7.35584828329E-05	-6.26556623564E+01	2.80231036446E-05	-5.73187344690E+01	5.67844759730E-02	-1.56738012450E+01
7.79519038076E+10	1.28184568717E-01	-1.00520961269E+02	8.29048703467E-05	-1.16377164599E+02	6.46916335401E-05	-9.19387976172E+01	5.75439158539E-02	-1.68413409777E+01
7.79579158317E+10	1.28706055527E-01	-9.93994859126E+01	6.19660401344E-05	-1.20728433031E+02	4.93775236685E-05	-1.35210609432E+02	5.77225813039E-02	-1.55412043488E+01
7.79639278557E+10	1.29069147151E-01	-9.94455972886E+01	7.18748927171E-05	-1.59126068108E+02	2.38367421079E-05	1.19958268951E+02	5.79040589845E-02	-1.52350415821E+01
7.79699398798E+10	1.25460230341E-01	-9.78935396816E+01	2.11402733036E-05	-1.60397451841E+02	2.87160881494E-05	1.45184294715E+02	5.91280330553E-02	-1.65834454872E+01
7.79759519038E+10	1.26853314995E-01	-9.94548959478E+01	3.53264270377E-05	1.71669977313E+02	1.45271607352E-05	-1.15048872213E+02	6.02147066571E-02	-1.74665473466E+01
7.79819639279E+10	1.30162957482E-01	-1.01168095609E+02	6.76327972160E-05	-1.69855241572E+02	3.19793674143E-05	8.35500308967E+01	6.15301208883E-02	-1.74458652254E+01
7.79879759519E+10	1.27989653400E-01	-1.00051600368E+02	1.07203963642E-04	-1.79261513477E+02	2.09568040990E-05	5.92049193919E+01	6.19271292834E-02	-1.75657735176E+01
7.79939879760E+10	1.29574504271E-01	-1.01260348296E+02	3.70851051338E-05	-1.61488975275E+02	2.34984210282E-05	-1.65939074203E+02	6.09551018960E-02	-1.63255209347E+01
7.80000000000E+10	1.29467187311E-01	-1.02569912961E+02	4.34696608514E-05	1.10123024839E+02	3.41711473607E-05	-1.25679204092E+02	6.22707157045E-02	-1.75489225490E+01
