# Hz S MA R 50
! CMT, C4420, 21421029, 25.1.2/3
! Date: 8/7/2025 5:32:10 PM
! Data: Format (Calibration Info)
! Freq	S33:Mag/Ang(F2)	S43:Mag/Ang(F2)	S34:Mag/Ang(F2)	S44:Mag/Ang(F2)
7.50000000000E+10	1.98464819206E-01	-1.35230040846E+01	5.18511535422E-05	5.64040792507E+01	1.32721657684E-04	1.45525536704E+02	2.15951482042E-01	-2.69077200937E+01
7.50060120240E+10	1.99547794134E-01	-1.43868418555E+01	8.66154631806E-05	5.45686045748E+01	8.05320203532E-05	5.76195694758E+01	2.13537476555E-01	-2.61066600850E+01
7.50120240481E+10	2.02050143634E-01	-1.54354456586E+01	8.30979250662E-05	2.15859837687E+01	6.13872251773E-05	2.04453350556E+01	2.16867427240E-01	-2.83708210650E+01
7.50180360721E+10	2.01028576282E-01	-1.60370193804E+01	4.30354024831E-05	3.28645215456E+01	8.92304767170E-05	-1.24724789233E+01	2.16076107900E-01	-2.86321803049E+01
7.50240480962E+10	1.98923546117E-01	-1.40628734775E+01	2.59575537815E-05	8.37394765368E+01	7.32334259197E-05	-5.05187950138E+01	2.16205309427E-01	-2.94799282600E+01
7.50300601202E+10	1.98186344006E-01	-1.35940506183E+01	2.58622455982E-05	-4.52913411101E+01	5.37285521031E-05	2.65367923652E+01	2.14791967654E-01	-2.85588515223E+01
7.50360721443E+10	1.99647488192E-01	-1.41582659435E+01	5.98468028677E-06	-1.40016188916E+02	2.95804242372E-05	-1.17199995837E+02	2.12516369702E-01	-2.77886266805E+01
7.50420841683E+10	2.00131158712E-01	-1.59714425456E+01	2.74695743098E-05	-1.25273402399E+02	8.88977883582E-05	-6.47422362630E+00	2.11862909659E-01	-2.76061298360E+01
7.50480961924E+10	1.99207517764E-01	-1.79148596247E+01	4.07262055715E-05	-1.60466027633E+02	4.03304355339E-05	-1.46980526456E+02	2.09351579543E-01	-2.85489870850E+01
7.50541082164E+10	1.96888253407E-01	-1.70336140874E+01	2.50033980840E-05	1.54568830921E+01	4.46826481653E-05	1.26397296549E+02	2.13619139454E-01	-2.98159085336E+01
7.50601202405E+10	2.00627783127E-01	-1.62428159265E+01	5.10550407514E-05	1.70707022248E+01	3.93567946439E-05	1.60151138815E+01	2.16124183182E-01	-3.05815026865E+01
7.50661322645E+10	2.00406017252E-01	-1.51373508166E+01	1.07144204360E-04	5.59532051166E+00	6.32177196527E-05	3.54278084594E+01	2.14570636116E-01	-3.10222790389E+01
7.50721442886E+10	1.97655799977E-01	-1.53743016655E+01	3.96406127697E-05	-9.17626546795E+01	3.62319162200E-05	-1.17797234355E+02	2.10409630643E-01	-2.89920521424E+01
7.50781563126E+10	1.98609473288E-01	-1.73674714368E+01	2.21860504396E-05	4.55393258238E+01	3.72013038745E-05	1.48843729806E+01	2.10407499140E-01	-2.91262918498E+01
7.50841683367E+10	1.96768388209E-01	-1.74054995177E+01	7.26327303526E-05	-8.69509068935E+01	6.20034812569E-05	-8.73478928477E+01	2.14341005051E-01	-3.04829135606E+01
7.50901803607E+10	1.96323547093E-01	-1.40343263007E+01	2.78167254495E-05	-1.60737907668E+02	1.07091597447E-04	-1.11917410606E+02	2.16820995609E-01	-3.16267072643E+01
7.50961923848E+10	2.00426006109E-01	-1.81839295984E+01	3.91354481902E-05	-1.68381461349E+02	6.03578956023E-05	-1.24652011855E+02	2.12738080121E-01	-3.17125011034E+01
7.51022044088E+10	1.97642912732E-01	-1.75649421955E+01	1.10537368252E-04	-7.04770308058E+01	1.21816210792E-04	-1.19553796294E+02	2.11862756992E-01	-3.09674401478E+01
7.51082164329E+10	1.95839754678E-01	-1.79501612043E+01	3.01907405332E-05	9.78408993457E+01	6.42680659009E-05	-1.08336361375E+02	2.11438694111E-01	-3.10740175972E+01
7.51142284569E+10	1.94923215599E-01	-1.73629908820E+01	6.59281512506E-05	1.79615640659E+02	6.31043107612E-05	-2.17414966123E+01	2.10775856166E-01	-3.14146201838E+01
7.51202404810E+10	1.97467748638E-01	-1.87350499393E+01	4.36752981457E-05	1.14087251281E+02	7.19577635925E-05	-1.73426744689E+02	2.13469433815E-01	-3.28127185992E+01
7.51262525050E+10	1.96033050285E-01	-1.92392572876E+01	5.42814448408E-05	1.12023028959E+02	4.07538912388E-05	-7.36632541960E+01	2.11194891724E-01	-3.33400894137E+01
7.51322645291E+10	1.94985028110E-01	-1.71624754737E+01	1.49791107479E-05	3.56937051594E+01	4.60268728319E-05	3.58354162816E+01	2.12644871233E-01	-3.27325885222E+01
7.51382765531E+10	1.94824774460E-01	-1.72232857250E+01	5.39155717544E-05	6.92410640643E+00	2.13393983290E-05	6.44934017355E+01	2.09679395547E-01	-3.25044858538E+01
7.51442885772E+10	1.95128299160E-01	-1.86147604951E+01	3.11737690192E-05	1.38706382270E+01	3.20805851682E-05	-6.29367653921E+01	2.11595558932E-01	-3.22128303593E+01
7.51503006012E+10	1.92419338698E-01	-1.62940641049E+01	4.55444513956E-05	-8.21218424068E+01	3.94387095486E-05	-3.98213386641E+00	2.10114863991E-01	-3.33357951553E+01
7.51563126253E+10	1.92918577452E-01	-1.93529791094E+01	5.29464937692E-05	-2.58853574853E+00	4.37478066687E-05	-4.69115959307E+01	2.10793977789E-01	-3.35934331051E+01
7.51623246493E+10	1.96982296794E-01	-1.97690239231E+01	2.87239678296E-05	-1.42406433339E+02	1.06719388972E-04	1.73719726686E+02	2.10595855088E-01	-3.34128746771E+01
7.51683366733E+10	1.93745209951E-01	-1.96614544665E+01	2.90549530371E-05	-8.15925613772E+01	6.90005673003E-05	-6.77128115142E+01	2.12570626193E-01	-3.40128123538E+01
7.51743486974E+10	1.97967046682E-01	-2.10002842446E+01	1.87672121362E-05	-3.31266808363E+01	5.42474512792E-05	-1.50269178545E+02	2.10718521894E-01	-3.41664754438E+01
7.51803607214E+10	1.95321841506E-01	-1.96132506965E+01	3.06141049358E-05	-7.92618822391E+01	8.00826479461E-06	-1.12258594586E+02	2.08592322626E-01	-3.43082178248E+01
7.51863727455E+10	1.95105550619E-01	-1.90022225896E+01	6.69789669292E-05	4.90845658218E+01	3.76085380113E-05	7.51122706840E+01	2.09681164322E-01	-3.43464764696E+01
7.51923847695E+10	1.93020700156E-01	-2.06539016596E+01	7.44684199577E-05	6.79230897728E+01	3.15608084879E-05	1.01139335728E+02	2.09927023067E-01	-3.38848659706E+01
7.51983967936E+10	1.93621265539E-01	-2.00064710647E+01	9.81748512422E-05	-7.29600328117E+00	1.37126910978E-04	2.23980359333E+01	2.10272288597E-01	-3.45950013382E+01
7.52044088176E+10	1.97946040354E-01	-2.18806634045E+01	2.79545693029E-05	1.51467483304E+01	5.54961871583E-05	1.29222348395E+01	2.10633407978E-01	-3.53418753279E+01
7.52104208417E+10	1.94662440639E-01	-2.14943270999E+01	8.62383173513E-05	-4.36483313554E+01	1.38983410417E-04	-7.22835439862E+00	2.07997369307E-01	-3.52753000691E+01
7.52164328657E+10	1.95607646768E-01	-2.15710571537E+01	7.05375153079E-05	-9.23185587794E+01	1.15612008994E-04	-3.78874215330E+01	2.09504456418E-01	-3.59796763330E+01
7.52224448898E+10	1.93970793861E-01	-2.13825543366E+01	7.43665438276E-05	-1.41424455402E+02	2.30316491548E-05	-1.45577409799E+02	2.07914309758E-01	-3.56284893536E+01
7.52284569138E+10	1.96434704481E-01	-2.07352525213E+01	8.51607188639E-05	-1.11016410671E+02	3.50127096486E-05	-1.10390445479E+01	2.07780171970E-01	-3.66635099689E+01
7.52344689379E+10	1.93021875411E-01	-2.10147153169E+01	6.39865604457E-05	-1.69377566169E+02	8.23201515821E-05	-1.46523458920E+02	2.11475854672E-01	-3.82792747942E+01
7.52404809619E+10	1.95689683319E-01	-2.09281962357E+01	4.05741989501E-05	1.25906008286E+02	2.96564660447E-05	-4.57238952686E+01	2.06904472852E-01	-3.57757813112E+01
7.52464929860E+10	1.93932326402E-01	-2.07702861712E+01	5.84841961052E-05	1.57442415973E+02	5.71956770529E-05	1.55867785540E+02	2.09082303542E-01	-3.72095333868E+01
7.52525050100E+10	1.91235510768E-01	-2.18417068036E+01	7.66757481394E-05	1.74764754497E+02	3.45192980843E-05	-8.04682958784E+01	2.06839769327E-01	-3.74978628407E+01
7.52585170341E+10	1.90925695264E-01	-2.05630057360E+01	5.34199704955E-05	1.62673762919E+02	5.74410760136E-05	-1.57124660671E+02	2.09335601807E-01	-3.83753861104E+01
7.52645290581E+10	1.93683261334E-01	-2.16019453679E+01	3.23492400075E-05	9.00274394555E+01	5.27418012008E-05	1.08597610404E+02	2.10575902797E-01	-3.87214490546E+01
7.52705410822E+10	1.92646402341E-01	-2.22233320977E+01	2.01470265234E-05	-7.91593438375E+01	4.24373603699E-05	1.07890058437E+02	2.08835029154E-01	-3.91812204963E+01
7.52765531062E+10	1.91691145485E-01	-2.25292246199E+01	1.94581345432E-05	1.64805791399E+02	3.50019030250E-05	-1.07944428195E+02	2.05513327886E-01	-3.86942419714E+01
7.52825651303E+10	1.89916101368E-01	-2.25634268199E+01	4.69261113096E-05	-1.32740146296E+02	4.16731377223E-05	-1.47641592803E+02	2.04928219771E-01	-3.85073534271E+01
7.52885771543E+10	1.92997483333E-01	-2.36661008218E+01	8.19069551353E-05	-1.69705947462E+02	7.83573432005E-05	-1.15892402381E+02	2.07206518194E-01	-3.94524499383E+01
7.52945891784E+10	1.94717893568E-01	-2.38212383747E+01	8.04912183578E-05	-1.39765979221E+02	3.57006307000E-05	1.39321678442E+02	2.07438905662E-01	-3.94853567451E+01
7.53006012024E+10	1.90727844093E-01	-2.13884649121E+01	1.16453647238E-04	-1.55567535744E+02	6.25082548748E-05	1.65748627752E+02	2.06620000541E-01	-3.98077768487E+01
7.53066132265E+10	1.89554962334E-01	-2.28564605339E+01	1.20038229551E-04	1.22424211761E+02	3.09223433405E-05	7.90302048705E+01	2.06051477962E-01	-4.02063674644E+01
7.53126252505E+10	1.90474137062E-01	-2.42579675622E+01	4.40517714212E-05	6.99282509891E+01	2.15890675872E-05	3.06839280492E+01	2.04697110078E-01	-4.10370603514E+01
7.53186372745E+10	1.94415297790E-01	-2.55333356749E+01	6.91412175222E-05	6.72242713507E+01	9.52414979553E-05	1.05134336229E+02	2.03706512851E-01	-4.02840215654E+01
7.53246492986E+10	1.93036072189E-01	-2.46981325292E+01	6.35975334131E-05	-1.77617427428E+02	6.79745569447E-05	-1.44888515375E+02	2.05806448608E-01	-4.02860637030E+01
7.53306613226E+10	1.89246081904E-01	-2.16412107697E+01	2.28880818633E-05	-1.14279504304E+00	1.13262621668E-04	-1.73693048666E+02	2.07841700919E-01	-4.14254409189E+01
7.53366733467E+10	1.89883113019E-01	-2.51784531091E+01	1.04969620210E-04	1.76767654080E+02	1.09853209330E-04	1.38595195427E+02	2.05361539159E-01	-4.28656629237E+01
7.53426853707E+10	1.90324663632E-01	-2.44050121540E+01	9.58821700352E-05	1.28179876212E+02	1.14453030513E-04	1.03620691559E+02	2.03232558966E-01	-4.13790286564E+01
7.53486973948E+10	1.93066555875E-01	-2.43870323881E+01	6.68660479835E-05	1.38241392752E+02	3.92679868135E-05	1.33364470414E+02	2.01956552542E-01	-4.09308685377E+01
7.53547094188E+10	1.89440422394E-01	-2.30322190800E+01	4.69461628310E-05	5.79311520931E+01	2.82682137192E-05	-1.78551318894E+02	2.03709332238E-01	-4.20244694949E+01
7.53607214429E+10	1.88228090388E-01	-2.28868245680E+01	2.46670912394E-05	6.32935058409E+01	7.57875305556E-05	1.27854864497E+02	2.04536930384E-01	-4.31670072273E+01
7.53667334669E+10	1.91285444800E-01	-2.56834463673E+01	6.21183577923E-05	1.37618691193E+02	6.44524365012E-05	1.10205263274E+02	2.00496361273E-01	-4.17631075248E+01
7.53727454910E+10	1.93313500743E-01	-2.65075584982E+01	2.85125390979E-05	7.09742652418E+01	1.25934124280E-04	7.16978285646E+01	2.00825541165E-01	-4.17233809524E+01
7.53787575150E+10	1.90435678683E-01	-2.64165752198E+01	7.96065216558E-05	8.55396185726E+01	6.12766085180E-05	1.20584919590E+02	2.01506872109E-01	-4.27100882657E+01
7.53847695391E+10	1.89600276326E-01	-2.51055756416E+01	4.01266073070E-05	8.36532525132E+01	4.44950276142E-05	1.09299027211E+02	2.03142749899E-01	-4.38076656853E+01
7.53907815631E+10	1.88565084925E-01	-2.44390845382E+01	1.02883496679E-04	3.31543236674E+01	1.52161648119E-04	6.64450760389E+01	2.02716329246E-01	-4.44814106403E+01
7.53967935872E+10	1.89233896684E-01	-2.52054304961E+01	5.46609029732E-05	-2.54779599602E+01	1.12328671942E-04	5.34408925707E+01	2.03304895637E-01	-4.40084601356E+01
7.54028056112E+10	1.89777614255E-01	-2.61749898520E+01	6.92680073497E-05	-9.93210075805E-02	8.46350036005E-05	1.02582914904E+01	2.01624189902E-01	-4.33113208267E+01
7.54088176353E+10	1.87065698713E-01	-2.53662285453E+01	9.90999925061E-05	2.08273816230E+01	9.05919234882E-05	5.10748590368E+01	1.99466144864E-01	-4.34307731873E+01
7.54148296593E+10	1.88571310323E-01	-2.56625529225E+01	5.60956438793E-05	3.34675663801E+01	1.19238210092E-04	2.17929744039E+01	1.98463046769E-01	-4.53149323915E+01
7.54208416834E+10	1.93647980766E-01	-2.73855886356E+01	4.42906808228E-05	-2.25349251098E+01	3.69609813843E-05	1.16194888783E+01	2.01409176159E-01	-4.50132262493E+01
7.54268537074E+10	1.91605565994E-01	-2.75388198705E+01	3.31996743620E-05	-8.97456695407E+01	5.27470328827E-05	9.65854341882E+00	2.01533387778E-01	-4.49879951708E+01
7.54328657315E+10	1.85989094063E-01	-2.51783576023E+01	4.85343414432E-05	1.31714069702E+02	7.97298599736E-05	4.69151013554E+01	1.99318214833E-01	-4.49260109831E+01
7.54388777555E+10	1.86119947079E-01	-2.59309425898E+01	6.18199312884E-05	3.08176407359E+01	3.73204824728E-05	7.34288528720E+01	1.97219630962E-01	-4.51503501667E+01
7.54448897796E+10	1.85747711722E-01	-2.69148273118E+01	2.69655617577E-05	9.66511916564E+01	1.07369459334E-04	5.41144250280E+01	2.00056403270E-01	-4.68298984999E+01
7.54509018036E+10	1.91922162782E-01	-2.86138744040E+01	6.94593674032E-05	1.07593227162E+02	1.72791130932E-05	1.89400845710E+01	1.99974808439E-01	-4.70972043185E+01
7.54569138277E+10	1.88347045667E-01	-2.70869373492E+01	4.86999756951E-05	2.88320172397E+01	9.43220218569E-05	6.72240107715E+01	1.99310206920E-01	-4.76265916761E+01
7.54629258517E+10	1.88071969838E-01	-2.63741579205E+01	6.64766198760E-05	2.77110235646E+01	1.35692765072E-04	4.11360794414E+01	1.98798201608E-01	-4.66704798047E+01
7.54689378758E+10	1.87467971913E-01	-2.85628202672E+01	2.65311336512E-05	3.02531356481E+01	8.45245040305E-05	-9.85709741513E+00	1.98850839122E-01	-4.66190078460E+01
7.54749498998E+10	1.88530992052E-01	-2.77896421996E+01	8.87048506477E-05	3.34758584235E+01	1.17083115719E-04	2.07032807809E+01	1.98514205713E-01	-4.73200276915E+01
7.54809619238E+10	1.90189792364E-01	-2.89837531521E+01	1.04636898912E-04	2.62573993077E+01	5.20574292485E-05	-1.47852810566E+01	1.98771508623E-01	-4.81014790462E+01
7.54869739479E+10	1.90927112682E-01	-2.92056214847E+01	1.65203503160E-05	-9.45109745998E+01	1.05769693822E-04	-4.30662030972E+01	1.97980800580E-01	-4.88618695346E+01
7.54929859719E+10	1.87849359423E-01	-2.84492566692E+01	3.72604142309E-05	5.77202688629E+00	9.68832704489E-05	-4.11825349169E+01	1.99001901308E-01	-4.87309123398E+01
7.54989979960E+10	1.84685064872E-01	-2.80172514171E+01	8.75753184137E-05	-3.20180264184E+01	9.08775416571E-05	-5.19100715909E+01	1.97463618240E-01	-4.79779401637E+01
7.55050100200E+10	1.88427693119E-01	-2.96560923330E+01	4.46408618756E-05	-5.21646464904E+01	8.77794791761E-05	-2.00613270367E+01	1.98339863880E-01	-4.87153802362E+01
7.55110220441E+10	1.88139551366E-01	-2.80893808820E+01	6.98239156515E-05	-6.56139051101E+01	9.00449277010E-05	-7.17255667368E+01	1.98019851268E-01	-5.02556602056E+01
7.55170340681E+10	1.87523328687E-01	-2.96902495215E+01	6.69439427874E-06	-1.91751969970E+01	4.36593280517E-05	-2.63152880246E+01	1.98571008294E-01	-5.05369653165E+01
7.55230460922E+10	1.87840843311E-01	-3.03098927019E+01	2.98118187846E-05	9.85589729931E+01	6.83930618864E-05	-9.77584807973E+00	1.95622783601E-01	-4.86723099429E+01
7.55290581162E+10	1.86490804871E-01	-3.01837062022E+01	9.96751804933E-05	-7.59498248963E+01	5.39948284296E-05	-1.02474553762E+02	1.95010942217E-01	-4.88521969670E+01
7.55350701403E+10	1.88017997823E-01	-3.01766468132E+01	2.51674174082E-05	2.56512547400E+01	4.07808882118E-05	6.87501037816E+00	1.93719723708E-01	-4.98357831982E+01
7.55410821643E+10	1.86405830521E-01	-2.96778309743E+01	5.03879427786E-05	-6.26929557508E+01	4.03949109149E-05	-1.57354938444E+02	1.97186038976E-01	-5.15339794131E+01
7.55470941884E+10	1.88596842853E-01	-3.07627764356E+01	7.34328979200E-05	-4.16597271824E+01	4.59601211389E-05	-3.00656687321E+01	1.96233543096E-01	-5.14469118292E+01
7.55531062124E+10	1.88197920033E-01	-3.12479809832E+01	7.20319378619E-05	1.27028489120E+01	6.10500340282E-05	-2.93908786449E+01	1.95211579185E-01	-5.04057576985E+01
7.55591182365E+10	1.85887102197E-01	-3.20677532721E+01	5.69267516720E-05	-1.07296078932E+02	1.28364784692E-04	-5.54500267932E+01	1.92837619852E-01	-5.09349874135E+01
7.55651302605E+10	1.86382900766E-01	-3.15866480175E+01	1.00386594184E-04	-4.45399791511E+01	1.23241145911E-04	-9.55704108493E+01	1.93881247810E-01	-5.16396233579E+01
7.55711422846E+10	1.88333469023E-01	-3.11386485233E+01	1.50512603265E-04	-8.70635067659E+01	1.49736290079E-04	-1.21019273947E+02	1.94823494319E-01	-5.07343878772E+01
7.55771543086E+10	1.84559077746E-01	-3.01437417834E+01	3.01591246020E-05	-4.24736307243E+01	1.35915808499E-04	-1.33708570358E+02	1.94305957950E-01	-5.21217403219E+01
7.55831663327E+10	1.82511378821E-01	-3.12089117610E+01	3.96507828345E-05	-3.85754973491E+01	6.06550773940E-05	-9.97133694396E+01	1.92122734264E-01	-5.23901641947E+01
7.55891783567E+10	1.85183768107E-01	-3.13400816585E+01	1.05474532298E-05	-1.39656612420E+02	9.09364708752E-05	-9.95018204594E+01	1.93293834851E-01	-5.32312383985E+01
7.55951903808E+10	1.87813023602E-01	-3.37306473471E+01	5.21208551676E-05	1.52151170142E+02	1.80760807614E-05	1.41305679093E+02	1.95017818942E-01	-5.33560245453E+01
7.56012024048E+10	1.91923673496E-01	-3.45934785419E+01	4.87877353736E-05	-1.05034301398E+02	6.85755058015E-05	-1.26682207964E+02	1.92204807599E-01	-5.24295150472E+01
7.56072144289E+10	1.85012367902E-01	-3.17455227947E+01	5.79762985671E-05	-1.60394841063E+02	1.26473244395E-04	-1.09167966347E+02	1.90212342704E-01	-5.29259752970E+01
7.56132264529E+10	1.83365214851E-01	-3.12118809513E+01	8.44530106058E-05	-1.27849570768E+02	3.20312337402E-05	1.11516624136E+02	1.92723787336E-01	-5.41164535720E+01
7.56192384770E+10	1.82713279829E-01	-3.26257695401E+01	8.08730084546E-05	-1.71601499608E+02	1.27775155702E-05	-7.75895683550E+01	1.90802193706E-01	-5.24656740647E+01
7.56252505010E+10	1.84398057862E-01	-3.29599830347E+01	3.16013687380E-05	-1.73319013268E+02	6.56549565984E-05	-1.42358187280E+02	1.92586183634E-01	-5.42033970762E+01
7.56312625251E+10	1.88062151817E-01	-3.44357624149E+01	8.61227371363E-06	1.30109139710E+02	2.61703351886E-05	-1.31091956624E+02	1.90859940664E-01	-5.52186763023E+01
7.56372745491E+10	1.85308408387E-01	-3.35223223541E+01	3.69301288213E-05	-1.33565412441E+02	9.48384176124E-05	-1.24631699174E+02	1.89795033173E-01	-5.37665784810E+01
7.56432865731E+10	1.83471745465E-01	-3.43306911248E+01	6.81220353924E-05	-1.41591299629E+02	7.84338130022E-05	-1.50737223801E+02	1.91731574478E-01	-5.45733917623E+01
7.56492985972E+10	1.84180460552E-01	-3.43637545473E+01	8.76918841581E-05	-1.43464337243E+02	9.17121538305E-05	1.74283983752E+02	1.90500045266E-01	-5.54358132032E+01
7.56553106212E+10	1.85948617844E-01	-3.45369666832E+01	1.50588746866E-05	9.59401992115E+01	7.11639169619E-05	-1.77911046868E+02	1.89907844121E-01	-5.59827826304E+01
7.56613226453E+10	1.84820828613E-01	-3.32123370097E+01	7.22775740304E-05	1.40166381374E+02	3.79034225163E-05	1.36819466228E+02	1.89464078262E-01	-5.61678549516E+01
7.56673346693E+10	1.82452554567E-01	-3.26671349973E+01	2.15512252898E-05	-1.58991265121E+02	3.81916181318E-05	1.09386380464E+02	1.90070801109E-01	-5.58127324114E+01
7.56733466934E+10	1.83503590205E-01	-3.48219389936E+01	6.86268706105E-05	1.56722420019E+02	4.02592388089E-05	1.10930635763E+02	1.88965967493E-01	-5.61498975496E+01
7.56793587174E+10	1.83661904769E-01	-3.54191148875E+01	9.49739208428E-05	1.42119895710E+02	3.31100718189E-05	1.19555983263E+02	1.86479233312E-01	-5.60611850230E+01
7.56853707415E+10	1.83150762269E-01	-3.52959633665E+01	4.76154052827E-05	1.56334890637E+02	4.82158639102E-05	-1.31341644958E+02	1.90382982531E-01	-5.78480295013E+01
7.56913827655E+10	1.84266697327E-01	-3.57299124981E+01	8.77991261484E-05	-1.66074515310E+02	3.07352444815E-05	-8.08048059118E+01	1.87889868095E-01	-5.74699520472E+01
7.56973947896E+10	1.83798646529E-01	-3.54374873626E+01	1.05727456602E-04	-1.55075432431E+02	7.25583201766E-05	1.39954591686E+02	1.85461770064E-01	-5.57115282934E+01
7.57034068136E+10	1.84258586753E-01	-3.42362713805E+01	5.45604302987E-05	1.63714719263E+02	5.88735375455E-05	-1.79147516281E+02	1.85662011380E-01	-5.80287668535E+01
7.57094188377E+10	1.82911973447E-01	-3.63976802043E+01	1.23481934344E-05	5.83148157094E+01	4.31911031611E-05	-1.22785721350E+02	1.86339873955E-01	-5.86056196227E+01
7.57154308617E+10	1.84036536194E-01	-3.69213138009E+01	2.81846303028E-05	1.69973041413E+02	2.49682195569E-05	-7.40894101725E+01	1.87014128136E-01	-5.84015451982E+01
7.57214428858E+10	1.85270945953E-01	-3.64311237000E+01	5.00683342532E-05	1.17853452482E+02	4.80992265432E-05	1.45277139603E+02	1.87655698735E-01	-5.71217503770E+01
7.57274549098E+10	1.85890259053E-01	-3.68624875239E+01	5.58157825618E-05	-1.25671904640E+02	6.02273910681E-05	1.64017947087E+02	1.85197652428E-01	-5.81838103363E+01
7.57334669339E+10	1.81080041494E-01	-3.57962770760E+01	2.59605070899E-05	2.11119384127E+01	1.26117972350E-04	9.47575118723E+01	1.87226052950E-01	-5.91257546267E+01
7.57394789579E+10	1.79667985738E-01	-3.57016815945E+01	4.06148776134E-05	9.44234226620E+01	7.33313272168E-05	5.86238866764E+01	1.85627531868E-01	-5.93186028995E+01
7.57454909820E+10	1.82747599856E-01	-3.68259548494E+01	2.51349617106E-05	1.35282765690E+02	3.51913975475E-05	3.23000034593E+01	1.83462209285E-01	-5.94116175034E+01
7.57515030060E+10	1.86180219177E-01	-3.79053136500E+01	4.76016727389E-05	7.33195589353E+01	3.47936157661E-05	9.14664827168E+01	1.87531146284E-01	-6.04465884435E+01
7.57575150301E+10	1.82758033012E-01	-3.69120151712E+01	5.96638035712E-05	1.12984775328E+02	6.91008534943E-05	1.13637648861E+02	1.83962255142E-01	-5.97082999930E+01
7.57635270541E+10	1.80277951207E-01	-3.66755746276E+01	6.51474638629E-05	7.78621853721E+01	5.02116845018E-05	1.03509516830E+02	1.81616258856E-01	-6.00124883864E+01
7.57695390782E+10	1.81563283537E-01	-3.73377163643E+01	5.44899024974E-05	6.12872440948E+01	9.48109610428E-05	7.37641657552E+01	1.86436876110E-01	-6.10272624050E+01
7.57755511022E+10	1.82479244022E-01	-3.79301089768E+01	7.98822958955E-05	5.51020196410E+01	2.74308034493E-05	6.91613603748E+00	1.83997307891E-01	-6.09465892477E+01
7.57815631263E+10	1.82377136698E-01	-3.84412196806E+01	3.59654874089E-05	6.05305333444E+01	4.03207556630E-05	-1.13643381113E+01	1.82607751830E-01	-6.17252826036E+01
7.57875751503E+10	1.80093743381E-01	-3.74084313726E+01	4.45494602078E-05	1.43372606187E+01	8.37221555764E-05	-1.63079926793E+01	1.81717220986E-01	-6.32173611115E+01
7.57935871743E+10	1.83904091328E-01	-3.82842104245E+01	4.41924600887E-05	8.55496729811E+01	8.66354132281E-05	1.43512061909E+01	1.81919879238E-01	-6.12831225255E+01
7.57995991984E+10	1.78879388964E-01	-3.86527050342E+01	1.67328728224E-05	-1.59408622497E+02	2.79301707904E-05	2.45611663819E+01	1.81562108180E-01	-6.08777003736E+01
7.58056112224E+10	1.81549494229E-01	-3.82518617278E+01	5.83747813537E-06	9.38943166284E+01	2.48884378849E-05	2.98488606718E+01	1.81891926026E-01	-6.24729201053E+01
7.58116232465E+10	1.83477490997E-01	-3.87145484280E+01	4.14375332209E-05	1.06151655207E+02	3.10855960299E-05	1.96997041894E+01	1.80570690925E-01	-6.31621727346E+01
7.58176352705E+10	1.79705158773E-01	-3.81491960190E+01	4.07715392005E-05	-6.57092755248E+01	3.07396473338E-05	-4.20110670060E+01	1.79078419216E-01	-6.22928788020E+01
7.58236472946E+10	1.82689609293E-01	-4.10580884682E+01	4.97246576846E-05	-5.93230433278E+01	1.09307882861E-04	4.87916646833E+01	1.79837691190E-01	-6.21155134267E+01
7.58296593186E+10	1.79217933498E-01	-3.88593148657E+01	3.04204708548E-05	-1.78630876525E+01	9.55421012489E-05	-3.42983912460E+01	1.81055803781E-01	-6.32017409587E+01
7.58356713427E+10	1.81515499834E-01	-4.03979585342E+01	3.52326373905E-05	-7.15416692446E+00	1.67987537680E-05	5.72651964632E+01	1.79405506379E-01	-6.39166511902E+01
7.58416833667E+10	1.80563607163E-01	-4.01750331030E+01	8.91282119111E-05	6.85457871711E+01	2.37129431337E-05	3.35457091670E+01	1.77728218539E-01	-6.40779040343E+01
7.58476953908E+10	1.78777310254E-01	-4.02771956808E+01	6.36070190535E-05	5.03188767386E+00	1.05549751416E-04	-3.06986670582E+01	1.76333868179E-01	-6.36706773197E+01
7.58537074148E+10	1.80778559062E-01	-3.94812628233E+01	5.14777433898E-05	-3.45439651244E+01	8.62765244836E-05	-4.42653813832E+01	1.78956024798E-01	-6.35889011420E+01
7.58597194389E+10	1.81077815702E-01	-3.95539971651E+01	8.20721632013E-05	-4.52379710617E+01	6.68471538340E-05	-8.44793461029E+01	1.77889872958E-01	-6.58998658008E+01
7.58657314629E+10	1.79824258963E-01	-3.98814694987E+01	9.75033196861E-05	5.39523454394E+01	1.51112346311E-04	-4.96517909458E+01	1.78724276239E-01	-6.51204382953E+01
7.58717434870E+10	1.76884558231E-01	-4.01737531085E+01	7.04110416880E-05	-1.22420047751E+02	9.22575480849E-06	-7.23386334393E+01	1.77335268392E-01	-6.40663355233E+01
7.58777555110E+10	1.79161570032E-01	-4.08275913853E+01	7.71692971078E-05	-9.04484376959E+01	2.21833265202E-05	-1.16634337604E+02	1.78704216005E-01	-6.52158274827E+01
7.58837675351E+10	1.77460753781E-01	-4.16896439215E+01	6.18357367484E-05	1.01890520251E+02	3.43492193427E-05	-1.13358772505E+02	1.76482445009E-01	-6.60326222461E+01
7.58897795591E+10	1.78727427057E-01	-4.14441209172E+01	9.98492460061E-05	-1.54869729563E+02	3.69285256675E-05	1.67057476698E+02	1.76053354830E-01	-6.62513153295E+01
7.58957915832E+10	1.79139558948E-01	-4.26926247813E+01	1.94966511745E-05	-7.24692359879E+01	4.48341811655E-05	-1.16870030621E+02	1.73685253484E-01	-6.51887806421E+01
7.59018036072E+10	1.79181925768E-01	-4.19924303417E+01	5.37243980952E-05	1.28607175013E+02	6.56808446022E-05	-1.78499675539E+02	1.75328067549E-01	-6.64054898197E+01
7.59078156313E+10	1.77371927101E-01	-4.09680469075E+01	9.66510538282E-05	1.21901482888E+02	1.22300281080E-04	1.33181943249E+02	1.75681361979E-01	-6.68105162235E+01
7.59138276553E+10	1.77163771101E-01	-4.26229855013E+01	7.36223449143E-05	2.44451083126E+01	5.23798392316E-05	4.10553748954E+01	1.75710717273E-01	-6.83346879256E+01
7.59198396794E+10	1.80024684126E-01	-4.25456392342E+01	1.28670616948E-04	4.75029788426E+00	1.58160052304E-05	-1.56420373969E+01	1.74687264251E-01	-6.73104106256E+01
7.59258517034E+10	1.78325327560E-01	-4.22023848420E+01	7.31754068322E-05	-6.39675010433E+01	9.43033259507E-05	1.05282417250E+01	1.75352585272E-01	-6.76153916674E+01
7.59318637275E+10	1.77097651635E-01	-4.29121775918E+01	4.51710457789E-05	-8.24870625623E+00	6.67153421380E-05	-6.19701722010E+01	1.74528527045E-01	-6.65544493342E+01
7.59378757515E+10	1.75340147266E-01	-4.33660079098E+01	9.42095398075E-05	-9.48086304007E+01	3.30919185662E-05	-1.20763837216E+02	1.74015687841E-01	-6.83564586494E+01
7.59438877756E+10	1.78631415511E-01	-4.29977786705E+01	2.44957540175E-05	-1.14948959081E+02	6.73032137708E-05	-7.71221901790E+01	1.75040616136E-01	-6.90091652896E+01
7.59498997996E+10	1.78292231438E-01	-4.21238782147E+01	2.55302461742E-05	1.37394993671E+02	1.99879789861E-05	1.20241841352E+02	1.74684150961E-01	-7.01659049221E+01
7.59559118236E+10	1.78366258183E-01	-4.29619182814E+01	8.65912069016E-05	1.00662449582E+02	6.85666454814E-05	1.10291374945E+02	1.73570845323E-01	-6.95521239192E+01
7.59619238477E+10	1.77267746417E-01	-4.46153356368E+01	6.09185612608E-05	-1.79989729321E+02	9.66965152145E-05	1.03936027913E+02	1.70187482254E-01	-6.75089369870E+01
7.59679358717E+10	1.77305722887E-01	-4.38235497902E+01	4.09978190411E-05	1.01395612052E+02	9.10302806427E-05	4.52964986590E+01	1.70922376366E-01	-6.96697173846E+01
7.59739478958E+10	1.79450222472E-01	-4.46580404383E+01	1.81846297791E-05	-1.90371138553E+01	1.08680141241E-04	3.53956619815E+01	1.72021357980E-01	-7.01572666702E+01
7.59799599198E+10	1.79877457877E-01	-4.57220667731E+01	8.59431292340E-05	3.71157751269E+01	4.38992704597E-05	7.48172944113E+01	1.73072089885E-01	-7.00503728436E+01
7.59859719439E+10	1.74279329729E-01	-4.48207006967E+01	1.31393987011E-04	2.62153122415E+01	8.44437064661E-05	-6.67762149520E+01	1.70434477623E-01	-7.02344274321E+01
7.59919839679E+10	1.76845558571E-01	-4.43521788804E+01	4.98939577269E-05	5.22795151765E+01	5.79292684120E-05	-4.74449062232E+01	1.71242682028E-01	-7.03480532450E+01
7.59979959920E+10	1.78485348565E-01	-4.56067627316E+01	8.34986367419E-05	-1.12945247748E+02	3.49310004524E-05	7.66227908683E+00	1.68983999559E-01	-7.03669597393E+01
7.60040080160E+10	1.76064232632E-01	-4.53995639944E+01	4.51064890259E-05	9.41114910490E+01	6.33969708023E-05	1.81747474337E+01	1.72231420598E-01	-7.21445078369E+01
7.60100200401E+10	1.76870412335E-01	-4.69549926551E+01	1.89315467542E-05	-1.11076796773E+02	2.95740582908E-05	7.07384553513E+01	1.68584779504E-01	-7.09660604160E+01
7.60160320641E+10	1.75240787495E-01	-4.62162596799E+01	3.89707760680E-05	-3.31057493779E+01	6.86671989640E-05	-4.49495211046E+01	1.70662438476E-01	-7.13876670002E+01
7.60220440882E+10	1.75007257386E-01	-4.63517873912E+01	4.22256884780E-05	-3.96241155191E+01	5.86888729199E-05	-9.64613594142E+01	1.68602791221E-01	-7.04191644101E+01
7.60280561122E+10	1.75935881266E-01	-4.65947831876E+01	4.03109411867E-05	1.63949261551E+02	5.00469266326E-05	-1.76343347983E+02	1.67837149428E-01	-7.25612510914E+01
7.60340681363E+10	1.74550302999E-01	-4.47745465029E+01	6.04031456692E-05	8.65262710862E+01	4.51710576475E-06	-9.79894970985E+01	1.68205497442E-01	-7.33019925764E+01
7.60400801603E+10	1.73793270875E-01	-4.44680393358E+01	4.04854434680E-05	-1.94366649125E+01	3.82735293025E-05	7.49926629006E+01	1.67521886771E-01	-7.23074138436E+01
7.60460921844E+10	1.73367726578E-01	-4.45157302407E+01	9.29324018881E-05	-3.33779123361E+01	1.59931689998E-04	-4.19519117653E+01	1.67797173784E-01	-7.26197700566E+01
7.60521042084E+10	1.72533963148E-01	-4.62107076190E+01	5.76745293043E-05	-6.24905307994E+01	1.14979113376E-04	-8.78580573232E+01	1.65955781106E-01	-7.15670411589E+01
7.60581162325E+10	1.73196533156E-01	-4.59925362452E+01	1.60859515289E-05	-1.44561039785E+02	1.00053893729E-04	-7.73496428812E+01	1.67987695145E-01	-7.33511916201E+01
7.60641282565E+10	1.75954352706E-01	-4.80667130850E+01	1.30632269444E-04	-1.28442438060E+02	1.02146377846E-04	-7.20357986301E+01	1.66756858763E-01	-7.44773234859E+01
7.60701402806E+10	1.72774708399E-01	-4.71248143191E+01	2.32801611629E-05	7.06935815901E+01	3.56395636949E-05	-1.23984067290E+02	1.65513465173E-01	-7.26916595809E+01
7.60761523046E+10	1.73709074398E-01	-4.89123974176E+01	3.57569411011E-05	-1.46326855161E+02	5.24258348571E-05	-1.37753032255E+02	1.64999906557E-01	-7.29789414841E+01
7.60821643287E+10	1.74904662411E-01	-4.77236459278E+01	1.00626996903E-04	-9.58441325270E+01	4.31994353335E-05	1.75151010007E+02	1.64643186497E-01	-7.32544404126E+01
7.60881763527E+10	1.73891444165E-01	-4.69679126656E+01	4.65378887438E-05	-7.90959170692E+01	3.34016248871E-05	1.59922920921E+02	1.67750337036E-01	-7.61567089468E+01
7.60941883768E+10	1.70974307612E-01	-4.76464726007E+01	2.75492632241E-05	-3.13895598801E+00	7.34622662916E-06	8.88163042164E+01	1.63285556746E-01	-7.35806023827E+01
7.61002004008E+10	1.71629028073E-01	-4.67522335433E+01	7.65883463131E-05	5.48337152840E+01	1.40727973926E-05	9.11960126860E+01	1.64135739031E-01	-7.46084134294E+01
7.61062124248E+10	1.74014748027E-01	-4.73319642353E+01	9.21073922943E-05	-1.78174511672E+01	5.83408400378E-05	-7.11569240809E+01	1.61751828573E-01	-7.32680268848E+01
7.61122244489E+10	1.70956681762E-01	-4.88377960233E+01	8.16484057464E-05	-3.54416253418E+01	1.43593935593E-04	-2.79152833661E+01	1.63889919701E-01	-7.62797024701E+01
7.61182364729E+10	1.73988241178E-01	-4.91838155416E+01	7.90560504330E-05	-1.09610073713E+02	5.12499089622E-05	-6.99006634829E+01	1.65319045852E-01	-7.73526224042E+01
7.61242484970E+10	1.69351381123E-01	-4.71613093813E+01	9.31303966147E-05	-1.57477559248E+02	8.66725209562E-05	-1.11467823559E+02	1.62794302133E-01	-7.56440639492E+01
7.61302605210E+10	1.70436238218E-01	-4.70267679001E+01	2.86074184857E-05	-1.40729092720E+02	5.20567526747E-05	-1.22607247284E+02	1.61724012683E-01	-7.51577652876E+01
7.61362725451E+10	1.70439271991E-01	-4.82594792111E+01	5.57181118222E-05	-1.77586238941E+02	2.19450633462E-05	-1.51717117276E+02	1.63130889893E-01	-7.74396635225E+01
7.61422845691E+10	1.73175887387E-01	-4.94602601168E+01	2.47994876437E-06	6.82797479308E+01	4.05233216987E-05	-1.28790700499E+02	1.60903720983E-01	-7.60603780846E+01
7.61482965932E+10	1.68952063948E-01	-4.90045773780E+01	8.44047866661E-05	-1.68497471637E+02	4.19467412260E-05	1.34828317738E+02	1.62619756748E-01	-7.70967370902E+01
7.61543086172E+10	1.73505362587E-01	-4.90693894090E+01	2.33922509675E-05	-9.74909632767E+01	4.89983561521E-05	-6.81110710657E+01	1.63378957756E-01	-7.79167290856E+01
7.61603206413E+10	1.70396987593E-01	-4.77845408521E+01	6.50741122964E-06	6.01180098052E+01	3.51694406272E-05	-5.63884887837E+01	1.62051352569E-01	-7.72736125277E+01
7.61663326653E+10	1.69669516005E-01	-4.91182771806E+01	4.86465255504E-05	-1.41985070020E+02	5.50135016551E-05	-1.50291634362E+02	1.61267760881E-01	-7.79563621256E+01
7.61723446894E+10	1.72178445994E-01	-4.98835088642E+01	9.58092530176E-05	1.63395567210E+02	1.62077037214E-05	-1.50770611933E+02	1.61681547945E-01	-7.91844276630E+01
7.61783567134E+10	1.71390814634E-01	-4.94426242800E+01	6.27313543864E-05	-1.47314228469E+02	5.56621981304E-05	-7.53617969091E+01	1.60538167067E-01	-7.86071501054E+01
7.61843687375E+10	1.69419966790E-01	-4.97104344070E+01	6.81438062349E-05	-1.61673909539E+02	4.62795083517E-05	-1.51180577153E+02	1.60452786290E-01	-7.93498627989E+01
7.61903807615E+10	1.69956712836E-01	-5.01091469844E+01	8.35921421464E-05	-1.38052564967E+02	6.18370351277E-05	1.39980601302E+02	1.59331758815E-01	-7.89714934068E+01
7.61963927856E+10	1.70254368038E-01	-4.82650077005E+01	9.56022545856E-05	-1.68236730380E+02	8.85871359303E-05	-1.26730666509E+02	1.59750494121E-01	-7.91599433010E+01
7.62024048096E+10	1.67461751689E-01	-5.09161838352E+01	1.18269755849E-04	-1.61976076601E+02	1.06932560050E-04	1.56641314694E+02	1.61520091135E-01	-8.04472077887E+01
7.62084168337E+10	1.68291039773E-01	-5.07717618816E+01	1.30236844073E-04	1.60283021874E+02	1.11223295739E-04	1.73961406503E+02	1.59821337354E-01	-8.04336957427E+01
7.62144288577E+10	1.68417935247E-01	-4.86407546971E+01	1.01245591870E-04	1.65972082985E+02	8.63773770750E-05	1.35631766438E+02	1.58865068260E-01	-7.99122110532E+01
7.62204408818E+10	1.70184753373E-01	-5.18859550670E+01	8.38807810243E-05	1.30590092090E+02	1.28715942771E-04	1.48790587048E+02	1.60316727625E-01	-8.15406959364E+01
7.62264529058E+10	1.69436049419E-01	-5.06597435061E+01	8.45857760084E-05	1.45399684369E+02	8.29336518621E-05	1.15602410333E+02	1.59439173446E-01	-8.16270270940E+01
7.62324649299E+10	1.68405423676E-01	-5.11749342081E+01	9.74050507250E-05	8.24292063354E+01	7.56063761404E-05	1.12147523918E+02	1.56595138402E-01	-7.97679922106E+01
7.62384769539E+10	1.68111319539E-01	-5.07794033719E+01	7.31046854494E-05	9.12169254134E+01	5.93775865617E-05	1.43912217517E+02	1.57470289962E-01	-8.16195434659E+01
7.62444889780E+10	1.67900070754E-01	-5.17211512067E+01	1.41877236514E-04	9.98159996144E+01	8.67376380256E-05	1.25375703272E+02	1.58393463129E-01	-8.24684953964E+01
7.62505010020E+10	1.69346934082E-01	-5.05896814737E+01	5.78406175690E-05	-1.44992588036E+02	7.61566413967E-05	1.56846536032E+02	1.57061194961E-01	-8.19086549626E+01
7.62565130261E+10	1.68909213548E-01	-5.09884181234E+01	8.88550021801E-05	1.42399039780E+02	1.05729971742E-04	1.20963559638E+02	1.57721099819E-01	-8.30633632356E+01
7.62625250501E+10	1.68521595800E-01	-5.22879950354E+01	1.35120909723E-04	1.15778833570E+02	1.10685799609E-04	1.26924030665E+02	1.59921347109E-01	-8.37428854096E+01
7.62685370741E+10	1.68003778765E-01	-5.15266114651E+01	2.01732905888E-04	7.42719543872E+01	7.18035610817E-05	7.63284637908E+01	1.57058500901E-01	-8.34150942562E+01
7.62745490982E+10	1.68026421878E-01	-5.35965998931E+01	1.66499904490E-04	6.23436998322E+01	2.64744071968E-05	1.68234735459E+01	1.58492199665E-01	-8.41520020671E+01
7.62805611222E+10	1.69498517001E-01	-5.30219434603E+01	1.11545920451E-04	5.85746818723E+01	1.11319496997E-04	5.24366507853E+01	1.55266476554E-01	-8.35837394647E+01
7.62865731463E+10	1.68670355868E-01	-5.19149542617E+01	9.32673263871E-05	2.69842923522E+00	1.08295012250E-04	6.38571025660E+01	1.56287969168E-01	-8.44813752658E+01
7.62925851703E+10	1.66413305028E-01	-5.16406191824E+01	1.19262481757E-04	4.53942776318E+01	7.66654562773E-05	8.51181272916E+01	1.56281370109E-01	-8.46645727372E+01
7.62985971944E+10	1.68573834457E-01	-5.30280525356E+01	2.87204224312E-05	-1.04801628155E+02	9.70078365662E-06	-1.06175154680E+02	1.53246262199E-01	-8.32524108219E+01
7.63046092184E+10	1.67397654524E-01	-5.47928584515E+01	1.45801829814E-05	4.76015146478E+01	9.84588712600E-05	1.06834630124E+01	1.56298778335E-01	-8.56070332044E+01
7.63106212425E+10	1.67120623914E-01	-5.21869603832E+01	4.46298731557E-05	8.66361954716E+01	1.09523430868E-04	5.71946135041E+01	1.55786905662E-01	-8.59578247452E+01
7.63166332665E+10	1.65343387477E-01	-5.30075729433E+01	7.93180152077E-05	1.54517169691E+01	9.28034247351E-05	2.94974886878E+01	1.53856660188E-01	-8.57344047080E+01
7.63226452906E+10	1.69677176700E-01	-5.35839210114E+01	8.08329664010E-05	5.14511135397E+01	8.97952406188E-05	3.70304282865E+01	1.54345972905E-01	-8.67462388532E+01
7.63286573146E+10	1.65891166920E-01	-5.28886204474E+01	4.35862471971E-05	1.58114912748E+01	7.61344561932E-05	7.95974760656E+00	1.54417983445E-01	-8.69314270257E+01
7.63346693387E+10	1.64995701924E-01	-5.30222465992E+01	4.08941399994E-05	9.55945249543E+01	1.61735106224E-04	2.72229337239E+01	1.56093158623E-01	-8.81304653843E+01
7.63406813627E+10	1.65624734025E-01	-5.33384593578E+01	1.75675600591E-04	4.35425472040E+00	8.76956515009E-05	-1.59568800888E+01	1.53326888401E-01	-8.81359376182E+01
7.63466933868E+10	1.69283159858E-01	-5.54289745132E+01	1.24575810908E-04	-7.71329243587E+00	1.85868921662E-04	-1.37786284715E+01	1.52399694095E-01	-8.75226932032E+01
7.63527054108E+10	1.66056861572E-01	-5.44577352675E+01	1.19242431808E-04	-1.74017153286E+01	8.82182118739E-05	-1.31140282819E+00	1.53428970555E-01	-8.84070244061E+01
7.63587174349E+10	1.64484291246E-01	-5.27476653525E+01	4.97764943256E-05	-2.92895798899E+01	9.86677347056E-05	-5.02402978337E+01	1.53433303776E-01	-8.85147864877E+01
7.63647294589E+10	1.66082998171E-01	-5.32211610229E+01	7.74918884066E-05	-6.35031230164E+00	6.09005512906E-05	-4.85616442739E+01	1.52699437371E-01	-8.91407736804E+01
7.63707414830E+10	1.66556471147E-01	-5.53897678513E+01	7.17394876739E-05	-6.01824307682E+01	1.36628167667E-04	-7.31529008481E+01	1.51723201533E-01	-9.00894777926E+01
7.63767535070E+10	1.66809219256E-01	-5.60078268989E+01	9.41274946701E-05	-8.00887429540E+01	2.82978111135E-05	-9.89344310142E+00	1.52334068203E-01	-9.01984937634E+01
7.63827655311E+10	1.66114382643E-01	-5.71156040986E+01	1.07467480831E-04	-8.09481763296E+01	3.78628182759E-05	-8.38732264701E+01	1.50926031703E-01	-9.01200367476E+01
7.63887775551E+10	1.64891523182E-01	-5.36452207699E+01	5.93089158248E-05	-1.02761251114E+02	6.70040943853E-05	1.33935730005E+01	1.50087710895E-01	-8.99661422895E+01
7.63947895792E+10	1.64255370074E-01	-5.40699463125E+01	3.61953451165E-05	3.50204101592E+01	4.38648800028E-05	-8.00776275582E+01	1.50640911387E-01	-9.08462332800E+01
7.64008016032E+10	1.62465072153E-01	-5.56632845194E+01	1.00696141970E-04	1.70418917606E+01	1.08780728653E-04	-8.56659083913E+01	1.49801534434E-01	-9.18866575675E+01
7.64068136273E+10	1.66525910618E-01	-5.53950352235E+01	7.29949471314E-05	-1.39563062818E+02	5.72455561329E-05	-6.04087501184E+01	1.49295539988E-01	-9.26157023436E+01
7.64128256513E+10	1.66057893778E-01	-5.71096851336E+01	3.09119163204E-05	-3.27935567748E+01	8.04701636874E-05	-1.43235815636E+02	1.49251636916E-01	-9.32481441116E+01
7.64188376754E+10	1.64504310091E-01	-5.62082268361E+01	7.77409849784E-05	-9.99989146806E+01	5.51193969139E-05	-1.01965934098E+02	1.47677846445E-01	-9.18047789431E+01
7.64248496994E+10	1.63660842530E-01	-5.60222092579E+01	7.45867478669E-05	-7.15227950468E+01	7.00631049365E-05	-1.22673386649E+02	1.47700806882E-01	-9.37156177410E+01
7.64308617234E+10	1.64462510284E-01	-5.50230950859E+01	7.00366221393E-05	-8.02743859476E+01	6.07055939119E-05	-1.24236309912E+02	1.47675663307E-01	-9.39867732219E+01
7.64368737475E+10	1.64706165680E-01	-5.58689068718E+01	7.00474226853E-05	-1.74219074412E+02	6.20612259810E-05	-1.36338399190E+02	1.47297822327E-01	-9.36573160777E+01
7.64428857715E+10	1.65251413822E-01	-5.67757904142E+01	9.31798015181E-05	-1.48462806095E+02	1.32410336548E-04	-1.37402931294E+02	1.46994676673E-01	-9.41614904936E+01
7.64488977956E+10	1.63384748620E-01	-5.62188149300E+01	2.14069747806E-05	-9.08347559347E+00	5.96406164239E-05	1.38852097365E+02	1.46187265194E-01	-9.42551183441E+01
7.64549098196E+10	1.62449793724E-01	-5.64085515887E+01	8.38042405526E-05	1.09287556408E+02	3.58779888499E-05	-1.57925905087E+02	1.44539726480E-01	-9.35441106955E+01
7.64609218437E+10	1.63271839178E-01	-5.78769328876E+01	9.66804062657E-05	4.96612424801E+01	1.53116673033E-05	1.52832313170E+02	1.44734783065E-01	-9.52142600260E+01
7.64669338677E+10	1.62281808903E-01	-5.60095369146E+01	2.93576101255E-05	-1.60053914249E+02	2.10288189636E-05	1.88306322188E+01	1.45409010319E-01	-9.69440244291E+01
7.64729458918E+10	1.64893801809E-01	-5.81236536102E+01	5.90339574941E-05	-1.77400073697E+02	3.60604055479E-05	-1.06959923590E+02	1.45464916306E-01	-9.71550212759E+01
7.64789579158E+10	1.64970047493E-01	-5.77186571519E+01	3.09850395173E-05	5.46387176190E+01	4.20058083993E-05	3.91993255151E+01	1.43863928495E-01	-9.66670364152E+01
7.64849699399E+10	1.64504047263E-01	-5.69417057203E+01	1.16414342368E-04	-4.19695232225E+01	3.65436909623E-05	8.02576916875E+01	1.43433702289E-01	-9.70512371244E+01
7.64909819639E+10	1.62106409021E-01	-5.60556959785E+01	3.28027943195E-05	-7.50185554614E+01	5.62972376832E-05	2.09923540277E+01	1.42857767805E-01	-9.80068635102E+01
7.64969939880E+10	1.63862722471E-01	-5.87657848763E+01	1.11141329798E-04	-1.08117772882E+02	6.15150675182E-06	-1.75372216511E+02	1.41632433967E-01	-9.84378496050E+01
7.65030060120E+10	1.63737354492E-01	-6.01714865364E+01	5.59469047873E-05	-8.49766014037E+01	4.55398754756E-05	-8.14112679313E+01	1.40789863155E-01	-9.83449771899E+01
7.65090180361E+10	1.65666778596E-01	-6.00802951395E+01	3.02735439163E-05	-1.00655314726E+02	9.75286555571E-05	-9.31245131494E+01	1.40312886750E-01	-9.90713881916E+01
7.65150300601E+10	1.64600716983E-01	-5.92240620362E+01	1.05723013551E-04	-1.25304642920E+02	4.46142503614E-05	-8.96053519251E+01	1.40513484017E-01	-1.00433518291E+02
7.65210420842E+10	1.62410082527E-01	-5.97206137367E+01	2.82844958267E-05	-1.42537043707E+02	6.45093178784E-05	-1.36060545580E+02	1.40557245800E-01	-1.00601332392E+02
7.65270541082E+10	1.60819320551E-01	-5.84220155084E+01	7.76767542636E-05	-1.48165182379E+02	3.38517146360E-05	1.60777310930E+02	1.39214087370E-01	-1.00387081145E+02
7.65330661323E+10	1.62846441171E-01	-5.86200116236E+01	8.19779390320E-05	1.44748063964E+02	1.12173869544E-04	1.55008843987E+02	1.38191436455E-01	-1.00360309726E+02
7.65390781563E+10	1.64336859186E-01	-6.05842561100E+01	1.67753300385E-05	-1.37672818005E+02	4.66327403038E-05	-1.69703998109E+02	1.37317071984E-01	-1.01538135669E+02
7.65450901804E+10	1.66067386226E-01	-6.09163467668E+01	2.66663991944E-05	1.55692967601E+02	1.56402172843E-05	-3.73215814517E+01	1.36684466466E-01	-1.02042387893E+02
7.65511022044E+10	1.63333245132E-01	-5.98899304017E+01	3.23048875864E-05	2.14973399855E+00	8.58975713873E-05	1.25783202832E+02	1.34975133182E-01	-1.01383454951E+02
7.65571142285E+10	1.60660553857E-01	-5.76454629362E+01	1.07693591783E-04	1.88448705925E+00	5.61452210923E-05	-8.29693162145E+01	1.35205171916E-01	-1.01875566020E+02
7.65631262525E+10	1.63646541006E-01	-6.07142171663E+01	4.42306695445E-05	-5.19872033034E+01	7.03087837079E-05	-9.41095105518E+01	1.35522001028E-01	-1.03186336734E+02
7.65691382766E+10	1.63677791365E-01	-6.15226702294E+01	8.39454738919E-05	-1.40822583958E+02	1.06928492833E-04	-1.13733225787E+02	1.33218450048E-01	-1.03460808405E+02
7.65751503006E+10	1.63572916557E-01	-6.18457314971E+01	5.53362436607E-05	-1.69839478244E+02	1.08174858627E-04	-1.22820533012E+02	1.33601073936E-01	-1.03863839091E+02
7.65811623246E+10	1.63515689019E-01	-6.17574120166E+01	7.13396649551E-05	-1.28009383331E+02	1.06762974714E-04	-1.34967268291E+02	1.32203520377E-01	-1.03626697064E+02
7.65871743487E+10	1.61198398085E-01	-6.04381033581E+01	8.34142788618E-05	1.69631642421E+02	8.06699321180E-05	1.63977745127E+02	1.33006402387E-01	-1.05935647653E+02
7.65931863727E+10	1.60277817510E-01	-5.92066428179E+01	5.36260463855E-05	1.69562031253E+02	4.08981029325E-05	1.40267558635E+02	1.31605344607E-01	-1.05685174196E+02
7.65991983968E+10	1.64165764820E-01	-6.25821263987E+01	5.37016882181E-05	1.54342887794E+02	4.67417789721E-05	1.49446860817E+02	1.30283436948E-01	-1.05055730240E+02
7.66052104208E+10	1.62993513439E-01	-6.28444221415E+01	9.11079862424E-05	-1.23273515410E+02	5.83688948703E-05	1.01079929467E+02	1.29086091963E-01	-1.06061761275E+02
7.66112224449E+10	1.61445827786E-01	-6.28865928266E+01	5.78769351491E-05	-1.63189494138E+02	7.11721184043E-05	1.01996764135E+02	1.29637108545E-01	-1.07431842872E+02
7.66172344689E+10	1.61628784991E-01	-6.22466618877E+01	9.45744344002E-05	1.61437284107E+02	6.26141611947E-05	-1.50600041580E+02	1.28301390598E-01	-1.06866234937E+02
7.66232464930E+10	1.61786922963E-01	-6.18477822591E+01	9.20640319006E-05	1.47612605578E+02	8.54730895038E-05	1.65729658705E+02	1.27815414455E-01	-1.07666893686E+02
7.66292585170E+10	1.61403665689E-01	-6.15085109592E+01	2.95776669241E-05	1.54984395086E+02	8.15874392017E-05	1.31212888172E+02	1.26662296925E-01	-1.08249817686E+02
7.66352705411E+10	1.60160540025E-01	-6.10954037792E+01	5.74548808480E-05	1.11179477816E+02	8.51144544868E-05	9.39209666351E+01	1.25242880833E-01	-1.07779294644E+02
7.66412825651E+10	1.62653328905E-01	-6.38927958420E+01	8.72551719583E-05	8.54284438904E+01	2.18477028948E-05	8.17751650590E+01	1.24182125304E-01	-1.07717136787E+02
7.66472945892E+10	1.61587584936E-01	-6.39182136463E+01	3.43447245896E-05	4.71450855199E+01	6.67233056527E-05	7.05750389853E+01	1.23927423912E-01	-1.08040845675E+02
7.66533066132E+10	1.61657632423E-01	-6.30525257860E+01	5.46157172478E-05	-3.38620616075E+01	2.92992868661E-05	-7.59527860568E+01	1.24057086534E-01	-1.09615633964E+02
7.66593186373E+10	1.59022282253E-01	-6.30151501510E+01	6.97365402873E-05	-1.57983392655E+02	4.05693724177E-05	1.39808468301E+02	1.22916835592E-01	-1.11168687773E+02
7.66653306613E+10	1.61221083744E-01	-6.36624326616E+01	1.15941553157E-05	-1.63374731432E+02	4.01666622543E-05	1.14240191974E+02	1.22725806439E-01	-1.11738623129E+02
7.66713426854E+10	1.60688836215E-01	-6.29730221250E+01	1.21564958454E-05	-8.33300833767E+01	5.62213047687E-05	1.08555794302E+02	1.20639269571E-01	-1.11144090822E+02
7.66773547094E+10	1.60001925564E-01	-6.21993200372E+01	5.11358185835E-05	5.23054007316E+01	3.18732241125E-05	5.43447387229E+01	1.19310238035E-01	-1.11908575131E+02
7.66833667335E+10	1.59082241699E-01	-6.26887468082E+01	3.24613298585E-05	-1.57138486955E+02	3.82143852247E-05	-1.51000394157E+02	1.20057014730E-01	-1.11837408009E+02
7.66893787575E+10	1.59234693522E-01	-6.45801967600E+01	7.33208890069E-05	1.39794012450E+02	5.36984368542E-05	1.10196422850E+02	1.18354706518E-01	-1.11204787355E+02
7.66953907816E+10	1.60813862337E-01	-6.48442015257E+01	7.10916161530E-05	1.07812945398E+02	1.20339004874E-04	1.23769218587E+02	1.18067879454E-01	-1.12546504354E+02
7.67014028056E+10	1.61517224982E-01	-6.50513379439E+01	2.88338778195E-05	1.43367181693E+02	1.30625205689E-05	1.73512061811E+02	1.17564857253E-01	-1.14175100514E+02
7.67074148297E+10	1.59797372816E-01	-6.46285027926E+01	7.32152791041E-05	2.52752785905E+00	8.20280229195E-05	4.35410267868E+01	1.16688983301E-01	-1.14076630271E+02
7.67134268537E+10	1.58188907418E-01	-6.42050718644E+01	2.44166252991E-05	3.34367990777E+01	6.25057720825E-05	-3.78991306442E+01	1.14700027560E-01	-1.14177494089E+02
7.67194388778E+10	1.60153355531E-01	-6.50213492818E+01	2.11498525941E-05	1.41407700303E+02	1.77002610989E-05	1.07239448686E+02	1.13605744892E-01	-1.13667997028E+02
7.67254509018E+10	1.60983914530E-01	-6.60106781634E+01	1.29710967667E-04	-6.57134762876E+01	6.03300122979E-05	-1.12805195617E+02	1.13456766429E-01	-1.14342478371E+02
7.67314629259E+10	1.58225301719E-01	-6.50493473817E+01	5.87917521867E-05	-1.21494957484E+02	6.65100206736E-05	-1.21425183518E+02	1.13216747235E-01	-1.15335008019E+02
7.67374749499E+10	1.60567854290E-01	-6.56236061728E+01	6.09433034273E-05	1.68134278782E+02	5.94303403507E-05	-1.49088263535E+02	1.10969742797E-01	-1.15728038167E+02
7.67434869739E+10	1.62159576412E-01	-6.66727142462E+01	3.61559231178E-05	1.52953449385E+02	7.03447285728E-05	1.16186273629E+02	1.09867784391E-01	-1.15005807122E+02
7.67494989980E+10	1.56955220261E-01	-6.39678545163E+01	2.54381525944E-05	5.75682778962E+01	7.02475550219E-05	9.88922573216E+01	1.10026620418E-01	-1.16516910229E+02
7.67555110220E+10	1.57781518017E-01	-6.66949626200E+01	3.29141044227E-05	6.93279993864E+01	4.48038093717E-05	1.36006899896E+02	1.09834276278E-01	-1.16859222202E+02
7.67615230461E+10	1.58854902970E-01	-6.68399976132E+01	4.93418709427E-05	4.95711497719E+01	3.83887576115E-05	1.08456570426E+02	1.08249199225E-01	-1.16495688522E+02
7.67675350701E+10	1.56589189159E-01	-6.52905050604E+01	7.23062432666E-05	3.12119143713E+01	6.74608480614E-05	2.28431048232E+01	1.07001123349E-01	-1.18325167791E+02
7.67735470942E+10	1.58521369613E-01	-6.66599898064E+01	6.18652813276E-05	3.73198850157E+00	7.08103873155E-05	3.40701440156E+01	1.06321079009E-01	-1.17740498447E+02
7.67795591182E+10	1.59590299433E-01	-6.69127379437E+01	7.94981822413E-05	1.28162801611E+02	4.11548810209E-05	3.00667221965E+01	1.05418177614E-01	-1.16936847514E+02
7.67855711423E+10	1.59189407935E-01	-6.66502187092E+01	7.57324121981E-05	-6.72603247304E+01	8.76755998537E-05	9.77476544715E+00	1.04720990078E-01	-1.18904016111E+02
7.67915831663E+10	1.53966739401E-01	-6.55666543944E+01	3.56502180374E-05	-5.64496633326E+00	1.70705282882E-05	-8.86989051489E+01	1.04847780134E-01	-1.19930263688E+02
7.67975951904E+10	1.56818419940E-01	-6.64568032303E+01	1.84227078134E-05	6.89906767730E+01	9.34363847536E-05	9.36217544406E+01	1.03158847265E-01	-1.18952650748E+02
7.68036072144E+10	1.54682562206E-01	-6.76142989178E+01	4.49514119615E-05	-1.25608735449E+02	8.06427411579E-05	8.23762696413E+01	1.02779011599E-01	-1.20806584833E+02
7.68096192385E+10	1.58610542579E-01	-6.88582450476E+01	4.04004920419E-05	6.66785786605E+01	1.24508923845E-04	6.86033379322E+01	1.01401467157E-01	-1.19718056279E+02
7.68156312625E+10	1.54824583996E-01	-6.59872771868E+01	7.83304922288E-05	9.33665543846E+01	3.13073751485E-05	2.70704271339E+01	1.00211945750E-01	-1.20224553817E+02
7.68216432866E+10	1.55760036545E-01	-6.72948430495E+01	5.78967405999E-05	5.88327826620E+01	4.12758381313E-05	-2.41229204202E+01	9.90198413529E-02	-1.21443821157E+02
7.68276553106E+10	1.56781051545E-01	-6.90873708698E+01	3.36673137652E-05	-1.23194959279E+01	4.86070261724E-05	5.19622751592E+01	9.85666646102E-02	-1.20439482531E+02
7.68336673347E+10	1.58623733516E-01	-7.00291235167E+01	7.18547294892E-06	1.61981965696E+02	1.06597242908E-04	1.81704932327E+01	9.82174046164E-02	-1.20456174997E+02
7.68396793587E+10	1.59337329380E-01	-6.96253980120E+01	4.36648231624E-05	6.56011379519E+00	5.30464306940E-05	4.86697392078E+01	9.72461732113E-02	-1.22538919217E+02
7.68456913828E+10	1.58392846584E-01	-6.92593119267E+01	1.03277762308E-04	-2.90656730683E+01	5.37791388340E-05	-3.48977375588E+01	9.66956188874E-02	-1.23887488736E+02
7.68517034068E+10	1.56741732068E-01	-6.85891249823E+01	5.76930245195E-05	-8.00258622946E+01	9.19808135037E-05	-9.50826883628E+00	9.51857982790E-02	-1.23668338354E+02
7.68577154309E+10	1.51070946987E-01	-6.66066362592E+01	4.19878503962E-05	1.74322164769E+01	7.24806418507E-05	-2.03564820863E+01	9.48564011064E-02	-1.24161506600E+02
7.68637274549E+10	1.57123416414E-01	-6.95066019452E+01	5.94602271231E-05	-6.48300080657E+01	1.21720505528E-04	-7.68695046759E+01	9.42071775392E-02	-1.24278309713E+02
7.68697394790E+10	1.56287447421E-01	-6.97135543938E+01	6.40981627816E-05	-1.09636389349E+02	3.29523727845E-05	-1.08629452885E+02	9.35423890250E-02	-1.23552134056E+02
7.68757515030E+10	1.56875032884E-01	-6.99181899974E+01	6.61828532856E-05	6.78570895709E+01	1.33444688508E-05	7.77802749674E+01	9.18753668536E-02	-1.23978650652E+02
7.68817635271E+10	1.59363128226E-01	-7.11379894448E+01	6.42416073859E-05	1.71629571632E+02	2.51902432526E-05	1.49019601108E+02	9.04197996489E-02	-1.25104317644E+02
7.68877755511E+10	1.53556669780E-01	-6.82204790319E+01	4.18317965742E-05	8.26103335626E+01	1.33177157564E-05	-5.76150008538E+01	8.96932294472E-02	-1.24043407850E+02
7.68937875752E+10	1.58215605946E-01	-7.10455757271E+01	3.46641164306E-05	-7.19945437007E+01	9.95289696335E-05	-5.59896312680E+01	8.90498176394E-02	-1.24464152641E+02
7.68997995992E+10	1.55278905577E-01	-7.08498164207E+01	1.06127747727E-04	-2.34658821965E+01	8.79066861202E-05	3.98104296163E+00	8.84942917253E-02	-1.25965978492E+02
7.69058116232E+10	1.55738222183E-01	-7.06001910493E+01	2.05246887763E-05	-2.49979212547E+01	7.35612301939E-05	-9.04369302925E+01	8.78446643828E-02	-1.26582919779E+02
7.69118236473E+10	1.53710207090E-01	-7.08431038560E+01	8.11709710167E-05	-4.22420852139E+01	8.37798061224E-05	-6.53708594951E+01	8.64939280961E-02	-1.25572653877E+02
7.69178356713E+10	1.55947147476E-01	-7.11541912172E+01	4.08059493814E-05	-1.31317350354E+02	7.29612853815E-05	-8.00358325029E+01	8.57007896960E-02	-1.26574983331E+02
7.69238476954E+10	1.55668559146E-01	-7.15888946432E+01	9.11307125657E-06	3.92116523592E+01	8.34595083608E-05	-1.12044518490E+02	8.53579144897E-02	-1.26059371600E+02
7.69298597194E+10	1.58994672298E-01	-7.31108419413E+01	6.00695786326E-05	-1.07668280025E+02	3.57491409188E-05	-1.18936524142E+02	8.47292690046E-02	-1.28338284229E+02
7.69358717435E+10	1.55171788130E-01	-7.28878892825E+01	9.54560113677E-05	-9.54188847237E+01	1.11091970497E-05	1.47318173588E+01	8.41283400452E-02	-1.29362738362E+02
7.69418837675E+10	1.55035937308E-01	-7.28547480135E+01	7.00539101788E-05	-1.56896245625E+02	1.03991857938E-04	-1.45282984333E+02	8.24473441108E-02	-1.29391234950E+02
7.69478957916E+10	1.56720651143E-01	-7.29035995811E+01	7.20615002613E-05	-1.35626780846E+02	5.24958643479E-05	1.27070696569E+02	8.14432003767E-02	-1.28643437074E+02
7.69539078156E+10	1.54911841509E-01	-7.24154994039E+01	4.11419847903E-05	-1.18378188316E+02	4.81289179872E-05	-1.30267359987E+02	8.11158523109E-02	-1.28022270833E+02
7.69599198397E+10	1.52771254000E-01	-7.21690064957E+01	5.37155413601E-05	1.72587794842E+02	3.16870488226E-05	-1.27092725269E+02	8.05028088877E-02	-1.28029960500E+02
7.69659318637E+10	1.54424798802E-01	-7.24927861682E+01	4.68149933699E-05	-7.11744614097E+01	3.51822702683E-05	-1.00267708912E+02	7.90331063819E-02	-1.30183323205E+02
7.69719438878E+10	1.53518282040E-01	-7.36439774485E+01	3.15598260576E-05	1.77725888387E+02	4.80745479206E-05	-1.46512420509E+02	7.82779986962E-02	-1.31053181671E+02
7.69779559118E+10	1.52049041415E-01	-7.22109593539E+01	7.57599665437E-06	-1.70212282799E+02	5.88652021118E-05	-1.19949041762E+02	7.66994255122E-02	-1.30410099843E+02
7.69839679359E+10	1.52902661632E-01	-7.37332101360E+01	6.65495002479E-05	1.42930275720E+02	6.09026100431E-05	-1.27038371736E+02	7.57532570365E-02	-1.30026361351E+02
7.69899799599E+10	1.50729725461E-01	-7.15922638350E+01	1.00622021574E-04	-1.63103787814E+02	6.93274209568E-05	1.49023044502E+02	7.51876480242E-02	-1.30940358116E+02
7.69959919840E+10	1.51396355926E-01	-7.30511681243E+01	5.94298883887E-05	1.49439507857E+02	5.85264747706E-05	1.66755680853E+02	7.47098960891E-02	-1.32163472929E+02
7.70020040080E+10	1.52071690238E-01	-7.35539397127E+01	7.44631149574E-05	-1.63828590802E+02	5.05073599023E-05	-1.22925894457E+02	7.45221857051E-02	-1.33253831842E+02
7.70080160321E+10	1.54663872694E-01	-7.55334503952E+01	4.05569007028E-05	1.50055518402E+02	3.16744103772E-05	1.39258006130E+02	7.32871842467E-02	-1.32795092746E+02
7.70140280561E+10	1.54442987917E-01	-7.40723946510E+01	7.91967558427E-05	1.47252512802E+02	6.13351140290E-05	1.26417018820E+02	7.18547264493E-02	-1.31136208010E+02
7.70200400802E+10	1.52505647691E-01	-7.36306995019E+01	1.06652071288E-04	1.77235970727E+02	6.82230383127E-05	1.42943004573E+02	7.13541945191E-02	-1.31630439804E+02
7.70260521042E+10	1.50716195387E-01	-7.41699076387E+01	7.60783848236E-05	1.73062351494E+02	5.50581830232E-05	2.54044864124E+01	7.04190913883E-02	-1.33637415817E+02
7.70320641283E+10	1.51588092745E-01	-7.48441797404E+01	5.70318971473E-05	1.66817329305E+02	2.27619340249E-05	-1.71049104229E+02	6.92529687761E-02	-1.32242274291E+02
7.70380761523E+10	1.54356366928E-01	-7.59719520708E+01	4.16423154857E-05	1.04737167284E+02	5.83128056190E-05	9.44266851624E+01	6.98368609612E-02	-1.34053976791E+02
7.70440881764E+10	1.51645281662E-01	-7.61344167872E+01	4.47136881394E-05	-1.64674586607E+02	7.18020368572E-05	1.23124857016E+02	6.88729566551E-02	-1.34618664331E+02
7.70501002004E+10	1.52736255089E-01	-7.61048282096E+01	9.65537062535E-05	7.29016549832E+01	9.53853784187E-05	1.39390640583E+02	6.76192510783E-02	-1.34918454198E+02
7.70561122244E+10	1.54027871854E-01	-7.62689149720E+01	8.06099552056E-05	3.49297032140E+01	5.60309319251E-05	1.55930131706E+02	6.61170265762E-02	-1.33035186072E+02
7.70621242485E+10	1.53524465221E-01	-7.66542575714E+01	1.20509732939E-04	1.33782108503E+02	4.97748230608E-05	1.50424520994E+02	6.55867823217E-02	-1.34968976716E+02
7.70681362725E+10	1.50476192627E-01	-7.57263837854E+01	1.73953640928E-05	3.15234077534E+00	8.87889102153E-05	1.33951274634E+02	6.59206994791E-02	-1.37451116094E+02
7.70741482966E+10	1.50056976674E-01	-7.52004881351E+01	7.68391575149E-05	8.04759351831E+01	1.56832753028E-04	9.47341542381E+01	6.46860298277E-02	-1.35429794693E+02
7.70801603206E+10	1.50547050792E-01	-7.54106225908E+01	4.09742563039E-05	8.31484088023E+00	7.75703764983E-05	9.90065582231E+01	6.36740283336E-02	-1.34857899177E+02
7.70861723447E+10	1.50111564206E-01	-7.70594952003E+01	7.68945293807E-05	-1.91132582547E+01	5.65302015420E-05	9.61248033927E+01	6.27405453843E-02	-1.35196006803E+02
7.70921843687E+10	1.48510670558E-01	-7.54968614265E+01	7.11189516750E-05	-6.22034420244E+01	4.95952858009E-05	-8.00665358517E+01	6.22851628102E-02	-1.37165980099E+02
7.70981963928E+10	1.50741980406E-01	-7.51087694289E+01	1.41750512410E-05	4.22505373194E+01	2.75242742149E-05	-1.35506009721E+02	6.17519562050E-02	-1.38170761166E+02
7.71042084168E+10	1.53248241978E-01	-7.78904848169E+01	2.97895614372E-05	7.75016698703E-01	6.77195629110E-05	1.79456754001E+02	6.10650486912E-02	-1.38062718958E+02
7.71102204409E+10	1.52978949172E-01	-7.80103172817E+01	5.62122827089E-05	-1.65518069275E+02	7.71971434477E-05	1.62530363555E+02	5.96563853510E-02	-1.35676488069E+02
7.71162324649E+10	1.50480615493E-01	-7.73778482591E+01	5.41069086258E-05	8.99146245076E+01	1.15860368031E-04	1.52592325670E+02	5.94544508912E-02	-1.38739946637E+02
7.71222444890E+10	1.47911644644E-01	-7.75421491756E+01	5.46926473813E-05	8.09320439080E+01	6.86177090536E-05	3.51839282691E+01	5.86245868685E-02	-1.38065927172E+02
7.71282565130E+10	1.48335890494E-01	-7.62851409862E+01	7.06307087128E-05	3.40420638357E+01	9.67557360185E-05	6.09099276586E+01	5.81833883911E-02	-1.40379229002E+02
7.71342685371E+10	1.49032595006E-01	-7.74673842773E+01	1.08554556640E-04	1.52171950812E+01	6.33349458480E-05	3.70450209515E+00	5.67403939063E-02	-1.39181762389E+02
7.71402805611E+10	1.52401751099E-01	-7.81714636032E+01	6.59183105661E-05	1.55482507025E+01	6.44201566053E-05	2.25672960356E+01	5.60356821176E-02	-1.38862297021E+02
7.71462925852E+10	1.47578679588E-01	-7.90929048208E+01	7.53530143019E-05	-4.80481331937E+01	1.05595157902E-04	-2.73082574678E+01	5.55593242531E-02	-1.39770310138E+02
7.71523046092E+10	1.47029593358E-01	-7.68638202058E+01	2.99279909444E-05	-2.72632230574E+01	8.10239728099E-05	-5.61724777619E+01	5.45742234186E-02	-1.40691335508E+02
7.71583166333E+10	1.51265845594E-01	-7.95953100481E+01	9.01054017988E-05	-1.47857373501E+02	7.16310652726E-05	-1.18531630185E+02	5.44674339326E-02	-1.41985300079E+02
7.71643286573E+10	1.49501873980E-01	-7.95969485227E+01	1.31733183980E-04	-1.34084061833E+02	5.50071988531E-05	-6.72100833805E+01	5.38918360708E-02	-1.42487725753E+02
7.71703406814E+10	1.48152991781E-01	-8.01392441748E+01	7.31916833343E-05	1.78091513427E+02	7.04637996385E-06	1.26637989937E+02	5.22489277049E-02	-1.41478870840E+02
7.71763527054E+10	1.47464565864E-01	-7.98803992125E+01	7.74105832052E-05	-1.60999905760E+02	8.31288178493E-05	6.75264310136E+01	5.18438193062E-02	-1.40600288831E+02
7.71823647295E+10	1.47505150705E-01	-7.91650152696E+01	7.35824791163E-05	6.98949884684E+01	1.02783534080E-04	5.54680994962E+01	5.04777442938E-02	-1.39629160863E+02
7.71883767535E+10	1.47623526152E-01	-7.90583405094E+01	1.13702530947E-04	4.58959548458E+01	8.27622164608E-05	1.04331215082E+01	5.02200295234E-02	-1.42203436996E+02
7.71943887776E+10	1.45954013648E-01	-7.85147914685E+01	5.09218639912E-05	-2.20425510247E+01	6.10987127967E-05	-2.47809123794E+01	5.00716342785E-02	-1.44164762781E+02
7.72004008016E+10	1.46513485936E-01	-8.04065223648E+01	4.72376067595E-05	1.36717269970E+01	8.59764889503E-05	-4.99607848384E+01	4.96829837516E-02	-1.45601992779E+02
7.72064128257E+10	1.47677222346E-01	-8.05014453028E+01	5.75501767270E-05	1.00710175146E+02	4.98900609519E-05	-1.36477000758E+02	4.82038134097E-02	-1.44033664120E+02
7.72124248497E+10	1.47615384309E-01	-8.13148572602E+01	4.77516215875E-05	1.67298680309E+02	7.62978885001E-05	1.03660267038E+02	4.68560685280E-02	-1.43354506852E+02
7.72184368737E+10	1.48862373823E-01	-8.26757295565E+01	2.55580950497E-05	-7.43555596164E+01	2.83162628937E-06	-1.59267630302E+02	4.60852187814E-02	-1.42838372942E+02
7.72244488978E+10	1.47456810378E-01	-7.96420239491E+01	3.34364675799E-05	-3.83900235618E+01	7.81935225176E-05	-5.36891942908E+01	4.63897736277E-02	-1.45246479461E+02
7.72304609218E+10	1.46789614260E-01	-8.04035594419E+01	5.58168929760E-05	4.73923512423E+01	1.09975544884E-05	-8.17889733134E+01	4.44162598207E-02	-1.41676273806E+02
7.72364729459E+10	1.47040752574E-01	-8.08242356443E+01	3.53103911562E-05	7.38941442686E+01	2.03308791211E-05	-1.21866293797E+02	4.39860253862E-02	-1.43425569722E+02
7.72424849699E+10	1.47634479908E-01	-8.17590358136E+01	3.98482014068E-05	1.31199006718E+02	4.72639183053E-05	2.03441551375E+01	4.41632944239E-02	-1.45353413707E+02
7.72484969940E+10	1.47376167578E-01	-8.28170620850E+01	5.60354884055E-05	-1.12869497559E+02	2.05733142742E-05	-3.05515625513E+01	4.38314990221E-02	-1.47797968817E+02
7.72545090180E+10	1.46740298567E-01	-8.27250122254E+01	4.46486499217E-05	-1.59659354930E+02	1.05375249627E-04	7.77329354570E+01	4.23530420010E-02	-1.45883421360E+02
7.72605210421E+10	1.44578334832E-01	-8.20635854551E+01	4.44684133981E-05	1.89701942775E+01	1.48971866536E-04	2.46146237462E+01	4.11995881094E-02	-1.45324917509E+02
7.72665330661E+10	1.47528379140E-01	-8.28822616746E+01	8.75434306197E-05	1.95399106405E+01	2.94407575376E-05	-1.28088336511E+01	4.08914371660E-02	-1.45339831939E+02
7.72725450902E+10	1.46128012545E-01	-8.17438532099E+01	7.14188025936E-05	-4.70861249345E+01	7.60518788553E-05	-1.00872133113E+02	4.05134698802E-02	-1.46542873798E+02
7.72785571142E+10	1.46579755172E-01	-8.05121406949E+01	9.99477996016E-05	-6.25538387264E+01	5.65981915257E-05	-4.60318718703E+01	4.05242471133E-02	-1.49119768840E+02
7.72845691383E+10	1.45497513677E-01	-8.37381824536E+01	9.40102084097E-05	-5.85860166266E+01	1.04875786601E-04	-6.14148205299E+01	3.84093901692E-02	-1.46296448925E+02
7.72905811623E+10	1.44730266493E-01	-8.34628702562E+01	5.45278607181E-05	1.55899707432E+02	8.75493300119E-05	-1.71851485404E+02	3.90677652272E-02	-1.50350187342E+02
7.72965931864E+10	1.44084418444E-01	-8.29146728075E+01	3.55388921073E-05	-1.06399929501E+02	6.47879228254E-05	8.92198910372E+01	3.79883613778E-02	-1.50697083506E+02
7.73026052104E+10	1.44439925507E-01	-8.29424621895E+01	5.57083619582E-05	1.13205790685E+00	2.76164469589E-05	5.64269370684E+01	3.61181120955E-02	-1.46519727337E+02
7.73086172345E+10	1.44425371771E-01	-8.29074084339E+01	1.14115193272E-06	-7.86876007089E+01	1.50480413549E-05	7.69754847967E+01	3.60549096807E-02	-1.49985667821E+02
7.73146292585E+10	1.45084551544E-01	-8.31441697127E+01	7.61046327391E-06	1.75522269107E+01	6.26252132972E-05	-3.86512755816E+01	3.51673859066E-02	-1.49670029818E+02
7.73206412826E+10	1.45534952391E-01	-8.23143266375E+01	7.00884425783E-05	-1.38419020154E+02	6.53058376511E-05	-3.13066005559E+01	3.43529396073E-02	-1.49737135643E+02
7.73266533066E+10	1.42750249922E-01	-8.33853093009E+01	1.52563662572E-05	9.61693267130E+01	3.65779542344E-05	-2.57512178555E+01	3.45427627609E-02	-1.52083553989E+02
7.73326653307E+10	1.45257769620E-01	-8.55520826549E+01	8.10199815528E-05	-1.58819816427E+02	4.59735741448E-05	1.54981539451E+00	3.41250197003E-02	-1.52849942557E+02
7.73386773547E+10	1.44689502656E-01	-8.42682067659E+01	4.13306301703E-05	-9.80979375177E+01	3.84489977528E-05	-1.52489940404E+02	3.17683796412E-02	-1.49702676393E+02
7.73446893788E+10	1.43139607603E-01	-8.45422441151E+01	3.67531440206E-05	-1.44171286892E+02	7.23550139256E-05	-1.02496745295E+02	3.22866626550E-02	-1.52608815228E+02
7.73507014028E+10	1.44320256610E-01	-8.43434255299E+01	3.06439693707E-05	-2.81948048157E+01	1.19860712160E-05	6.97507675672E+01	3.19459844822E-02	-1.53260885848E+02
7.73567134269E+10	1.41771361615E-01	-8.50766673021E+01	7.84697470384E-05	-3.90968001890E+01	1.90009135041E-05	-1.70589972347E+02	3.09550693333E-02	-1.53326021101E+02
7.73627254509E+10	1.40690941159E-01	-8.14873755483E+01	5.71138774493E-05	-1.63311217451E+02	1.46865147960E-04	-1.06281708328E+02	2.97854573750E-02	-1.53697761359E+02
7.73687374749E+10	1.44683115400E-01	-8.43714508802E+01	7.47345456908E-05	-1.10600711704E+02	6.41109514080E-05	-1.50482949648E+02	2.90380167586E-02	-1.54576119569E+02
7.73747494990E+10	1.43527849850E-01	-8.40331304598E+01	8.73693445453E-05	-1.63707729393E+02	3.39535392505E-05	1.76672883940E+02	2.95647467428E-02	-1.58261441041E+02
7.73807615230E+10	1.40869146480E-01	-8.48834601951E+01	8.74015238319E-05	1.73655244278E+02	1.55129727455E-05	1.10405876241E+02	2.87523221384E-02	-1.58501167033E+02
7.73867735471E+10	1.42245344119E-01	-8.51328504015E+01	3.72296908507E-05	-1.58969390203E+02	3.45342184984E-05	-1.37465056190E+02	2.78717168401E-02	-1.58758314019E+02
7.73927855711E+10	1.43197400218E-01	-8.62960454437E+01	2.36322453693E-05	-1.32951107267E+02	5.96693829032E-05	-1.32007944624E+02	2.60059957218E-02	-1.58459058871E+02
7.73987975952E+10	1.41950135143E-01	-8.68065556972E+01	5.70991578329E-05	-1.69962937816E+02	5.35343980864E-05	6.00472851606E+01	2.49955360963E-02	-1.58133721398E+02
7.74048096192E+10	1.41170162077E-01	-8.34904774996E+01	9.60159423448E-06	1.28384669621E+02	6.27885388552E-05	-1.68989469658E+02	2.54836043909E-02	-1.60231577736E+02
7.74108216433E+10	1.41530943889E-01	-8.63215979661E+01	5.70089732622E-05	1.65719584759E+02	4.56535070730E-05	9.48556318891E+01	2.45785749012E-02	-1.60844507880E+02
7.74168336673E+10	1.40179722173E-01	-8.46919188709E+01	7.27190792486E-05	1.19648654728E+02	1.95842738557E-05	-5.39208637746E+01	2.30751431555E-02	-1.59910868025E+02
7.74228456914E+10	1.40062217561E-01	-8.62409514183E+01	4.03637172521E-05	-1.24658826092E+02	6.51223566713E-05	9.48341776443E+01	2.33925415543E-02	-1.61763021771E+02
7.74288577154E+10	1.41351450886E-01	-8.80540735783E+01	5.21632237222E-05	1.46413606051E+02	3.71142299951E-05	1.30067630512E+02	2.29644037059E-02	-1.65068817844E+02
7.74348697395E+10	1.39386798090E-01	-8.54568895125E+01	1.03369077581E-04	-9.55056127608E+01	4.29663089297E-05	-1.31164266837E+02	2.21380918780E-02	-1.66917905463E+02
7.74408817635E+10	1.39536839707E-01	-8.52405303441E+01	2.86702190793E-05	-1.49612800073E+02	5.62816948575E-06	1.28242338926E+02	2.10210730995E-02	-1.67359962839E+02
7.74468937876E+10	1.39268245597E-01	-8.62193597846E+01	8.63206195982E-05	1.70028253032E+02	8.16979584849E-05	1.45238229018E+02	1.94281954245E-02	-1.65254468070E+02
7.74529058116E+10	1.39175067300E-01	-8.70826497122E+01	6.70258948349E-05	1.08192519098E+02	1.03697402006E-04	1.12721891052E+02	1.97775028906E-02	-1.68129979128E+02
7.74589178357E+10	1.38520209112E-01	-8.77388037183E+01	3.98168683077E-05	1.05353778036E+02	5.49354686470E-05	7.84337804318E+01	1.92033738905E-02	-1.70549393893E+02
7.74649298597E+10	1.38205882622E-01	-8.70112534189E+01	4.80480634131E-05	1.32274405721E+02	5.29228715392E-05	1.09464710845E+02	1.82938056642E-02	-1.73175409409E+02
7.74709418838E+10	1.40517646549E-01	-8.68210310457E+01	6.31907619472E-05	7.40705464164E+01	3.41915615851E-05	5.89618428571E+00	1.74616994057E-02	-1.73602056660E+02
7.74769539078E+10	1.42929278442E-01	-8.71680416340E+01	3.69567259594E-05	5.72711003180E+01	4.81270247613E-05	6.55162266711E+01	1.59831424838E-02	-1.73868041875E+02
7.74829659319E+10	1.39155727449E-01	-8.65729428492E+01	3.91067426884E-05	-1.05627745045E+02	5.89360578381E-05	-6.33899209534E+01	1.53667446217E-02	-1.75754223485E+02
7.74889779559E+10	1.38734297744E-01	-8.55758087247E+01	3.45364542783E-05	-4.62705210948E+01	7.60627976280E-05	-1.03081239363E+02	1.52727023062E-02	-1.77262811672E+02
7.74949899800E+10	1.38133171723E-01	-8.80403886528E+01	6.73500980901E-05	1.18398906254E+02	7.14272091266E-05	1.61821009396E+02	1.50348178680E-02	1.79171688335E+02
7.75010020040E+10	1.36694090252E-01	-8.91291975994E+01	2.46312657093E-05	1.57485028389E+02	1.51487056118E-05	4.39979587453E+01	1.43504136253E-02	1.77538718942E+02
7.75070140281E+10	1.39431492954E-01	-8.66778461188E+01	4.95985783371E-05	1.35649685218E+02	4.82959166261E-05	5.75422021466E+01	1.32815009746E-02	1.74338301078E+02
7.75130260521E+10	1.39492390973E-01	-8.86997745495E+01	1.03883054892E-04	7.14238010519E+01	1.25013241540E-04	6.73331856515E+01	1.20521233511E-02	1.71218895963E+02
7.75190380762E+10	1.38320260202E-01	-8.99390870335E+01	8.16704025909E-05	1.14672975362E+02	7.59159634456E-05	8.41307139702E+01	1.17407787681E-02	1.67360266648E+02
7.75250501002E+10	1.40455969802E-01	-8.95730796674E+01	9.36854544699E-05	7.36128548332E+01	7.98987040022E-05	5.47581908081E+01	1.12893492159E-02	1.65995325538E+02
7.75310621242E+10	1.37416217281E-01	-8.93700689201E+01	2.70075209834E-05	3.38984421590E+01	6.01798386448E-05	6.35183436326E+01	1.02479719382E-02	1.63181815016E+02
7.75370741483E+10	1.37650606543E-01	-8.99654345875E+01	5.68198465859E-05	1.30715970364E+02	1.84531000224E-05	1.38607048299E+02	1.01066393484E-02	1.58751981292E+02
7.75430861723E+10	1.38719819959E-01	-8.80013110122E+01	2.20776141528E-05	1.55272266391E+02	2.11455791680E-05	1.01408512678E+02	9.12260219848E-03	1.54278064101E+02
7.75490981964E+10	1.39824546363E-01	-8.83676944149E+01	8.90512224972E-05	1.00082194777E+02	7.73953571350E-05	1.02796482713E+02	8.95671522916E-03	1.47791503488E+02
7.75551102204E+10	1.38602770193E-01	-8.81119140075E+01	5.79825778349E-05	8.63671954648E+01	7.87051839006E-05	1.00865874126E+02	8.75871467137E-03	1.43508517107E+02
7.75611222445E+10	1.38091996049E-01	-8.85830167939E+01	7.72526196754E-05	4.88447739578E+01	7.17906953614E-05	2.80868004289E+01	8.55393152797E-03	1.40479517577E+02
7.75671342685E+10	1.38621373618E-01	-9.06543512651E+01	7.37943969369E-05	2.27301307132E+01	5.65404958378E-05	5.53269072963E+01	7.80111749215E-03	1.31488876569E+02
7.75731462926E+10	1.36177529667E-01	-9.04582785113E+01	5.89180540348E-05	8.02413692992E+01	7.81501475474E-05	5.47844635632E+01	7.49910559852E-03	1.23894868229E+02
7.75791583166E+10	1.35785103741E-01	-8.81749196565E+01	5.47912292925E-05	1.60985272809E+01	6.08087798827E-05	5.30444101690E+00	7.58002863976E-03	1.22706827320E+02
7.75851703407E+10	1.36610959432E-01	-9.12184696840E+01	5.14100716820E-05	4.31150389113E+01	9.63762134053E-06	3.97599424152E+01	7.69521051334E-03	1.09059555577E+02
7.75911823647E+10	1.37735004430E-01	-9.18293169272E+01	4.96589206709E-05	-1.08404982576E+01	3.74460406895E-05	9.23216142099E+00	7.73172675165E-03	1.05333206424E+02
7.75971943888E+10	1.35310297550E-01	-9.06940412474E+01	1.19058352467E-04	3.71015230663E+01	3.58697237374E-05	1.51087193716E+01	8.09553952132E-03	9.84398712285E+01
7.76032064128E+10	1.33972712795E-01	-8.86324536549E+01	9.89345786064E-05	2.74379151809E+01	5.55131636056E-05	3.40108619530E+01	8.14630297858E-03	9.44228283675E+01
7.76092184369E+10	1.35172469448E-01	-8.81428888207E+01	8.16392210078E-05	-1.37562149275E+01	7.05127933020E-05	-3.00360021803E+00	8.53083720501E-03	8.74270496075E+01
7.76152304609E+10	1.38727175388E-01	-9.16796922361E+01	1.56277089000E-05	3.64866688525E+01	2.21502942914E-05	7.39498649850E+01	9.29894802887E-03	7.94916961642E+01
7.76212424850E+10	1.36241473047E-01	-9.20886420704E+01	1.61016100298E-05	-7.82172187613E+01	3.98469149897E-05	-3.45724910592E+01	9.67406200345E-03	7.56799145903E+01
7.76272545090E+10	1.36422387862E-01	-9.22894530478E+01	4.34753227682E-05	-4.21603254708E+01	5.18139803617E-05	-2.01786842891E+00	9.86317749208E-03	7.27054963589E+01
7.76332665331E+10	1.36582695769E-01	-8.96784377329E+01	5.49190288100E-05	-1.36871054415E+01	2.39459882516E-05	-1.42791430264E+02	1.04022668461E-02	6.93402468626E+01
7.76392785571E+10	1.36046703272E-01	-9.09086399684E+01	5.07620040962E-05	-1.37040351834E+01	6.17103712843E-05	-7.47635152770E+00	1.10142873302E-02	6.56084161901E+01
7.76452905812E+10	1.35896196664E-01	-9.07989535966E+01	8.14382580697E-05	-2.25096928312E+01	1.12057421620E-04	-4.19811916168E+01	1.20677604330E-02	6.04421626106E+01
7.76513026052E+10	1.34994293948E-01	-9.22892514851E+01	1.23270131507E-04	-5.75331184542E+01	1.13914234786E-04	-2.60348151553E+01	1.27908302082E-02	5.83428286745E+01
7.76573146293E+10	1.37748660770E-01	-9.26214760071E+01	1.75191707196E-05	-5.69028682120E+01	4.62039523930E-05	-2.49967024450E+01	1.28695186569E-02	5.54845295473E+01
7.76633266533E+10	1.36127119146E-01	-9.24338152274E+01	1.43404800965E-04	-1.17048613201E+02	8.63138596770E-05	-7.07666272056E+01	1.34093091535E-02	5.19638597480E+01
7.76693386774E+10	1.35140383237E-01	-9.05065844291E+01	7.24141335312E-05	-1.11509824931E+02	9.96754489966E-05	-6.70258002256E+01	1.46520079282E-02	5.20438012075E+01
7.76753507014E+10	1.34473457469E-01	-9.24601572776E+01	2.72237274197E-05	-1.05453665559E+02	5.49081283679E-05	-3.29123906743E+01	1.52853858308E-02	4.99831448441E+01
7.76813627255E+10	1.33801141461E-01	-9.07026256625E+01	1.08338065560E-05	-1.85440751485E+01	2.26427926885E-05	-1.33011386081E+02	1.60445819032E-02	4.74517504557E+01
7.76873747495E+10	1.37711894295E-01	-9.27617655068E+01	7.41899885794E-05	-4.36605645829E+01	1.93543990776E-05	-1.08490078624E+02	1.71841173815E-02	4.45991395837E+01
7.76933867735E+10	1.34309233038E-01	-9.27529083794E+01	6.33858593765E-05	-1.32903498041E+01	8.47078936801E-05	-4.50715960449E+01	1.78214185242E-02	4.38004601938E+01
7.76993987976E+10	1.35707550145E-01	-9.24353738708E+01	5.34127724459E-05	-1.29233105333E+02	9.26676363905E-05	-9.10708612403E+01	1.83358466475E-02	4.23854665757E+01
7.77054108216E+10	1.34621088189E-01	-9.25040390278E+01	1.65836794555E-04	-1.09594133028E+02	8.02744222353E-05	-1.12354700244E+02	1.92599904751E-02	4.13355356764E+01
7.77114228457E+10	1.35619873002E-01	-9.35047465235E+01	1.07777114210E-04	-1.22740070243E+02	8.87449352749E-05	-9.24384503233E+01	1.99087421172E-02	4.04992399730E+01
7.77174348697E+10	1.32719292996E-01	-9.20258570164E+01	1.04744273273E-04	-1.54324701913E+02	5.53784264594E-05	-1.29896709138E+02	2.06294347871E-02	3.78473949124E+01
7.77234468938E+10	1.32033757025E-01	-9.23285466749E+01	4.25725592074E-05	1.66961773831E+02	4.07169291249E-05	1.59229695629E+02	2.13421063596E-02	3.58189942493E+01
7.77294589178E+10	1.36016870499E-01	-9.53685985080E+01	4.47095884325E-05	1.47503827036E+02	3.21107413315E-05	6.38091862226E+01	2.24161999981E-02	3.58766984510E+01
7.77354709419E+10	1.33247633543E-01	-9.49743422803E+01	4.62705352576E-05	9.40194323504E+01	6.52179365657E-05	-1.17130187118E+02	2.32972574000E-02	3.53189126654E+01
7.77414829659E+10	1.33454569926E-01	-9.47395234113E+01	4.58147952931E-05	1.26513177206E+01	3.11737846017E-05	-7.17578015414E+01	2.42010523403E-02	3.42137653146E+01
7.77474949900E+10	1.33934521355E-01	-9.53682992722E+01	3.87974106500E-05	-1.48719410333E+02	5.09476131944E-05	-1.73483220808E+02	2.48520545084E-02	3.23736594239E+01
7.77535070140E+10	1.33473195656E-01	-9.45890943628E+01	6.00363818924E-05	-1.02697226342E+02	5.20732033029E-05	1.47114434467E+02	2.58872061046E-02	3.22762630960E+01
7.77595190381E+10	1.32001782011E-01	-9.27068560752E+01	2.31103499164E-05	-7.55879954593E+01	3.55757407403E-05	1.07679825869E+02	2.64737703469E-02	2.99311863623E+01
7.77655310621E+10	1.31823086334E-01	-9.49773750249E+01	3.79022582545E-05	7.33139004021E+01	4.43747334721E-05	1.75110965779E+02	2.72494563678E-02	2.90901163365E+01
7.77715430862E+10	1.32654515523E-01	-9.42531634676E+01	4.28995435747E-05	1.18820872939E+02	4.33437910223E-05	-5.32394396708E+01	2.80376314958E-02	2.83568343801E+01
7.77775551102E+10	1.34855974775E-01	-9.63768178896E+01	3.31464937133E-05	1.52409976680E+02	2.76543514607E-05	8.66863121667E+01	2.87307554433E-02	2.70069907081E+01
7.77835671343E+10	1.34265906021E-01	-9.62077076402E+01	3.65594188850E-05	-1.13003499784E+02	4.95770594728E-05	-1.60042263343E+02	3.00647330049E-02	2.82115180269E+01
7.77895791583E+10	1.31908035815E-01	-9.43929578932E+01	3.55239591391E-05	-6.40597610357E+01	1.25642274199E-05	-6.88432570697E+00	3.09030002409E-02	2.74331679687E+01
7.77955911824E+10	1.32935440330E-01	-9.47527470915E+01	1.51200319127E-05	-1.05194675677E+02	1.41488485745E-05	-4.48669774329E+01	3.13739772072E-02	2.56821704596E+01
7.78016032064E+10	1.31947106556E-01	-9.55886611121E+01	1.11695573027E-05	5.98667292658E+00	3.25056547514E-05	-1.40084073455E+02	3.22967473693E-02	2.57597202483E+01
7.78076152305E+10	1.31600678296E-01	-9.60593997932E+01	2.26407518611E-05	-1.06156480969E+02	6.67697176567E-05	-5.40465182626E+01	3.32530453703E-02	2.49956512357E+01
7.78136272545E+10	1.34212132393E-01	-9.75335075787E+01	3.46865911353E-05	-4.29623169108E+01	5.63748861064E-06	-1.28302315297E+02	3.43246299992E-02	2.31014753599E+01
7.78196392786E+10	1.33800704991E-01	-9.69748680358E+01	1.01184692635E-05	2.82372958620E+01	5.33092978214E-05	-1.46308200202E+02	3.48336342709E-02	2.38491540302E+01
7.78256513026E+10	1.33626756896E-01	-9.67954241459E+01	7.09731064151E-05	-6.11833342032E+01	4.67400567898E-05	-1.56525048327E+02	3.55805719313E-02	2.33932420005E+01
7.78316633267E+10	1.30572261200E-01	-9.73684198083E+01	3.36950418055E-05	-5.88943089503E+01	4.06276352675E-05	-1.30483203142E+02	3.67527504599E-02	1.98101382405E+01
7.78376753507E+10	1.31524815993E-01	-9.67999410449E+01	8.62312487811E-05	-1.74468676121E+02	6.62971731434E-05	1.63660181596E+02	3.76159681976E-02	1.96199653149E+01
7.78436873747E+10	1.31135815882E-01	-9.54081890031E+01	8.35403145847E-05	-1.59606612343E+02	6.82661808078E-05	1.79958544940E+02	3.83156511498E-02	2.12027385801E+01
7.78496993988E+10	1.31931209434E-01	-9.64465858956E+01	2.19225164243E-05	-1.37599309494E+02	2.39092282695E-05	-1.61112100957E+02	3.92981394192E-02	2.00875414780E+01
7.78557114228E+10	1.29049003239E-01	-9.64809127497E+01	3.73462762821E-05	-1.45673182703E+02	4.74519513828E-05	1.25777432736E+02	4.01200271623E-02	1.76060399817E+01
7.78617234469E+10	1.29581942398E-01	-9.62588289217E+01	7.16306084798E-05	1.46188904554E+02	6.52792784683E-06	3.17218179142E+01	4.10363833104E-02	1.80229131536E+01
7.78677354709E+10	1.30127828386E-01	-9.61413534191E+01	6.80009145536E-05	8.19649436132E+01	9.20546111986E-05	1.15621170639E+02	4.19197654490E-02	1.72586020492E+01
7.78737474950E+10	1.30198109211E-01	-9.60609344443E+01	5.70777692535E-05	5.74299532683E+01	4.38287417005E-05	3.76560725840E+01	4.26018545260E-02	1.82337481352E+01
7.78797595190E+10	1.31043215499E-01	-9.80255950580E+01	5.30717974188E-05	1.16736758445E+02	9.10775189445E-05	3.70337889993E+00	4.32859114438E-02	1.72631622110E+01
7.78857715431E+10	1.29178640412E-01	-9.83553076529E+01	2.16680444224E-05	6.78870414449E+01	2.27593385285E-05	-1.07150805578E+02	4.47010849179E-02	1.45850562574E+01
7.78917835671E+10	1.27760066313E-01	-9.40114642109E+01	5.61039451815E-05	1.07924574274E+02	3.07857704459E-05	7.66770288447E+01	4.49923821433E-02	1.66219396723E+01
7.78977955912E+10	1.30730720057E-01	-9.86436944214E+01	2.59319985136E-05	-1.76883002521E+02	8.79291151800E-05	7.10678036910E+01	4.63990238844E-02	1.50489039954E+01
7.79038076152E+10	1.30438465085E-01	-9.93226427954E+01	1.01374802134E-04	1.09438953192E+02	6.03920370309E-05	7.04330495734E+01	4.71493440647E-02	1.35755171760E+01
7.79098196393E+10	1.30744272596E-01	-9.88058073444E+01	5.98029279512E-05	4.88474622801E+01	1.08093830558E-04	2.92421501164E+01	4.68815469351E-02	1.47218760110E+01
7.79158316633E+10	1.30298000752E-01	-9.86446670560E+01	3.93489866560E-05	6.65045002404E+01	4.60489921629E-05	-7.76266875404E+00	4.81068964583E-02	1.37135322201E+01
7.79218436874E+10	1.31082303125E-01	-1.00340182141E+02	1.37525398866E-04	-3.00970425251E+00	7.96871952843E-05	-1.63137899394E+01	4.94778160866E-02	1.30947496350E+01
7.79278557114E+10	1.29789564048E-01	-9.95933363336E+01	4.05598691341E-05	-7.74563632351E+01	5.26229388913E-05	2.08841920836E+01	5.06239875091E-02	1.25222008632E+01
7.79338677355E+10	1.31446548438E-01	-9.90939598112E+01	5.76768579600E-05	2.08319163685E+01	6.04924189655E-05	-1.62301019301E+02	5.12234650850E-02	1.13099248222E+01
7.79398797595E+10	1.29036613486E-01	-9.84511485510E+01	6.23727256961E-05	5.07153157215E+01	4.49655324381E-05	-2.03411482665E+01	5.17035286765E-02	1.23287379811E+01
7.79458917836E+10	1.29243054461E-01	-9.88681307753E+01	1.63675033322E-05	7.42792128233E+01	6.92002494942E-05	1.77515703867E+02	5.33176358679E-02	1.00618503406E+01
7.79519038076E+10	1.27178117187E-01	-9.93799722384E+01	1.17288259037E-04	6.08581745062E+01	5.40089150996E-05	4.88559605254E+01	5.37588125134E-02	9.34578011303E+00
7.79579158317E+10	1.27801412450E-01	-9.81752102516E+01	6.19920556713E-05	6.67365155763E+01	6.85959563403E-05	2.55830330608E+01	5.46901637740E-02	9.74465846791E+00
7.79639278557E+10	1.30651010078E-01	-1.00384679229E+02	8.33080265905E-05	4.42212925151E+01	6.67129825879E-05	-5.72402522425E+01	5.52107608133E-02	9.40847096869E+00
7.79699398798E+10	1.27193181281E-01	-9.90755429951E+01	8.51912683687E-05	1.61480966460E+01	4.41687808803E-05	1.47101520270E+01	5.69106850869E-02	6.56405255530E+00
7.79759519038E+10	1.29026615725E-01	-1.01070088631E+02	3.93602332813E-05	-3.49192642116E+01	3.56287077568E-05	5.11958772873E+01	5.73603295914E-02	7.28296182173E+00
7.79819639279E+10	1.28927491274E-01	-9.96996681701E+01	6.11308424118E-05	7.34397022226E+00	4.56286660746E-05	-4.55934740154E+01	5.78809744064E-02	8.08442802510E+00
7.79879759519E+10	1.27640600094E-01	-9.95166371904E+01	5.23831428391E-05	-5.24935645293E+01	7.17492265339E-05	-6.15235184503E+01	5.93381506169E-02	6.33284495078E+00
7.79939879760E+10	1.29810132112E-01	-1.01406851297E+02	1.22354491069E-05	-1.51273018416E+02	6.62539361623E-05	-5.91517710832E+01	5.93111051188E-02	6.24055201330E+00
7.80000000000E+10	1.27565120952E-01	-1.00646907185E+02	9.27776770093E-05	-1.22486977657E+02	7.34766493917E-05	-8.32090321021E+01	6.04508231304E-02	5.08735880213E+00
