# Hz S MA R 50
! CMT, C4420, 21421029, 25.1.2/3
! Date: 8/7/2025 4:42:00 PM
! Data: Format (Calibration Info)
! Freq	S33:Mag/Ang(F2)	S43:Mag/Ang(F2)	S34:Mag/Ang(F2)	S44:Mag/Ang(F2)
7.50000000000E+10	2.00689484731E-01	-1.44373370574E+01	4.37199108236E-05	-5.62846624921E+01	8.70676136651E-05	-1.52637285026E+02	3.21395811720E-01	-6.68793692561E+00
7.50060120240E+10	2.00805110784E-01	-1.44278287255E+01	3.23753890601E-05	1.13692501363E+02	6.50599586961E-05	-1.35945120537E+02	3.22336144875E-01	-7.72975282260E+00
7.50120240481E+10	2.02708849017E-01	-1.48755561889E+01	5.29622256303E-05	9.26599970583E+01	2.77353326869E-05	-8.06238208662E+01	3.25286756436E-01	-8.58884816139E+00
7.50180360721E+10	2.01558910587E-01	-1.54050170035E+01	7.21744699248E-05	4.86406714657E+01	9.85818018229E-05	-1.54272647103E+02	3.19571412348E-01	-7.14210765908E+00
7.50240480962E+10	2.01790348466E-01	-1.59744723708E+01	5.18728888263E-05	1.21483894358E+02	5.88801533926E-05	-8.91364031633E+01	3.23946734285E-01	-9.73170188453E+00
7.50300601202E+10	2.00211279462E-01	-1.45949188680E+01	7.54290891641E-05	1.12225085237E+01	5.58569586662E-05	-1.62588321843E+02	3.19858673608E-01	-7.80808093740E+00
7.50360721443E+10	2.01565829059E-01	-1.46724598965E+01	6.95666097166E-05	7.50498324242E+01	1.16321819893E-04	1.71872321052E+02	3.20227018928E-01	-8.22320006567E+00
7.50420841683E+10	2.01188557765E-01	-1.51150124884E+01	8.89836784469E-05	2.14412888432E+00	5.56294776196E-05	1.70559663290E+02	3.20692460903E-01	-9.00125729190E+00
7.50480961924E+10	2.00396909186E-01	-1.78069481268E+01	7.43877191087E-05	2.16579904420E+01	2.37993094399E-05	-1.34883000666E+02	3.16690463742E-01	-9.93166764289E+00
7.50541082164E+10	1.97834095426E-01	-1.72325904781E+01	1.27119360485E-04	3.99512562696E+01	6.34312742132E-05	-1.75860772916E+02	3.17348128905E-01	-8.66623144191E+00
7.50601202405E+10	2.01336005682E-01	-1.62684680875E+01	1.32566759452E-04	2.04349552343E+01	4.14444909087E-05	-1.18694214600E+02	3.25442844246E-01	-1.07704552291E+01
7.50661322645E+10	2.01595802991E-01	-1.56718308955E+01	7.70035981073E-05	-9.88640254282E+00	3.54141389595E-05	-1.61456966835E+02	3.18239771426E-01	-9.56120904996E+00
7.50721442886E+10	1.98456390411E-01	-1.57383185454E+01	5.40486605239E-05	-2.32807810624E+01	6.26052902633E-05	-1.77292337930E+02	3.20396604766E-01	-1.07325978515E+01
7.50781563126E+10	2.00324995646E-01	-1.80596780439E+01	1.05496353736E-04	-4.36318393180E+00	2.55057187759E-05	1.04560117518E+02	3.17007417714E-01	-9.36413871751E+00
7.50841683367E+10	1.96917279933E-01	-1.67050345760E+01	7.26043311148E-05	-2.66980043396E+01	5.53725792452E-05	1.40748145709E+02	3.21967624822E-01	-1.02390214404E+01
7.50901803607E+10	1.99288590208E-01	-1.68877736978E+01	3.98471910530E-05	2.23388074627E+01	4.41874081363E-05	1.72343903768E+02	3.24806419953E-01	-1.11824133751E+01
7.50961923848E+10	2.00670178715E-01	-1.70758614040E+01	4.95409100691E-05	1.95136661316E+01	2.98431981340E-05	1.79909659261E+02	3.20638054961E-01	-1.18340276282E+01
7.51022044088E+10	1.97857937230E-01	-1.68783412655E+01	2.05269805638E-05	1.57651349853E+02	7.61207204468E-05	1.43899763546E+02	3.18743867546E-01	-1.06325715438E+01
7.51082164329E+10	1.96201938838E-01	-1.75939577013E+01	6.98578083798E-05	-6.12218815208E+01	1.11825376356E-04	1.23100717411E+02	3.22818348510E-01	-1.20619877090E+01
7.51142284569E+10	1.96370991760E-01	-1.81146418536E+01	5.53332995301E-05	-5.91908375008E+01	7.27754804126E-05	1.12114886581E+02	3.24897297651E-01	-1.35300385546E+01
7.51202404810E+10	1.99617279541E-01	-2.00075628640E+01	3.51396692705E-05	-1.29006675713E+02	7.15594049912E-05	9.09012523331E+01	3.23228661389E-01	-1.31890572627E+01
7.51262525050E+10	1.98312515839E-01	-2.05776181207E+01	5.30845405439E-05	-1.12270173880E+02	1.00776574410E-04	7.56178146203E+01	3.17228029618E-01	-1.26420517662E+01
7.51322645291E+10	1.98218724158E-01	-1.99289699510E+01	6.67386291017E-05	3.40858933336E+01	5.80013954044E-05	8.17502227269E+01	3.19729343746E-01	-1.21433355116E+01
7.51382765531E+10	1.96601885486E-01	-1.88574443066E+01	5.13351758757E-05	-1.16248955416E+02	1.09218883301E-04	7.77483483358E+01	3.20287979234E-01	-1.35544427365E+01
7.51442885772E+10	1.95118833637E-01	-1.84023757656E+01	4.90176235536E-05	1.18963139103E+01	7.84579301447E-05	5.20652148522E+01	3.24824558970E-01	-1.37013019454E+01
7.51503006012E+10	1.93657141255E-01	-1.78905243665E+01	1.25716700442E-04	-4.25045933510E+01	6.44544880676E-05	7.96374449446E+01	3.21872330509E-01	-1.45233988193E+01
7.51563126253E+10	1.92341801732E-01	-1.86143802407E+01	1.13009339660E-04	-8.81350965770E+01	5.51547232217E-05	7.87909352839E+01	3.16565718538E-01	-1.28742513731E+01
7.51623246493E+10	1.98347921538E-01	-2.13308954089E+01	4.66179650517E-05	-5.46867068008E+01	5.45757864796E-05	2.56867202858E+01	3.19063318057E-01	-1.34289556580E+01
7.51683366733E+10	1.94231043426E-01	-2.05031798822E+01	4.94352817782E-05	-1.11398850159E+02	5.87332187617E-05	1.43076915175E+02	3.24784571526E-01	-1.43160872176E+01
7.51743486974E+10	1.99232725251E-01	-2.19517831300E+01	5.02962763369E-05	-1.49278747407E+02	5.23423891913E-05	1.01947238363E+02	3.24067704336E-01	-1.54696534983E+01
7.51803607214E+10	1.96241727938E-01	-2.08102991326E+01	9.92430209793E-05	-1.00698721592E+02	4.99033840135E-05	5.05590818395E+01	3.21239165573E-01	-1.57672952760E+01
7.51863727455E+10	1.96066322568E-01	-1.99940534841E+01	3.07397414121E-05	4.15948349105E+01	4.20641153273E-05	-2.74469065755E+01	3.18137763109E-01	-1.43211299035E+01
7.51923847695E+10	1.92638526892E-01	-2.02241552107E+01	2.78315662693E-05	3.86358076980E+01	5.98015026390E-05	6.94455402700E+01	3.23206985981E-01	-1.47251686722E+01
7.51983967936E+10	1.94509292481E-01	-2.10107300989E+01	6.38127590883E-05	-3.43736685971E+01	5.96956306544E-05	3.98204597780E+01	3.23257706530E-01	-1.52934351472E+01
7.52044088176E+10	1.96348670149E-01	-2.11235653632E+01	5.04623726834E-05	-4.37066296045E+01	1.16291853086E-04	1.52956061393E+01	3.23141327578E-01	-1.61067767196E+01
7.52104208417E+10	1.94034311740E-01	-2.11679898249E+01	9.74052080350E-05	-8.55695129600E+01	1.22393101490E-04	1.14603866517E+01	3.16747348501E-01	-1.50036830935E+01
7.52164328657E+10	1.92819450254E-01	-1.92000225264E+01	5.49260812199E-05	-6.64310605439E+01	7.51152747381E-05	-2.50782751097E+01	3.23336470648E-01	-1.67517526108E+01
7.52224448898E+10	1.93288733089E-01	-2.14814461854E+01	3.31085191615E-05	1.15621466362E+02	6.10862703587E-05	5.39440291591E+01	3.19738543425E-01	-1.61399087538E+01
7.52284569138E+10	1.95733366124E-01	-2.07790076147E+01	4.16952426332E-05	-8.10182893032E+01	4.00033166851E-05	-2.86141399337E+01	3.18977942831E-01	-1.67879265440E+01
7.52344689379E+10	1.92089459216E-01	-2.12282929141E+01	3.33288212717E-05	-1.04273658597E+02	8.08905892877E-05	-2.32567448909E+01	3.25618711551E-01	-1.83644023481E+01
7.52404809619E+10	1.94847443924E-01	-2.12611695678E+01	5.64040281479E-06	-6.00268411787E+01	8.09293267271E-05	-5.45771913424E+01	3.20780629854E-01	-1.69495530530E+01
7.52464929860E+10	1.94979843105E-01	-2.30166385976E+01	1.12118301990E-04	-1.29820997661E+02	5.54090939486E-05	-3.94737639083E+01	3.18677200848E-01	-1.65018338790E+01
7.52525050100E+10	1.92169440049E-01	-2.34358059916E+01	8.73897395697E-05	-1.62679466286E+02	3.19202425146E-05	1.84620192992E+01	3.22076067057E-01	-1.84859342089E+01
7.52585170341E+10	1.89510248143E-01	-2.01842834639E+01	4.80176555933E-05	-1.23718249266E+02	4.11482839301E-05	-1.28133297721E+01	3.22050989806E-01	-1.81498646452E+01
7.52645290581E+10	1.95312219750E-01	-2.40966196138E+01	7.10126642587E-05	1.46817164680E+02	5.05813739487E-05	-7.84719556438E+01	3.20650571919E-01	-1.74954340183E+01
7.52705410822E+10	1.90870368513E-01	-2.16548152780E+01	3.84919432508E-05	-1.31901611616E+02	6.55318710777E-05	1.91931108680E+01	3.20896191740E-01	-1.85797721981E+01
7.52765531062E+10	1.91207548934E-01	-2.31581145060E+01	8.35369875408E-05	-1.28811576744E+02	7.12846787412E-05	-3.35448795126E+01	3.20215840199E-01	-1.94957397386E+01
7.52825651303E+10	1.90406048092E-01	-2.39420079163E+01	1.02370779458E-04	1.75024047237E+02	3.19762648052E-05	-2.78699928962E+01	3.14867751595E-01	-1.78766969328E+01
7.52885771543E+10	1.89624699629E-01	-2.15490509144E+01	9.06995791937E-05	-1.22538286752E+02	1.35684666277E-04	-2.45194545479E+01	3.24969114202E-01	-2.00101714871E+01
7.52945891784E+10	1.93493622029E-01	-2.35836205214E+01	6.69882212690E-05	-1.27643248146E+02	1.29855472271E-04	-6.48406464906E+01	3.24867368064E-01	-1.99770818433E+01
7.53006012024E+10	1.91612068517E-01	-2.36715001809E+01	1.58742550215E-05	-1.43600289021E+02	5.02188179648E-05	-3.59523702138E+01	3.17798656270E-01	-1.86438593816E+01
7.53066132265E+10	1.89203880240E-01	-2.37835528009E+01	6.73635164040E-05	1.45713888837E+02	1.02482587208E-04	-1.04727296430E+02	3.17990871789E-01	-1.93908111307E+01
7.53126252505E+10	1.89759138798E-01	-2.49180280536E+01	2.89594562408E-05	-5.47487339862E+01	2.48291485356E-05	-1.16355816051E+02	3.16766348461E-01	-2.02284120865E+01
7.53186372745E+10	1.91133949899E-01	-2.42055597051E+01	7.88349992823E-05	-1.32389685430E+02	4.75687604172E-05	1.56941411988E+02	3.22753502323E-01	-2.15228684906E+01
7.53246492986E+10	1.90071373657E-01	-2.35559387384E+01	7.34343081417E-05	-1.45800645262E+02	5.76904194305E-05	-5.82153496402E+01	3.25856805225E-01	-2.14898605967E+01
7.53306613226E+10	1.89297429970E-01	-2.31408654979E+01	9.84978018098E-05	-1.48459140128E+02	1.11094522573E-04	-5.21925951098E+01	3.25765597488E-01	-2.13528191328E+01
7.53366733467E+10	1.87140052649E-01	-2.41341651707E+01	1.13014426378E-04	-1.74182270865E+02	4.94054649923E-05	-8.49827702440E+01	3.16957974458E-01	-2.11894028518E+01
7.53426853707E+10	1.88098009719E-01	-2.38192046357E+01	9.64876687052E-05	1.66363684616E+02	1.25487808592E-04	-6.78134797575E+01	3.17887701999E-01	-2.06664244496E+01
7.53486973948E+10	1.91427958327E-01	-2.39484284167E+01	1.34974582953E-04	8.54957420055E+01	1.26185898692E-04	-1.23006018437E+02	3.18380841999E-01	-2.11908784943E+01
7.53547094188E+10	1.87081949780E-01	-2.25131375347E+01	8.96307992016E-05	1.04008466802E+02	1.01471657666E-04	-1.01239065346E+02	3.23857995402E-01	-2.28840708611E+01
7.53607214429E+10	1.88181843343E-01	-2.38544378955E+01	5.18861816799E-05	1.73256199247E+02	8.01645346443E-05	-1.79027832018E+02	3.24415702441E-01	-2.36126870814E+01
7.53667334669E+10	1.88968016230E-01	-2.48789597825E+01	3.26361611270E-05	-8.15817943927E+01	3.13107095215E-05	-1.02188367950E+02	3.16498576827E-01	-2.19119890069E+01
7.53727454910E+10	1.90980496223E-01	-2.58125957705E+01	4.72630738453E-05	1.79450242649E+02	6.36330839150E-05	-1.57637431601E+02	3.16737256045E-01	-2.17525432714E+01
7.53787575150E+10	1.88896052726E-01	-2.66407530086E+01	5.95505467761E-05	1.33786034080E+02	1.26438821101E-04	-1.01694926259E+02	3.17049619899E-01	-2.21945754966E+01
7.53847695391E+10	1.87573686967E-01	-2.43317823677E+01	7.13648629004E-05	1.32969986365E+02	8.33536352207E-05	-7.52096007669E+01	3.21943103673E-01	-2.37434143412E+01
7.53907815631E+10	1.86807597239E-01	-2.41906258205E+01	7.20177546723E-05	1.17821733507E+02	1.23347469680E-04	-1.18254787913E+02	3.19082289076E-01	-2.35770510919E+01
7.53967935872E+10	1.90243163626E-01	-2.67817188735E+01	3.20197525679E-05	2.64679377329E+01	5.87574000647E-05	-1.25972720145E+02	3.21041016925E-01	-2.33010973106E+01
7.54028056112E+10	1.89741072898E-01	-2.71703672238E+01	7.74159730440E-05	8.18522330162E+01	7.90202915849E-05	-1.26474569539E+02	3.19815988334E-01	-2.32285321814E+01
7.54088176353E+10	1.86405661460E-01	-2.61801293412E+01	3.00226445981E-05	5.57261538196E+01	6.97812137464E-05	-1.55988042256E+02	3.18178599418E-01	-2.37409056584E+01
7.54148296593E+10	1.86304485822E-01	-2.46493488597E+01	3.11607738736E-05	1.32602773204E+02	1.28581032049E-04	-1.46585220767E+02	3.16529043182E-01	-2.49515125832E+01
7.54208416834E+10	1.91261003471E-01	-2.68578397330E+01	5.75394470012E-05	1.58698110686E+02	1.22098439935E-04	-1.64758830929E+02	3.20179272008E-01	-2.46506766936E+01
7.54268537074E+10	1.89288817439E-01	-2.70424957911E+01	6.26727322569E-05	5.22048498840E+01	1.09746864842E-04	-1.32155952179E+02	3.21556484642E-01	-2.48254217178E+01
7.54328657315E+10	1.88267349136E-01	-2.78187435429E+01	5.91345183986E-05	4.21578742663E+01	1.11039169501E-04	-1.29423395948E+02	3.16559036466E-01	-2.42624603052E+01
7.54388777555E+10	1.83591701555E-01	-2.52867693721E+01	6.08408566748E-05	3.84779117296E+01	8.79360173436E-05	-1.64090516616E+02	3.13354470301E-01	-2.45510742825E+01
7.54448897796E+10	1.83690638971E-01	-2.61890287286E+01	7.57244022894E-05	1.05997391325E+02	1.58884053714E-04	-1.70212275925E+02	3.16824993338E-01	-2.53821801248E+01
7.54509018036E+10	1.89588003532E-01	-2.75629491054E+01	8.30870622692E-05	1.34320720407E+02	8.73858322185E-05	1.67959776992E+02	3.17849174350E-01	-2.57879658072E+01
7.54569138277E+10	1.87788032654E-01	-2.75402043403E+01	9.33797669143E-05	9.69997394131E+01	1.12678563201E-04	-1.56232732002E+02	3.20274422157E-01	-2.73750598332E+01
7.54629258517E+10	1.86931396997E-01	-2.61437239288E+01	7.43839485094E-05	2.32939920864E+01	1.15852874265E-04	1.71033466363E+02	3.19764181480E-01	-2.65968441595E+01
7.54689378758E+10	1.88765221299E-01	-2.99328660101E+01	1.06662660540E-04	5.08820759243E+01	1.39559695323E-04	1.70299580156E+02	3.19386834820E-01	-2.63430134569E+01
7.54749498998E+10	1.89310041340E-01	-2.88724148075E+01	8.15249815148E-05	5.82384660994E+01	1.09548405911E-04	1.49504501935E+02	3.16931768614E-01	-2.60116069898E+01
7.54809619238E+10	1.88649748705E-01	-2.85623126873E+01	9.95748286885E-05	4.56697310172E+01	1.23338069455E-04	1.41182118252E+02	3.18883713367E-01	-2.71347122468E+01
7.54869739479E+10	1.89031410706E-01	-2.86648928373E+01	1.21124665910E-04	7.70972652258E+00	1.39922365472E-04	1.36822274407E+02	3.19851229620E-01	-2.85152451089E+01
7.54929859719E+10	1.86069030945E-01	-2.77817244943E+01	9.57301108085E-05	-4.21197839950E+01	1.22925417215E-04	1.58843597776E+02	3.22684513637E-01	-2.87530618428E+01
7.54989979960E+10	1.83663197637E-01	-2.81817292488E+01	8.30254047277E-05	-6.81384897330E+00	1.07009985457E-04	1.78091975240E+02	3.19406904772E-01	-2.79041624260E+01
7.55050100200E+10	1.86709431839E-01	-2.91228342787E+01	1.33531344054E-04	4.64171751238E+01	1.37464432073E-04	1.21666551523E+02	3.19669481789E-01	-2.76236810988E+01
7.55110220441E+10	1.89921466649E-01	-3.01715060649E+01	8.50103084848E-05	-1.70829367722E+01	1.34360634226E-04	1.13313731355E+02	3.21165690753E-01	-2.95318153868E+01
7.55170340681E+10	1.87329413093E-01	-3.03687738632E+01	7.14901603041E-05	1.48186393859E+01	1.79256013640E-04	1.15307142906E+02	3.19630241800E-01	-2.88627761006E+01
7.55230460922E+10	1.86111170659E-01	-3.00528616315E+01	1.20437574054E-04	-2.20494222161E+01	1.10974783845E-04	8.99442677135E+01	3.17328451012E-01	-2.82009038837E+01
7.55290581162E+10	1.85093906217E-01	-2.98603406192E+01	7.40004235803E-05	-2.36455051080E+01	1.96599977581E-04	9.29494229211E+01	3.17393674184E-01	-2.86601048030E+01
7.55350701403E+10	1.87719876723E-01	-3.04809468615E+01	7.35804818309E-05	-5.56842842748E+00	1.34947155078E-04	7.29569146015E+01	3.15871923087E-01	-2.95678490393E+01
7.55410821643E+10	1.86129062631E-01	-2.97428966629E+01	9.63676242484E-05	-4.62510838784E+01	1.10639826104E-04	9.38418434147E+01	3.21859071538E-01	-3.07808555343E+01
7.55470941884E+10	1.87384380121E-01	-3.02583857570E+01	1.07290496553E-04	-3.97828349652E+01	1.20398883016E-04	6.87659640289E+01	3.16766394409E-01	-2.94389172606E+01
7.55531062124E+10	1.84886236442E-01	-2.85773067275E+01	6.37893707266E-05	-1.43623858576E+01	1.50556264079E-04	8.16344851377E+01	3.19962842411E-01	-3.01425732130E+01
7.55591182365E+10	1.85898296100E-01	-3.20477779159E+01	7.44288879971E-05	-5.71108297159E+01	1.16974954323E-04	6.59087885580E+01	3.18007876247E-01	-3.15032041423E+01
7.55651302605E+10	1.86319201927E-01	-3.19558899362E+01	5.11164312733E-05	-9.87200404664E+01	1.29381656670E-04	4.92549327176E+01	3.17749396022E-01	-3.09824511995E+01
7.55711422846E+10	1.90594228315E-01	-3.25587940952E+01	7.55749273317E-05	-7.06803412620E+01	1.53643954892E-04	4.19292951436E+01	3.21099036173E-01	-3.11441763678E+01
7.55771543086E+10	1.83583641381E-01	-2.95165623042E+01	1.08676512525E-04	-9.18124324555E+01	8.68203753984E-05	4.71025038586E+01	3.18426259118E-01	-3.10116066199E+01
7.55831663327E+10	1.83467494462E-01	-3.19174293742E+01	7.18065434587E-05	-5.00952420590E+01	1.94334872516E-04	4.89908801238E+01	3.14608140487E-01	-3.09105996152E+01
7.55891783567E+10	1.84178320080E-01	-3.07209373797E+01	6.25793658822E-05	-1.93410277686E+01	1.72363000981E-04	3.95278211970E+01	3.16655697440E-01	-3.16866235607E+01
7.55951903808E+10	1.86556971817E-01	-3.31374724167E+01	7.07101588901E-05	-6.68548039528E+01	1.69647854791E-04	1.59044818872E+01	3.20443453229E-01	-3.21774279058E+01
7.56012024048E+10	1.90838481149E-01	-3.39754807411E+01	8.25485479781E-05	-7.09932555847E+01	1.86346762839E-04	1.59518063984E+01	3.19755468488E-01	-3.25009597202E+01
7.56072144289E+10	1.85881480223E-01	-3.23018736525E+01	9.21509286621E-05	-1.12484935468E+02	1.07289626527E-04	-1.12683786839E+01	3.16254907037E-01	-3.33298642686E+01
7.56132264529E+10	1.83897901883E-01	-3.14214733320E+01	3.48549778084E-05	6.12473631401E-01	1.03172659865E-04	-3.28623436229E+00	3.19558746064E-01	-3.33135373331E+01
7.56192384770E+10	1.82863881886E-01	-3.26106519959E+01	1.25321098137E-04	-1.60239461695E+02	1.38317555206E-04	6.02764919416E+00	3.16615517766E-01	-3.21413989269E+01
7.56252505010E+10	1.83822503315E-01	-3.25715141873E+01	1.08663380676E-04	-1.59670528520E+02	1.55788230471E-04	1.11167477630E+00	3.20472690897E-01	-3.38891548626E+01
7.56312625251E+10	1.84524824455E-01	-3.18850443436E+01	3.20650878280E-05	1.72299199549E+02	1.62364690142E-04	-1.66401280485E+01	3.16618875265E-01	-3.43111904071E+01
7.56372745491E+10	1.85254340800E-01	-3.34773570446E+01	8.35521712960E-05	1.78777132046E+02	1.30611840965E-04	-1.19922645277E+01	3.15912747277E-01	-3.33811801819E+01
7.56432865731E+10	1.83480705093E-01	-3.44432273352E+01	7.19125640833E-05	1.70335102157E+02	1.19387192306E-04	2.03369272210E+01	3.20053688658E-01	-3.38058890364E+01
7.56492985972E+10	1.85457877433E-01	-3.49455917897E+01	1.23031223220E-04	-1.55220455288E+02	1.83752024870E-04	-2.15890658417E+01	3.16385087224E-01	-3.44389442263E+01
7.56553106212E+10	1.86789423303E-01	-3.49697039985E+01	1.19219643066E-04	1.79412600118E+02	1.41004624890E-04	-3.81043160117E+01	3.17469007616E-01	-3.51934954790E+01
7.56613226453E+10	1.84762098521E-01	-3.30994484893E+01	4.19069968423E-05	-1.33151578522E+02	1.09545166543E-04	-4.12370071527E+01	3.15975245031E-01	-3.45078165001E+01
7.56673346693E+10	1.85261534212E-01	-3.47269456884E+01	1.48819610471E-04	-1.49315375884E+02	1.25679080817E-04	-6.00923589134E+01	3.19122294636E-01	-3.50198365521E+01
7.56733466934E+10	1.84253608042E-01	-3.55511417604E+01	1.05698912553E-04	-1.68897760410E+02	1.33323962120E-04	-6.33998518826E+01	3.15968404913E-01	-3.53861486304E+01
7.56793587174E+10	1.83225749666E-01	-3.56852479328E+01	1.28794564100E-04	1.79838753443E+02	1.08747215748E-04	-8.15237903106E+01	3.12891241360E-01	-3.52598986408E+01
7.56853707415E+10	1.82583370083E-01	-3.51190707041E+01	6.86400872949E-05	1.51757634216E+02	5.60166743645E-05	-4.76420075787E+01	3.20679732818E-01	-3.65982364109E+01
7.56913827655E+10	1.83901668175E-01	-3.59651895612E+01	9.54247980902E-05	1.40435025925E+02	9.59161930505E-05	-4.28535025979E+01	3.15466366129E-01	-3.58322411174E+01
7.56973947896E+10	1.83502691847E-01	-3.57671830883E+01	7.65799756637E-05	1.23400282146E+02	9.39526133433E-05	-6.41295673318E+01	3.11478778287E-01	-3.58273016264E+01
7.57034068136E+10	1.84439180543E-01	-3.50315177086E+01	8.50863093616E-05	9.28845094621E+01	1.56422944530E-04	-6.71443402214E+01	3.10535850821E-01	-3.54869715066E+01
7.57094188377E+10	1.81778134526E-01	-3.62651975218E+01	9.61885417717E-05	5.82975488044E+01	2.24226090632E-04	-7.44528507901E+01	3.14443679694E-01	-3.68536908509E+01
7.57154308617E+10	1.82812730596E-01	-3.66684604952E+01	7.63997701416E-05	1.29841877512E+02	2.17907022634E-04	-9.53123367301E+01	3.17658344785E-01	-3.75362809628E+01
7.57214428858E+10	1.84785839434E-01	-3.64473344291E+01	1.82589205559E-05	-8.37484720928E+01	1.40511527373E-04	-9.11034352487E+01	3.20924628806E-01	-3.81625295186E+01
7.57274549098E+10	1.86402918506E-01	-3.76912987590E+01	8.74044506960E-05	1.49117097430E+02	1.73930678696E-04	-1.06933123293E+02	3.14860446348E-01	-3.78778183949E+01
7.57334669339E+10	1.83884117316E-01	-3.82592145583E+01	5.11486575092E-05	1.56828439343E+02	9.57851520014E-05	-1.54789507605E+02	3.16546577940E-01	-3.77943350281E+01
7.57394789579E+10	1.80131877378E-01	-3.70735015766E+01	8.58823420600E-05	1.10892342141E+02	1.39420261119E-04	-1.54117267171E+02	3.15886365114E-01	-3.81697965706E+01
7.57454909820E+10	1.81462003852E-01	-3.66476527883E+01	1.02713119727E-04	8.97763487882E+01	6.33677128850E-05	-8.48889228018E+01	3.12934260561E-01	-3.82365888447E+01
7.57515030060E+10	1.81504330509E-01	-3.52546731491E+01	1.46476400932E-04	5.53229511713E+01	9.88220614187E-05	-9.62623111323E+01	3.20579803494E-01	-3.96953222610E+01
7.57575150301E+10	1.81258052712E-01	-3.66405382236E+01	5.91608354317E-05	4.76494725650E+01	1.17332025231E-04	-1.20629638522E+02	3.16475872931E-01	-3.98762280676E+01
7.57635270541E+10	1.80703545726E-01	-3.81141764114E+01	8.04066068712E-05	8.75948325268E+01	1.39672446991E-04	-1.36917470934E+02	3.12388760433E-01	-3.97795618084E+01
7.57695390782E+10	1.81729800221E-01	-3.88593256755E+01	7.93053623299E-05	7.31361315581E+01	1.90480169882E-04	-1.40701240524E+02	3.17771520509E-01	-3.88404602477E+01
7.57755511022E+10	1.83071623935E-01	-3.99638138172E+01	9.90326375061E-05	4.43027179807E+01	1.55621363865E-04	-1.63955909777E+02	3.15933146749E-01	-3.97070780035E+01
7.57815631263E+10	1.81486652075E-01	-3.90577791353E+01	3.82502409606E-05	-2.26697815268E+01	1.95033070704E-04	1.63918266121E+02	3.13873658836E-01	-3.99390324095E+01
7.57875751503E+10	1.80338058321E-01	-3.92632463390E+01	1.24043325237E-04	3.54000521540E+01	1.71771721955E-04	-1.73619355376E+02	3.11875154737E-01	-4.01722399579E+01
7.57935871743E+10	1.83109563128E-01	-3.95359705238E+01	6.72330986377E-05	-1.00059493400E+01	1.01376826534E-04	1.79869399717E+02	3.13935256902E-01	-3.99076889889E+01
7.57995991984E+10	1.76927114761E-01	-3.85586561141E+01	9.21294892059E-05	1.51959099918E+01	6.22019917099E-05	1.76318232588E+02	3.14225206031E-01	-4.00361777597E+01
7.58056112224E+10	1.79973067155E-01	-3.85171763468E+01	1.35378088382E-04	1.30228570190E+01	9.37886104430E-05	-1.60808145611E+02	3.16133314946E-01	-4.21172823371E+01
7.58116232465E+10	1.82965403079E-01	-3.97121166673E+01	4.74332462113E-05	-1.87863959534E+01	1.31936200026E-04	-1.79189466253E+02	3.11744838157E-01	-4.08726686665E+01
7.58176352705E+10	1.79383303879E-01	-3.94138620523E+01	2.48342050684E-05	-2.71649126817E-01	1.43567646770E-04	1.74954333918E+02	3.08998613867E-01	-4.03342929971E+01
7.58236472946E+10	1.81883457941E-01	-4.16666369868E+01	8.98857635633E-05	-4.40913724794E+01	1.90251832810E-04	1.50539785389E+02	3.11738356091E-01	-4.09623093036E+01
7.58296593186E+10	1.80483221856E-01	-4.11643863422E+01	9.63664011484E-05	-4.63896220241E+01	1.01406403188E-04	1.28649023559E+02	3.16926542427E-01	-4.24435180947E+01
7.58356713427E+10	1.80224908888E-01	-4.08550111033E+01	4.72662332784E-05	-5.41219725786E+01	2.02388677570E-04	1.28433815812E+02	3.13290677179E-01	-4.26051084632E+01
7.58416833667E+10	1.77682790112E-01	-3.91866267630E+01	3.81116141169E-05	4.05568593940E+01	1.25886371654E-04	1.16490995444E+02	3.08275257716E-01	-4.15632260610E+01
7.58476953908E+10	1.77967989895E-01	-4.09626918576E+01	7.17755505334E-05	-3.39410018375E+00	1.16893252990E-04	9.14589330367E+01	3.06976013438E-01	-4.18784501235E+01
7.58537074148E+10	1.79728082244E-01	-4.00116036330E+01	1.35485909107E-04	4.06403942729E+00	1.19124333338E-04	1.14102581645E+02	3.14419554732E-01	-4.28425415915E+01
7.58597194389E+10	1.79793775720E-01	-4.01064226652E+01	6.74582732221E-05	-3.54407127414E+01	7.70583814706E-05	9.91774439185E+01	3.13174713015E-01	-4.44193386089E+01
7.58657314629E+10	1.78698603452E-01	-4.08026540682E+01	1.16588632261E-04	-3.78048650651E+01	4.74113512921E-05	1.36422493544E+02	3.12947494877E-01	-4.30215853825E+01
7.58717434870E+10	1.76416426045E-01	-4.18704293544E+01	1.45666778168E-04	-4.06989579021E+01	1.37788009653E-04	8.39365504353E+01	3.10268546107E-01	-4.22960200240E+01
7.58777555110E+10	1.75691203527E-01	-3.91972378045E+01	5.21646947309E-05	-6.85740036019E+01	4.62930337045E-05	1.21173223848E+02	3.14861400026E-01	-4.37105775936E+01
7.58837675351E+10	1.74394263011E-01	-4.05734116170E+01	6.83100735896E-05	-1.00105302491E+02	8.31957132028E-05	7.93165865149E+01	3.12335329636E-01	-4.47576197697E+01
7.58897795591E+10	1.77570610189E-01	-4.20909055106E+01	1.30636475352E-04	-1.44912683385E+02	1.20709708132E-04	8.54993165334E+01	3.11742092163E-01	-4.46179316523E+01
7.58957915832E+10	1.78744970734E-01	-4.36883681052E+01	6.02824105033E-05	-1.08349513427E+02	1.37108122221E-04	8.49195915428E+01	3.06149762436E-01	-4.37827187296E+01
7.59018036072E+10	1.78969742952E-01	-4.31301348098E+01	7.78879412329E-05	-1.73512128375E+02	9.73172923787E-05	8.51086143045E+01	3.09840440171E-01	-4.45947738308E+01
7.59078156313E+10	1.75445893008E-01	-4.04422575201E+01	3.79253560043E-05	1.50643452226E+02	8.45721163121E-05	6.51368384511E+01	3.13104274571E-01	-4.56229939359E+01
7.59138276553E+10	1.76896610526E-01	-4.38222643672E+01	8.97211156245E-05	-1.09495643844E+02	1.32891738016E-04	8.35360616041E+01	3.11290019215E-01	-4.57927428709E+01
7.59198396794E+10	1.79814107143E-01	-4.35034633612E+01	7.20415146191E-05	1.75535351663E+02	1.38423742588E-04	4.50659817666E+01	3.10906253840E-01	-4.55968515969E+01
7.59258517034E+10	1.77863820536E-01	-4.27411020448E+01	1.05676096192E-05	-5.12854787819E+01	1.33296895802E-04	3.84544381242E+01	3.10688615373E-01	-4.52337528618E+01
7.59318637275E+10	1.76533391630E-01	-4.32677960959E+01	6.17956468825E-05	-1.36465457399E+02	5.78981172500E-05	9.64089577693E+00	3.13925526922E-01	-4.62990140202E+01
7.59378757515E+10	1.74284157942E-01	-4.34014476344E+01	3.14144406302E-05	-9.62745585795E+01	4.89383408098E-05	1.90523270664E+01	3.08781323476E-01	-4.53904180563E+01
7.59438877756E+10	1.77082790968E-01	-4.30173756153E+01	1.16935740454E-04	-1.05414177306E+02	1.05783707760E-04	5.46949787280E+01	3.11687086892E-01	-4.62827585757E+01
7.59498997996E+10	1.77359827933E-01	-4.28971725150E+01	8.83877902172E-05	-1.56208899784E+02	8.89876704511E-05	1.60354492040E+01	3.11471497327E-01	-4.73474723048E+01
7.59559118236E+10	1.76303277797E-01	-4.27918078255E+01	1.31505330706E-04	-1.25257966670E+02	9.26825436219E-05	-3.73016662703E+01	3.09750140895E-01	-4.67219555251E+01
7.59619238477E+10	1.75143162254E-01	-4.43626087531E+01	6.03702531452E-05	-1.72878871272E+02	8.13803973681E-05	-6.15379599830E+01	3.07030351663E-01	-4.65253670543E+01
7.59679358717E+10	1.75238196012E-01	-4.38831266147E+01	3.20370497109E-05	-1.29994441808E+02	7.51009336627E-05	-2.75774305010E+01	3.07103662968E-01	-4.73590446789E+01
7.59739478958E+10	1.77687882667E-01	-4.44101665000E+01	3.07650481888E-05	-1.37261486004E+02	9.44031374060E-05	-3.42139240946E+01	3.09391223800E-01	-4.79323313922E+01
7.59799599198E+10	1.78150551767E-01	-4.56814478033E+01	1.03908040516E-04	1.79608553318E+02	1.50994469900E-04	-3.10502766982E+01	3.13568019165E-01	-4.88036023021E+01
7.59859719439E+10	1.73341971368E-01	-4.51294572694E+01	1.39121730634E-04	1.66574030527E+02	9.52407658118E-05	-2.29494547598E+01	3.07374289748E-01	-4.75385048869E+01
7.59919839679E+10	1.75491877811E-01	-4.41381690798E+01	9.42270210564E-05	9.33817598176E+01	6.98869170825E-05	-4.68975727071E+01	3.11427279698E-01	-4.86592978130E+01
7.59979959920E+10	1.77130945322E-01	-4.50506906619E+01	5.63771159124E-05	1.41515354998E+02	8.44004610931E-05	-2.45883348195E+01	3.06271816735E-01	-4.85380286571E+01
7.60040080160E+10	1.75063465194E-01	-4.56184449019E+01	6.30132891424E-05	1.58152651378E+02	9.80376245131E-05	-2.55944686460E+01	3.13819995704E-01	-5.01917101528E+01
7.60100200401E+10	1.75731783146E-01	-4.71420812843E+01	1.74881958694E-05	1.16159851203E+02	1.10209628261E-04	-4.96431300169E+01	3.08537331781E-01	-4.98073012677E+01
7.60160320641E+10	1.73760560429E-01	-4.58971158296E+01	7.44695641491E-05	1.45972583953E+02	1.18367982736E-04	-2.90588707696E+01	3.11896625658E-01	-4.94142708935E+01
7.60220440882E+10	1.73480343212E-01	-4.53836972808E+01	7.23267572200E-05	-1.61250196490E+02	1.40344772927E-04	-7.38907826062E+01	3.09472265160E-01	-4.91072791393E+01
7.60280561122E+10	1.73837910465E-01	-4.54090309596E+01	8.58098665798E-05	-1.63299250058E+02	8.66980049625E-05	-6.77486732863E+01	3.04778691567E-01	-4.94980735045E+01
7.60340681363E+10	1.72962258205E-01	-4.43848411064E+01	4.41042859620E-05	1.19969797572E+02	1.38501403968E-04	-1.09671296706E+02	3.05271063210E-01	-5.01851176831E+01
7.60400801603E+10	1.72900551359E-01	-4.53866214780E+01	9.42786854512E-05	1.62248427378E+02	1.60659819181E-04	-1.17623484012E+02	3.11679711194E-01	-5.19056821224E+01
7.60460921844E+10	1.72214847910E-01	-4.52146824560E+01	1.24339665692E-04	9.23154903374E+01	3.79676496962E-05	-1.00537646977E+02	3.06355815662E-01	-4.97105461370E+01
7.60521042084E+10	1.70440935139E-01	-4.46654886928E+01	9.40079746180E-05	8.82565086718E+01	4.84848330666E-05	-7.46141747321E+01	3.06910545794E-01	-5.03921198171E+01
7.60581162325E+10	1.72391005766E-01	-4.72005635636E+01	8.28329440364E-05	1.37359000669E+02	9.35988079042E-05	-1.13231225336E+02	3.11467581377E-01	-5.18839765461E+01
7.60641282565E+10	1.74386118434E-01	-4.76957418028E+01	1.54000537421E-04	1.17890624252E+02	5.39297175713E-05	-6.63676884625E+01	3.04880523810E-01	-5.10707796290E+01
7.60701402806E+10	1.71844485492E-01	-4.66433435299E+01	1.20518193700E-04	9.96271606672E+01	9.02476762359E-05	-1.50847083295E+02	3.04498980891E-01	-5.04698687338E+01
7.60761523046E+10	1.73017747231E-01	-4.86127851191E+01	9.71967844463E-05	7.35587050094E+01	4.71891913933E-05	-1.13601007667E+02	3.06017627683E-01	-5.14293138179E+01
7.60821643287E+10	1.74231185405E-01	-4.75860455453E+01	1.11553266900E-04	6.38609299005E+01	6.43301114162E-05	-1.31441164053E+02	3.03048178371E-01	-5.06089353524E+01
7.60881763527E+10	1.73162729503E-01	-4.60921550978E+01	1.42809224106E-04	5.80113002476E+01	6.04538623517E-05	-9.38749264902E+01	3.10788883859E-01	-5.37604690213E+01
7.60941883768E+10	1.70506834442E-01	-4.71612563124E+01	1.26341533855E-04	1.01721840074E+01	1.10315995661E-04	-1.32535141141E+02	3.04539232369E-01	-5.20712938515E+01
7.61002004008E+10	1.71406709434E-01	-4.70174135309E+01	9.50862704672E-05	-9.09011423573E+00	1.14196101878E-04	-1.47743267656E+02	3.02327740595E-01	-5.15536982418E+01
7.61062124248E+10	1.73787439632E-01	-4.82958623469E+01	5.36686815053E-05	2.20921434495E+01	1.08778352033E-04	-1.72383709905E+02	3.02452853751E-01	-5.18986971554E+01
7.61122244489E+10	1.70486897705E-01	-4.90817409117E+01	3.87427243586E-05	-1.21111689931E+02	1.59175823662E-05	1.04519312379E+02	3.05069540952E-01	-5.33365059397E+01
7.61182364729E+10	1.73990879198E-01	-4.96562901731E+01	6.32813743739E-05	1.33296326837E+02	8.71873416569E-05	1.67419105434E+02	3.08429425802E-01	-5.44741993740E+01
7.61242484970E+10	1.68413998655E-01	-4.59987085195E+01	5.56945542642E-05	8.63753496908E+01	7.29033519703E-05	1.41444922072E+02	3.08768032690E-01	-5.47624106115E+01
7.61302605210E+10	1.69974328297E-01	-4.77348601870E+01	1.00895978959E-04	7.35422900636E+01	5.21436865514E-05	1.18724911802E+02	3.04555876753E-01	-5.36847488395E+01
7.61362725451E+10	1.70603268533E-01	-4.95114101015E+01	8.57804923313E-05	6.70883484893E+01	7.17227684905E-05	8.14661736423E+01	3.01821941978E-01	-5.37144537932E+01
7.61422845691E+10	1.72826230701E-01	-4.99593376797E+01	1.13528492417E-04	3.63356411666E-01	4.53465747267E-05	9.18485567850E+01	3.01867074065E-01	-5.39675634279E+01
7.61482965932E+10	1.68429437078E-01	-4.88318686340E+01	8.21328194056E-05	-1.13483272588E+01	3.74042623459E-05	1.33132669091E+02	3.10669668333E-01	-5.60901562947E+01
7.61543086172E+10	1.72571239537E-01	-4.79433839720E+01	1.12397660002E-04	-1.96423961430E+01	6.25397291580E-05	1.22074110086E+02	3.06993482743E-01	-5.53294605742E+01
7.61603206413E+10	1.69748151988E-01	-4.73937876596E+01	1.12587083807E-04	2.66190167177E+01	6.99446379056E-05	1.27985050878E+02	3.08220505197E-01	-5.55792784873E+01
7.61663326653E+10	1.69275259604E-01	-4.77228281573E+01	6.43607800416E-05	2.85738535802E+01	6.00570373933E-05	7.19381553174E+01	3.02902516668E-01	-5.46772248671E+01
7.61723446894E+10	1.71811442678E-01	-4.95165755900E+01	1.20506923203E-04	2.88498216831E+01	2.11953518179E-05	-7.95793261301E+01	3.06624637925E-01	-5.64191836463E+01
7.61783567134E+10	1.72024516518E-01	-5.07085822770E+01	4.52580645895E-05	-8.86909738825E+00	5.37768521486E-05	2.91448229754E+01	3.02464747962E-01	-5.51428317642E+01
7.61843687375E+10	1.69688286003E-01	-5.10051524698E+01	6.57031593825E-05	1.34921394874E+01	5.44144701658E-05	-6.19790410636E+01	3.05862230782E-01	-5.69180649138E+01
7.61903807615E+10	1.70296092372E-01	-5.12544897005E+01	7.54299422644E-05	-2.13265422753E+00	2.41189328262E-05	1.41415963420E+02	3.04825600597E-01	-5.67616254123E+01
7.61963927856E+10	1.69899747589E-01	-4.80368879272E+01	8.03731277569E-05	-8.32493908881E+00	7.01488816864E-05	1.70316227771E+02	3.01793823339E-01	-5.59654709256E+01
7.62024048096E+10	1.67467293255E-01	-5.06762399826E+01	3.53207547808E-05	-3.56807097169E+01	4.78254444842E-05	1.08993583233E+02	3.03941291372E-01	-5.64145682682E+01
7.62084168337E+10	1.67951618105E-01	-5.01828548748E+01	1.06085449450E-04	5.14535421497E-01	7.16333832725E-05	1.66240941482E+02	3.01614238393E-01	-5.64422779062E+01
7.62144288577E+10	1.68561371797E-01	-5.04813765881E+01	1.19973014551E-05	-1.29467930851E+02	1.03514848580E-04	3.46090779913E+01	3.07288475983E-01	-5.80055475475E+01
7.62204408818E+10	1.69781769886E-01	-5.15780550015E+01	3.54134188366E-05	3.85650945031E+01	6.64414157253E-05	7.30554645291E+00	3.03051304572E-01	-5.72139699943E+01
7.62264529058E+10	1.70088320937E-01	-5.28118360794E+01	1.28839436621E-04	-4.83369253270E+01	1.05678188004E-04	-6.38370035768E+01	3.00954788202E-01	-5.72547794062E+01
7.62324649299E+10	1.68682597283E-01	-5.22544681971E+01	1.13809479661E-04	-3.95203722471E+01	5.76029587154E-05	-1.58104759700E+02	3.01443386990E-01	-5.73065061707E+01
7.62384769539E+10	1.67112881986E-01	-4.92000617406E+01	1.46129543102E-04	-4.46462666325E+01	5.37960714535E-05	-8.90589136511E+01	3.00052809886E-01	-5.75840391945E+01
7.62444889780E+10	1.67388988513E-01	-5.14757345174E+01	1.45916082377E-04	-6.79436570017E+01	6.42764056568E-05	-1.83680135878E+01	3.01634170257E-01	-5.81069316128E+01
7.62505010020E+10	1.69683188959E-01	-5.19746754089E+01	1.54890499066E-04	-8.58977534116E+01	2.87224371603E-05	-1.07232475853E+02	3.05437962269E-01	-5.92568564197E+01
7.62565130261E+10	1.69064440388E-01	-5.22783375872E+01	7.54546749674E-05	-1.35612984618E+02	2.27850693197E-05	-4.11152853945E+01	3.03554616506E-01	-5.90960719143E+01
7.62625250501E+10	1.67885686440E-01	-5.14285078765E+01	1.57454229152E-05	1.64847617898E+00	2.79809207127E-05	-1.45272583794E+02	3.08245581896E-01	-5.96319979687E+01
7.62685370741E+10	1.67725119316E-01	-5.13710037047E+01	4.48719654170E-05	-9.35772585862E+01	2.43634523479E-05	-1.65001529031E+02	3.01421976351E-01	-5.87970285492E+01
7.62745490982E+10	1.67146250402E-01	-5.22759565425E+01	1.13931311797E-04	-7.34654009371E+01	2.95296484143E-05	1.30393783143E+02	3.05318205256E-01	-5.93702767037E+01
7.62805611222E+10	1.69451368097E-01	-5.27566187082E+01	1.45158529174E-04	-8.91592015517E+01	3.42144410152E-05	6.27650798430E+01	3.03356053837E-01	-6.01236123278E+01
7.62865731463E+10	1.68564182378E-01	-5.24474513235E+01	1.11096918731E-04	-1.09216343188E+02	1.77441334741E-05	-4.22377196866E+00	3.02960864953E-01	-6.03659333092E+01
7.62925851703E+10	1.67036720690E-01	-5.28328851356E+01	4.78032972478E-05	4.95810413655E+01	1.14891567167E-04	-1.18578270647E+02	2.98627466878E-01	-5.90664342779E+01
7.62985971944E+10	1.68876785217E-01	-5.40910757977E+01	8.01369685845E-05	-2.04071424752E+00	4.06905341225E-05	-8.57401307992E+01	3.00020101784E-01	-5.96255700952E+01
7.63046092184E+10	1.67429401168E-01	-5.53420105455E+01	1.23842957261E-04	-4.73808240417E+01	2.31796247735E-05	1.61601149287E+02	3.04159074140E-01	-6.07718378898E+01
7.63106212425E+10	1.67826368116E-01	-5.47638856391E+01	1.24118897920E-04	-4.24692032919E+01	1.03660168301E-05	-1.33810277248E+02	3.07574513508E-01	-6.22316060629E+01
7.63166332665E+10	1.65751834282E-01	-5.43135594641E+01	1.19657814396E-04	-9.86715807658E+01	5.08106630988E-05	1.66996798453E+02	3.03145614421E-01	-6.15810508765E+01
7.63226452906E+10	1.69278361697E-01	-5.32199493531E+01	5.99765685428E-05	-9.35389318386E+01	1.10518010104E-04	-1.28850546945E+02	3.01440922724E-01	-6.14515356343E+01
7.63286573146E+10	1.65772348363E-01	-5.31278622342E+01	8.90138647761E-05	-9.54941582202E+01	6.86030739429E-05	1.51614676066E+02	2.99389261724E-01	-6.08578051977E+01
7.63346693387E+10	1.65368395244E-01	-5.39930402126E+01	5.02214555077E-05	1.36821918337E+02	7.86713803074E-05	1.65903402741E+02	3.05621082342E-01	-6.22447377056E+01
7.63406813627E+10	1.64888420981E-01	-5.16743511440E+01	1.07742919835E-04	1.36831182556E+02	1.51460409735E-04	1.47176210164E+02	3.03453074225E-01	-6.28690060518E+01
7.63466933868E+10	1.69010569001E-01	-5.55332438549E+01	6.70330818848E-05	-4.27163948311E+01	3.08489423728E-05	7.67450115534E+01	3.02990219897E-01	-6.28204067324E+01
7.63527054108E+10	1.65760724538E-01	-5.43740314904E+01	1.28490905568E-04	-4.50315445593E+01	7.79641217031E-05	1.66324608660E+02	3.03982529480E-01	-6.26291542139E+01
7.63587174349E+10	1.63972007880E-01	-5.14325011697E+01	4.32799456444E-05	-1.04418198969E+02	3.68326410071E-05	-3.88844061268E+01	3.03779144313E-01	-6.25873384799E+01
7.63647294589E+10	1.66353181136E-01	-5.37595845415E+01	1.06237223099E-04	-1.17773803109E+02	7.56620904517E-05	1.40181506354E+02	3.01675298460E-01	-6.26745146644E+01
7.63707414830E+10	1.66843166836E-01	-5.47279327359E+01	9.88896409285E-05	-1.69641494034E+02	4.93604002806E-05	1.25300210566E+02	3.02860228525E-01	-6.39634149531E+01
7.63767535070E+10	1.66631258259E-01	-5.55077268626E+01	6.38604044232E-05	-1.38455079482E+02	7.49769200601E-05	1.70028199174E+02	3.06387206351E-01	-6.45148247823E+01
7.63827655311E+10	1.66445740960E-01	-5.68254329734E+01	6.04742048193E-05	-4.35307170582E+01	1.64502949454E-05	6.18808440575E+01	3.05113292272E-01	-6.44721403061E+01
7.63887775551E+10	1.66249154841E-01	-5.59706355898E+01	6.61676044632E-05	-7.15753202673E+01	7.24344707531E-05	-1.74114337250E+02	3.00056978192E-01	-6.30983817374E+01
7.63947895792E+10	1.65777571093E-01	-5.64942719156E+01	5.33973893455E-05	-1.22730842150E+02	1.26166258250E-04	1.44028367336E+02	3.00781645507E-01	-6.36885545024E+01
7.64008016032E+10	1.63213653325E-01	-5.73154347310E+01	6.06796290846E-05	-1.55256387718E+02	1.37455909466E-04	9.99831275143E+01	3.01199611734E-01	-6.47363323329E+01
7.64068136273E+10	1.66438126258E-01	-5.49396405935E+01	8.18479259391E-05	-1.52095807948E+02	1.27602306711E-04	1.11441216220E+02	3.03126354493E-01	-6.58390322310E+01
7.64128256513E+10	1.66129771696E-01	-5.71240216057E+01	3.67105287483E-05	1.03309648390E+02	1.21105499500E-04	7.21408293181E+01	3.01848759219E-01	-6.52450222778E+01
7.64188376754E+10	1.64425901078E-01	-5.60122563882E+01	4.80362195554E-05	-8.31811715223E+01	8.32126063874E-05	9.62172107461E+01	3.02162495670E-01	-6.50157797904E+01
7.64248496994E+10	1.63937524943E-01	-5.57930673417E+01	7.61294400954E-05	-1.42634698453E+02	9.67783897461E-05	1.08351780964E+02	3.03010476771E-01	-6.63245349868E+01
7.64308617234E+10	1.65302612993E-01	-5.66749676622E+01	1.21229987810E-04	-1.38878690143E+02	3.21556450872E-05	9.95460733182E+01	3.03718750159E-01	-6.65318017474E+01
7.64368737475E+10	1.65957419965E-01	-5.80915660106E+01	8.98303738175E-05	-1.75473216303E+02	1.03644873626E-04	9.31194916470E+01	3.03404462675E-01	-6.58783925159E+01
7.64428857715E+10	1.65643491054E-01	-5.76492942556E+01	1.12033333738E-04	1.58802110600E+02	8.31778274731E-05	8.04975202423E+01	3.02909908315E-01	-6.61840150021E+01
7.64488977956E+10	1.62898062328E-01	-5.56564903503E+01	6.97591160408E-05	-1.61513955135E+02	9.73681200751E-05	6.08533613771E+01	3.02382016542E-01	-6.63619815709E+01
7.64549098196E+10	1.61987666207E-01	-5.64887785674E+01	1.14849549271E-04	1.71428785688E+02	1.13843346448E-04	5.06521193280E+01	3.04039562562E-01	-6.69150103656E+01
7.64609218437E+10	1.61932356802E-01	-5.68273056486E+01	1.03542204644E-05	1.34496980220E+02	7.30446584501E-05	-5.66001779954E+00	3.04450724168E-01	-6.77316610663E+01
7.64669338677E+10	1.62070761666E-01	-5.66780274032E+01	8.90837360358E-05	-1.18450885466E+02	9.32498185288E-05	-2.46093095041E+01	3.04716126180E-01	-6.82898465180E+01
7.64729458918E+10	1.65223078929E-01	-5.96321365928E+01	4.67628682526E-05	-1.75474566682E+02	6.96345634802E-05	-7.97203404703E-01	3.02916809224E-01	-6.74758803930E+01
7.64789579158E+10	1.65858797884E-01	-5.96317414693E+01	6.59322236980E-05	-1.48303914275E+02	9.63015023121E-05	-2.86631877939E+01	3.02107710985E-01	-6.75738943895E+01
7.64849699399E+10	1.65271511976E-01	-5.91866894446E+01	1.03098100844E-04	1.68076089721E+02	2.50371492971E-05	-1.00339583394E+02	3.05312289281E-01	-6.86136760541E+01
7.64909819639E+10	1.61481433244E-01	-5.63028179647E+01	1.64994867006E-04	1.49388343161E+02	9.90061355326E-05	5.63715343525E+01	3.02506728259E-01	-6.84262286072E+01
7.64969939880E+10	1.63261677778E-01	-5.96283675383E+01	1.03261200443E-04	1.28980884327E+02	6.58883708725E-05	9.09573982885E+00	3.01891700936E-01	-6.91162179096E+01
7.65030060120E+10	1.63472695719E-01	-6.08792290825E+01	7.49378538785E-05	6.17856455067E+01	1.16988386599E-04	-1.85289278342E-01	3.03263024880E-01	-6.94064593878E+01
7.65090180361E+10	1.65352022005E-01	-6.09213077010E+01	6.56285349026E-05	4.24766933964E+01	1.51287662443E-04	-1.54357590525E+01	3.01925778312E-01	-6.92516699657E+01
7.65150300601E+10	1.64123106604E-01	-6.02815486989E+01	7.02413450642E-05	8.40355836788E+01	1.38960507827E-04	-5.76781534259E+01	3.00778968504E-01	-6.94630649786E+01
7.65210420842E+10	1.60976170460E-01	-5.91898514701E+01	9.30371390913E-05	5.98303829682E+01	6.61428389156E-05	-7.80763680411E+01	3.03486966647E-01	-7.00042034629E+01
7.65270541082E+10	1.61593016418E-01	-6.01880761719E+01	1.32642386694E-04	9.16352348246E+01	7.27850602840E-05	-9.90907988676E+01	3.04166576482E-01	-7.02734042971E+01
7.65330661323E+10	1.63388556356E-01	-6.04613857832E+01	6.71530226023E-05	3.47188006039E+01	9.55622309216E-05	-6.82058252563E+01	3.05555637852E-01	-7.11568314892E+01
7.65390781563E+10	1.62978882928E-01	-6.04231468123E+01	1.05875520649E-04	1.08668181601E+02	7.21634985076E-05	-1.03932254959E+02	2.98753211480E-01	-7.00768260091E+01
7.65450901804E+10	1.63727027626E-01	-5.97458300347E+01	9.06025458282E-05	1.01722985957E+02	6.74686055122E-05	-1.50735106030E+02	3.01489360078E-01	-7.12176044766E+01
7.65511022044E+10	1.61670171493E-01	-5.97885410423E+01	1.22784493639E-04	1.02183484109E+02	1.57357766192E-05	6.38166804056E+01	3.01944999990E-01	-7.16659719250E+01
7.65571142285E+10	1.60812919609E-01	-6.01667051647E+01	1.17358477176E-04	3.78368686246E+01	5.79277487948E-05	-8.38212022178E+01	3.02763391251E-01	-7.15075401383E+01
7.65631262525E+10	1.62810119722E-01	-6.19497609424E+01	1.92899723412E-04	4.45301685845E+01	2.86415925736E-05	-3.95755258295E+01	3.03372108945E-01	-7.19707398528E+01
7.65691382766E+10	1.62355200328E-01	-6.26452297077E+01	1.52615359010E-04	2.17154161327E+01	4.90439131876E-05	-1.41558780692E+02	3.00020132745E-01	-7.24122502502E+01
7.65751503006E+10	1.62202289833E-01	-6.23230003855E+01	1.51392702345E-04	3.79158777564E+01	5.66700400091E-05	-9.38262624370E+01	3.01898951100E-01	-7.23524947807E+01
7.65811623246E+10	1.60981662202E-01	-6.14985131127E+01	1.01401767033E-04	2.39167733774E+01	4.75528385055E-05	-1.33540265004E+02	3.01964705921E-01	-7.25331526401E+01
7.65871743487E+10	1.60326540207E-01	-6.14723955776E+01	8.86970723347E-05	1.73678480628E+01	2.85431206852E-05	-1.64399819824E+02	3.03162363410E-01	-7.35118464635E+01
7.65931863727E+10	1.59320037876E-01	-6.03242495446E+01	1.09444465806E-04	2.52751513645E+01	7.10636722358E-05	1.45780918964E+02	3.01656006231E-01	-7.33474400554E+01
7.65991983968E+10	1.61587096582E-01	-6.22597505399E+01	1.31673565721E-04	-1.64078346235E+01	5.40006099499E-05	-1.53693899141E+02	3.01139719786E-01	-7.31385822752E+01
7.66052104208E+10	1.59961906413E-01	-6.18400563866E+01	1.70924368058E-04	-2.77083191106E+01	5.35183419535E-05	1.26520358200E+02	3.00391141126E-01	-7.38447177037E+01
7.66112224449E+10	1.59382348814E-01	-6.28934482288E+01	8.69680146463E-05	-3.10496770596E+01	3.32804931936E-05	-1.58073791275E+02	3.05233243003E-01	-7.52814736107E+01
7.66172344689E+10	1.60769889309E-01	-6.28116266204E+01	9.20347841572E-05	-8.85920761438E+01	3.32621664735E-05	-1.45503141118E+02	3.05678566600E-01	-7.56275065101E+01
7.66232464930E+10	1.60429620663E-01	-6.24612551944E+01	9.39067561087E-05	-1.28161556983E+01	6.45962489054E-05	1.06249515015E+02	3.03170666945E-01	-7.50769514174E+01
7.66292585170E+10	1.60288373249E-01	-6.23914903562E+01	1.78327183277E-04	-3.73736765262E+01	3.54157203011E-05	1.03417934130E+02	3.00125709282E-01	-7.49122981532E+01
7.66352705411E+10	1.59562843200E-01	-6.26556410043E+01	2.26065733237E-04	-5.67331034342E+01	3.36388999356E-05	-1.36318136207E+02	2.98077565140E-01	-7.47258902022E+01
7.66412825651E+10	1.59485100677E-01	-6.33359009640E+01	1.05331814513E-04	-6.71221015979E+01	6.08377140152E-05	-1.60149180205E+02	3.00398691630E-01	-7.58066850954E+01
7.66472945892E+10	1.58974026101E-01	-6.34043566782E+01	8.95919814767E-05	-6.73020116920E+01	8.03554389254E-05	7.22443536996E+01	2.98575492858E-01	-7.50368855851E+01
7.66533066132E+10	1.58917943445E-01	-6.28784699253E+01	1.44150918401E-04	-7.26518403101E+01	7.34110527267E-05	1.44658747137E+02	3.02162872982E-01	-7.61622715799E+01
7.66593186373E+10	1.56785129181E-01	-6.33594016930E+01	8.05871329032E-05	-1.23124237599E+02	6.77318626906E-05	8.49029360712E+01	3.01239834771E-01	-7.71993486653E+01
7.66653306613E+10	1.59656035287E-01	-6.43984114343E+01	6.29050008260E-05	-1.04098906828E+02	4.43131331159E-05	-5.10701222408E+01	3.02711793368E-01	-7.75604160705E+01
7.66713426854E+10	1.59356452046E-01	-6.41449301802E+01	1.98590501565E-04	-8.57132548360E+01	5.65699029696E-05	4.12844154400E+00	3.00447555572E-01	-7.69158020823E+01
7.66773547094E+10	1.58166501614E-01	-6.27575499569E+01	1.92401102776E-04	-1.18940448099E+02	9.46365009653E-05	3.84272989962E+01	2.97904225108E-01	-7.75452573226E+01
7.66833667335E+10	1.57246298532E-01	-6.31274272323E+01	4.37795814159E-05	-1.37102505239E+02	1.15129368221E-04	4.13183725578E+01	3.02755847711E-01	-7.76878770723E+01
7.66893787575E+10	1.56807925188E-01	-6.47031128774E+01	1.41696537470E-04	-1.22052296420E+02	9.31599849272E-05	1.28759622499E+01	2.99958620715E-01	-7.77072255257E+01
7.66953907816E+10	1.58169740349E-01	-6.43061702140E+01	5.82093820746E-05	-1.36472796140E+02	1.95363230566E-05	8.82308633114E+01	2.98610541167E-01	-7.73475745032E+01
7.67014028056E+10	1.58733305780E-01	-6.43645693024E+01	1.35775405988E-04	-1.39779050940E+02	7.65217188655E-05	5.61918705384E+00	3.00724675974E-01	-7.88539843589E+01
7.67074148297E+10	1.58122106067E-01	-6.45797439627E+01	1.12200922141E-04	1.78464724184E+02	6.59243538511E-05	-2.70609861156E+01	3.01330161635E-01	-7.94380098338E+01
7.67134268537E+10	1.56805198851E-01	-6.45798758879E+01	7.74903669548E-05	-1.64696621039E+02	6.52466843888E-05	2.49932040211E+01	2.98689737389E-01	-7.92927037055E+01
7.67194388778E+10	1.55587711130E-01	-6.31770797304E+01	9.69428768758E-05	-1.16188975641E+02	1.06166178796E-04	-2.75780572800E+01	2.98651420573E-01	-7.92621993103E+01
7.67254509018E+10	1.58390942664E-01	-6.61135449534E+01	1.36573552407E-04	-1.37828574749E+02	6.40683403405E-05	-4.80591795479E+01	2.99222601077E-01	-7.90109397253E+01
7.67314629259E+10	1.56136628704E-01	-6.55781079552E+01	8.13238592611E-05	-1.71794452857E+02	9.36558570772E-05	-2.87329511795E+01	3.03393482289E-01	-8.05653419148E+01
7.67374749499E+10	1.57488444177E-01	-6.52097646812E+01	1.20076018994E-04	-1.30926861560E+02	8.27052996735E-05	-6.45791726547E+01	2.99466853746E-01	-8.07738477544E+01
7.67434869739E+10	1.59053111227E-01	-6.64450358640E+01	1.21496647431E-04	1.72422420838E+02	1.52622694909E-04	-5.56992039547E+01	2.97948581254E-01	-8.06419493360E+01
7.67494989980E+10	1.57813794062E-01	-6.67327263623E+01	1.20201535012E-04	1.43528851160E+02	1.20083519830E-04	-5.71225801815E+01	2.96283475789E-01	-8.05195518022E+01
7.67555110220E+10	1.52925014438E-01	-6.55139199757E+01	6.87371137327E-05	-1.60096311712E+02	1.14092957697E-04	-9.87291559996E+01	3.00467493019E-01	-8.17115325587E+01
7.67615230461E+10	1.56724556692E-01	-6.76870080073E+01	8.58030105874E-05	1.77971520954E+02	1.03725679830E-04	-5.71008347770E+01	3.01192939878E-01	-8.27041451257E+01
7.67675350701E+10	1.56935674871E-01	-6.78550180991E+01	3.61367150783E-05	9.99217083570E+01	1.34304507213E-04	-8.05535400620E+01	2.95818591987E-01	-8.15684032617E+01
7.67735470942E+10	1.56286849480E-01	-6.69123370588E+01	3.76556282681E-05	1.26367774961E+02	1.43062250245E-04	-8.28888788731E+01	2.94634400385E-01	-8.10297943730E+01
7.67795591182E+10	1.56505713539E-01	-6.69771068254E+01	8.75987059758E-05	-1.40288282928E+02	8.81265097189E-05	-9.05231716647E+01	2.96585678421E-01	-8.20704662504E+01
7.67855711423E+10	1.56940333363E-01	-6.70988664383E+01	4.35942252472E-05	1.31023267036E+02	1.34272817368E-04	-1.26282011288E+02	2.96722542820E-01	-8.30405285648E+01
7.67915831663E+10	1.54368698498E-01	-6.78100721394E+01	1.15172525346E-04	1.40990883480E+02	5.42205424908E-05	-1.45466980778E+02	2.97245220388E-01	-8.28328009617E+01
7.67975951904E+10	1.54717674718E-01	-6.68408547831E+01	1.18230100575E-04	1.03807735894E+02	1.27300072120E-04	-1.56101398366E+02	2.98229085946E-01	-8.38594349605E+01
7.68036072144E+10	1.53333650075E-01	-6.84709913375E+01	2.44164161385E-05	8.64447774876E+01	1.06783235278E-04	-1.52928602563E+02	3.00385275879E-01	-8.45727784104E+01
7.68096192385E+10	1.54755456855E-01	-6.80387285209E+01	9.91740390913E-05	8.94437773016E+01	1.50082709573E-04	-1.67181749939E+02	2.99998415125E-01	-8.46455313185E+01
7.68156312625E+10	1.53614973334E-01	-6.71588385844E+01	5.13099598177E-05	8.79673509629E+01	6.89656014137E-05	-1.29806748407E+02	2.97885561964E-01	-8.50138990334E+01
7.68216432866E+10	1.53027990662E-01	-6.74293640343E+01	9.91106336967E-05	5.97661485056E+01	1.20553451657E-04	-1.47051379159E+02	2.91680059689E-01	-8.36858405704E+01
7.68276553106E+10	1.52263820481E-01	-6.80186587984E+01	3.85229629451E-05	-2.77903780008E+01	1.16945173873E-04	1.66843096818E+02	2.93951797242E-01	-8.41891519901E+01
7.68336673347E+10	1.53893692603E-01	-6.88832804734E+01	1.07604350184E-04	3.74104295232E+01	6.21252545248E-05	-1.50843129154E+02	2.96574011662E-01	-8.51775251908E+01
7.68396793587E+10	1.54795585147E-01	-6.86971766535E+01	1.23630619637E-04	9.56993840583E+01	3.78854420159E-05	-1.41323764674E+02	2.96788360755E-01	-8.65092222288E+01
7.68456913828E+10	1.53433811082E-01	-6.81002507116E+01	6.31899069032E-05	1.08429927008E+02	1.31238984805E-04	-1.76181389709E+02	2.97876688850E-01	-8.65141186146E+01
7.68517034068E+10	1.54627699956E-01	-6.94203234925E+01	1.05196235282E-04	1.42228878165E+02	9.35071230863E-05	1.60769749289E+02	2.91763327727E-01	-8.46641822627E+01
7.68577154309E+10	1.51937323822E-01	-6.97013217067E+01	8.78060665693E-05	5.66249170147E+01	1.57454595077E-04	1.25023171397E+02	2.95435946435E-01	-8.61557585989E+01
7.68637274549E+10	1.53993047815E-01	-6.93734570264E+01	9.14037131000E-05	5.67650890976E+01	1.12284256644E-04	1.28988392973E+02	2.97425617617E-01	-8.72720550528E+01
7.68697394790E+10	1.51570491652E-01	-6.83055227594E+01	1.00266357822E-04	5.17508339842E+00	9.07758058596E-05	1.64146622305E+02	2.97832921406E-01	-8.77074748450E+01
7.68757515030E+10	1.52647085867E-01	-6.88457283376E+01	4.33111139732E-05	-4.87554263498E+01	4.13346037384E-05	1.02922019763E+02	2.91822302528E-01	-8.66080796327E+01
7.68817635271E+10	1.55392253383E-01	-7.02876094106E+01	3.65500144793E-05	-1.30283939489E+01	7.51753264885E-05	1.58693052950E+02	2.89088587015E-01	-8.66486679748E+01
7.68877755511E+10	1.52683730810E-01	-6.99978409447E+01	1.56695429717E-05	9.21427463565E+01	1.39324509609E-04	1.31448952907E+02	2.93007004043E-01	-8.80437329971E+01
7.68937875752E+10	1.55701775443E-01	-7.11328973882E+01	8.58472499440E-05	9.31573380007E+00	1.40934062340E-04	1.00745853177E+02	2.92286855322E-01	-8.76412677842E+01
7.68997995992E+10	1.51738874088E-01	-7.01768635045E+01	3.33680436641E-05	-2.99998591303E+01	1.74507879106E-04	1.12518472730E+02	2.92039879802E-01	-8.81075100981E+01
7.69058116232E+10	1.53036194522E-01	-7.07001216487E+01	1.00657045771E-04	3.02849265511E+01	1.40712347771E-04	7.72520570674E+01	2.93096746461E-01	-8.92314929097E+01
7.69118236473E+10	1.50402415733E-01	-7.03423992176E+01	8.86148483644E-05	-4.45699984182E+01	1.54566083496E-04	5.43768978871E+01	2.90475845226E-01	-8.81577739784E+01
7.69178356713E+10	1.54772339453E-01	-7.24346004106E+01	3.73305256564E-05	-4.81647275288E+01	1.47277674633E-04	2.45305312728E+01	2.88640698826E-01	-8.83123148039E+01
7.69238476954E+10	1.52114981714E-01	-7.09161250192E+01	5.44075990346E-05	-9.06771151463E+01	1.20675447567E-04	5.55155346806E+01	2.92189133884E-01	-8.93915865270E+01
7.69298597194E+10	1.54825919183E-01	-7.17566260513E+01	4.53257585555E-05	-1.12975430264E+01	5.91091926426E-05	3.78444858734E+01	2.93678698070E-01	-9.06532147017E+01
7.69358717435E+10	1.50509198664E-01	-7.10321729923E+01	5.97658536043E-05	-1.22426412770E+02	8.84657192568E-05	5.05667584906E+01	2.93835585240E-01	-9.06222665561E+01
7.69418837675E+10	1.50552298702E-01	-7.12012451949E+01	5.44072631305E-05	4.30140475371E+01	5.78538531628E-05	1.25358932477E+01	2.89326264964E-01	-9.01117324807E+01
7.69478957916E+10	1.52264606109E-01	-7.09496953207E+01	4.68590179819E-05	-6.48695636547E+01	6.01869789732E-05	-6.42449285282E+00	2.88076799527E-01	-9.03324964178E+01
7.69539078156E+10	1.50786703973E-01	-7.06162336536E+01	7.57763878622E-05	-5.97207775574E+00	6.09722050025E-05	9.01021921730E+01	2.92467805871E-01	-9.13281307081E+01
7.69599198397E+10	1.51463861981E-01	-7.23487202959E+01	7.59803470699E-05	7.51848288466E+01	1.02169928749E-04	6.46988637277E+01	2.88749261196E-01	-8.99621448023E+01
7.69659318637E+10	1.53410376616E-01	-7.31995767039E+01	3.55382067867E-05	-1.12757360962E+02	1.81294993170E-04	3.71357301985E+01	2.89247580265E-01	-9.21219607847E+01
7.69719438878E+10	1.51308123466E-01	-7.30116359550E+01	1.13010424870E-04	-1.10041919357E+02	1.36984867945E-04	1.94839714300E+01	2.89547760398E-01	-9.23065487854E+01
7.69779559118E+10	1.51000918802E-01	-7.25450425517E+01	3.88677496655E-05	1.73960094635E+01	1.50914177652E-04	-9.29790574195E+00	2.86269036595E-01	-9.23017916025E+01
7.69839679359E+10	1.49009734629E-01	-7.12261854629E+01	6.01467184248E-05	8.27100433501E+00	1.86553337220E-04	-9.14667597414E+00	2.83944649248E-01	-9.12353121434E+01
7.69899799599E+10	1.49660294822E-01	-7.17226850452E+01	1.00052049421E-04	-1.20148998941E+02	1.59085207658E-04	-2.23643426041E+01	2.85083055655E-01	-9.22007775137E+01
7.69959919840E+10	1.49921392841E-01	-7.26724641964E+01	1.10218701623E-04	-9.39767027346E+01	1.47117562717E-04	-3.87971390702E+01	2.86583762436E-01	-9.27336172535E+01
7.70020040080E+10	1.51355464559E-01	-7.37484433046E+01	5.36517922492E-05	-1.31544089216E+02	5.35863693861E-05	-5.14424910190E+01	2.88941368290E-01	-9.37194995120E+01
7.70080160321E+10	1.52698827593E-01	-7.46737031299E+01	3.84526169116E-05	-1.00862368216E+02	6.59709817986E-05	-5.46488340913E+01	2.87478203210E-01	-9.34239404541E+01
7.70140280561E+10	1.52740435297E-01	-7.38314338892E+01	9.53439193519E-05	-1.22158055102E+02	6.74422538441E-05	-9.68710173610E+01	2.84792986150E-01	-9.31455154455E+01
7.70200400802E+10	1.50227982119E-01	-7.25141763312E+01	1.18209539591E-04	-1.31598152970E+02	9.88276111418E-05	-7.49732497282E+01	2.83925592440E-01	-9.28602628647E+01
7.70260521042E+10	1.49100474296E-01	-7.35452977886E+01	1.62295386537E-04	1.64548591309E+02	3.92733240783E-05	-4.56132095420E+01	2.83502344093E-01	-9.43675243941E+01
7.70320641283E+10	1.49731026617E-01	-7.38191673416E+01	7.14508978079E-05	1.61543590845E+02	9.13922445869E-05	-6.53936497244E+01	2.85080225658E-01	-9.53847152860E+01
7.70380761523E+10	1.52372904713E-01	-7.48511962804E+01	8.48274278862E-05	1.65322351812E+02	1.49576772120E-04	-6.79432880494E+01	2.89569677920E-01	-9.61216931991E+01
7.70440881764E+10	1.50341122472E-01	-7.52629289523E+01	6.51327496358E-05	-1.37974079890E+02	7.47289225818E-05	-1.16925155895E+02	2.84117718223E-01	-9.46075748669E+01
7.70501002004E+10	1.51423655277E-01	-7.50526996044E+01	9.10533639228E-05	-1.73211272839E+02	5.07307467460E-05	-1.64318862639E+02	2.82174336283E-01	-9.47811423016E+01
7.70561122244E+10	1.52697790231E-01	-7.51041868770E+01	6.94311896256E-05	1.55849204914E+02	8.83184560331E-05	-1.32818129112E+02	2.81032298460E-01	-9.49857024442E+01
7.70621242485E+10	1.51980200284E-01	-7.53958560842E+01	7.81984581381E-05	1.37735855005E+02	9.93089424852E-05	-9.14572115169E+01	2.80883833464E-01	-9.58410657417E+01
7.70681362725E+10	1.49723813439E-01	-7.52156111445E+01	1.46289651943E-04	1.56080107463E+02	6.70608842143E-05	-9.09678836749E+01	2.83226658699E-01	-9.58582360861E+01
7.70741482966E+10	1.48983524935E-01	-7.37603321193E+01	7.81069573119E-05	1.01501513952E+02	1.84211092250E-04	-1.09618788744E+02	2.86422355604E-01	-9.72011153583E+01
7.70801603206E+10	1.49356718009E-01	-7.37512832233E+01	4.08894544115E-05	1.79090902114E+02	1.64944631096E-04	-1.15949692456E+02	2.84185212597E-01	-9.70260707395E+01
7.70861723447E+10	1.49552866709E-01	-7.59204103249E+01	5.88479685314E-05	1.16123601369E+02	1.14072726136E-04	-1.52889595643E+02	2.82896191498E-01	-9.68807512124E+01
7.70921843687E+10	1.48190837721E-01	-7.47069087576E+01	4.63095745462E-05	-1.68568532965E+02	1.11364091032E-04	-1.69588619865E+02	2.81238591601E-01	-9.71023007028E+01
7.70981963928E+10	1.51509542270E-01	-7.52977569319E+01	5.11910870029E-05	1.38426244202E+02	5.58711661659E-05	-1.65793213559E+02	2.83498907981E-01	-9.83171837292E+01
7.71042084168E+10	1.51946242148E-01	-7.57436303108E+01	1.02312516405E-04	9.29254915975E+01	6.99876401366E-05	-1.40927999909E+02	2.81817111361E-01	-9.80498321922E+01
7.71102204409E+10	1.52201622206E-01	-7.59529830099E+01	1.18240244547E-04	5.76461129336E+01	8.74009268987E-05	1.35642965407E+02	2.80780856885E-01	-9.80534458716E+01
7.71162324649E+10	1.49792030442E-01	-7.55864749232E+01	9.63268291240E-05	9.07515779104E+01	6.12303312416E-05	1.62127705864E+02	2.80172040997E-01	-9.86205210019E+01
7.71222444890E+10	1.48536652153E-01	-7.71568933513E+01	5.17218688789E-05	1.06824911161E+01	1.43957651109E-04	1.72004598773E+02	2.82294671611E-01	-9.92123452253E+01
7.71282565130E+10	1.49777106100E-01	-7.65941879356E+01	8.73971597074E-05	5.43509720675E+01	8.29685645236E-05	1.61302049689E+02	2.78842656574E-01	-9.89795191738E+01
7.71342685371E+10	1.50136340213E-01	-7.68521790683E+01	8.18655625267E-05	2.14330899878E+01	7.97397168786E-05	1.57553229650E+02	2.78988397461E-01	-1.00196080866E+02
7.71402805611E+10	1.52699204915E-01	-7.69161508068E+01	5.98223815677E-05	5.28969731242E+01	2.08445962508E-05	1.53729554655E+02	2.82572087552E-01	-1.01050256246E+02
7.71462925852E+10	1.48662849376E-01	-7.84557963750E+01	3.39224772188E-05	1.69760157210E+02	8.31933648136E-05	1.40499619222E+02	2.80292496178E-01	-1.00297640395E+02
7.71523046092E+10	1.49050628929E-01	-7.79239860905E+01	7.29911274206E-05	-2.86992947586E+01	2.23051522976E-05	-1.41450900276E+02	2.75178273917E-01	-9.95950025725E+01
7.71583166333E+10	1.51970552697E-01	-7.85773352033E+01	8.59720780873E-05	6.36991908328E+00	7.35504627479E-05	1.64611706004E+02	2.80380008140E-01	-1.01320695611E+02
7.71643286573E+10	1.50307846204E-01	-7.85500716710E+01	8.18466370556E-05	1.42687958224E+01	9.49670903143E-05	1.38484179361E+02	2.82328806190E-01	-1.02229505227E+02
7.71703406814E+10	1.48940151915E-01	-7.92403091983E+01	8.97064435194E-05	-4.02115447015E+01	9.99327074209E-05	1.39099934578E+02	2.77551390630E-01	-1.01840524139E+02
7.71763527054E+10	1.47702090658E-01	-7.79149684994E+01	4.89360794040E-05	3.25442509792E+01	9.98830472436E-05	9.82436080303E+01	2.78762343096E-01	-1.00733789440E+02
7.71823647295E+10	1.47736963444E-01	-7.69289541400E+01	5.80805834201E-05	-2.59888695884E+01	1.17321467845E-04	1.08728340652E+02	2.74624974609E-01	-1.00764419874E+02
7.71883767535E+10	1.47301638832E-01	-7.64430422233E+01	9.72686322372E-05	8.29399412684E-01	1.22185989328E-04	9.73313707228E+01	2.76125803693E-01	-1.02366815147E+02
7.71943887776E+10	1.47928294021E-01	-7.91840823826E+01	8.97324343394E-05	7.02632541021E+00	8.22872321222E-05	9.06340469299E+01	2.77808818837E-01	-1.03343413986E+02
7.72004008016E+10	1.48212165016E-01	-8.00538373652E+01	5.13777628899E-05	-5.02865005382E+01	6.65793733154E-05	8.99621569997E+01	2.78350061686E-01	-1.03802587229E+02
7.72064128257E+10	1.48894460704E-01	-7.97541827955E+01	8.00271332261E-05	-8.40529311491E+01	7.26955802077E-05	3.81499519447E+01	2.72152923344E-01	-1.01669106572E+02
7.72124248497E+10	1.48876133649E-01	-8.05330317162E+01	5.40392756544E-05	4.04893715269E+01	5.49392659155E-05	9.98003208622E+01	2.71352563778E-01	-1.02679583426E+02
7.72184368737E+10	1.49872083349E-01	-8.19416086438E+01	8.44968300261E-05	-4.65340736604E+01	8.38605936576E-06	-2.99201791238E+01	2.68850261220E-01	-1.02204684680E+02
7.72244488978E+10	1.49425341405E-01	-8.09565453219E+01	4.82821591303E-05	-7.05270978236E+01	2.12625900984E-05	1.08455858074E+02	2.78280666547E-01	-1.04966588355E+02
7.72304609218E+10	1.48665045488E-01	-8.04296430286E+01	6.21058276940E-05	-4.45581048211E+01	4.79055312855E-05	1.76813008497E+02	2.74908764337E-01	-1.04123605946E+02
7.72364729459E+10	1.48261112867E-01	-8.02716380435E+01	2.02292606468E-05	-5.79640478122E+01	2.72938341164E-05	1.42938342967E+02	2.70980458233E-01	-1.03496329982E+02
7.72424849699E+10	1.48002304258E-01	-7.99915726918E+01	3.33103528990E-05	-7.40717302053E+01	6.52454786643E-05	1.17613779397E+02	2.73314510233E-01	-1.03957838566E+02
7.72484969940E+10	1.47765441366E-01	-8.09561181049E+01	7.84322741719E-05	-8.76982509611E+01	9.29150008686E-05	1.96715237934E+01	2.71924223648E-01	-1.04615134585E+02
7.72545090180E+10	1.47115557878E-01	-8.08402842782E+01	6.09459227478E-05	-5.07534091854E+01	7.13939177014E-05	4.69358411947E+01	2.73628987000E-01	-1.05542523567E+02
7.72605210421E+10	1.45774998781E-01	-8.07882274015E+01	1.06071821483E-04	-7.78046194675E+01	6.68056762509E-05	8.94018731389E+01	2.71554509556E-01	-1.05925632671E+02
7.72665330661E+10	1.49004925002E-01	-8.26567708408E+01	8.97770721322E-05	-9.77023411420E+01	2.11230788685E-05	1.65400180515E+01	2.71254244338E-01	-1.04743440924E+02
7.72725450902E+10	1.47980082145E-01	-8.24785007595E+01	8.12975410717E-05	-1.76149590504E+02	5.14537306742E-05	-5.78337105525E+01	2.71796404075E-01	-1.05667302096E+02
7.72785571142E+10	1.48788803464E-01	-8.24409430003E+01	1.25524720535E-05	-6.67548560531E+01	8.42994571235E-05	3.22871340731E+00	2.71845917796E-01	-1.06671757941E+02
7.72845691383E+10	1.46898333135E-01	-8.27990814744E+01	5.60602644503E-05	-5.22672467924E+01	8.45944479999E-05	2.95251736144E+01	2.69096745787E-01	-1.06555390730E+02
7.72905811623E+10	1.45266208927E-01	-8.14996961828E+01	5.66042497274E-05	-1.64360770032E+02	5.26632120225E-05	6.76592306063E+01	2.73669052779E-01	-1.08035198606E+02
7.72965931864E+10	1.44938256989E-01	-8.11769610515E+01	6.37349604579E-05	-1.64485762730E+02	4.07194616091E-05	1.29235217392E+02	2.67040830814E-01	-1.06326680102E+02
7.73026052104E+10	1.45043596640E-01	-8.10059605205E+01	1.27500396677E-05	-1.06586104129E+02	4.25975164264E-05	-5.54873417780E+01	2.70335019881E-01	-1.07901911142E+02
7.73086172345E+10	1.45210047538E-01	-8.15030941584E+01	4.14145028246E-05	-1.27894551568E+02	8.92338709348E-05	-7.87670194782E+01	2.65685269798E-01	-1.06778815852E+02
7.73146292585E+10	1.45975202342E-01	-8.19969708687E+01	3.66589798656E-05	1.46145446837E+02	3.38435033955E-05	9.91492458839E+01	2.66830771733E-01	-1.07424114088E+02
7.73206412826E+10	1.47436767637E-01	-8.31191255942E+01	3.33319546780E-05	1.57133928262E+02	7.31940323722E-05	5.15071032913E+00	2.68072352435E-01	-1.08292795747E+02
7.73266533066E+10	1.44299239814E-01	-8.35313589116E+01	3.45174041900E-05	1.72700389743E+02	5.73758377615E-05	4.11621975196E+00	2.66626693551E-01	-1.07940715069E+02
7.73326653307E+10	1.46351058259E-01	-8.49987524790E+01	9.12360101873E-05	-1.58580863975E+02	1.49249369972E-04	2.87397269175E+00	2.65971872204E-01	-1.08001422464E+02
7.73386773547E+10	1.46330064753E-01	-8.42873657496E+01	8.86949793998E-05	-1.66701618564E+02	8.57768984363E-05	-1.44804261723E+01	2.61393812434E-01	-1.07369411323E+02
7.73446893788E+10	1.44869474676E-01	-8.42696142115E+01	5.21028413961E-05	-1.79604923613E+02	1.07966290000E-04	-4.15459787231E+01	2.63378756172E-01	-1.08686870179E+02
7.73507014028E+10	1.45644709028E-01	-8.36760607306E+01	1.18605476453E-04	1.30919557449E+02	1.29952587536E-04	-5.49645811893E+01	2.69309335959E-01	-1.09964344813E+02
7.73567134269E+10	1.43070549526E-01	-8.42526875789E+01	1.08018472799E-04	1.24313364691E+02	9.04395412546E-05	-9.92925133383E+01	2.64451888322E-01	-1.09219392344E+02
7.73627254509E+10	1.42956233915E-01	-8.45980967209E+01	3.74017872991E-05	1.71701953819E+02	6.99002988296E-05	-8.56095859442E+01	2.65300604863E-01	-1.09826930832E+02
7.73687374749E+10	1.46594671033E-01	-8.50285859604E+01	7.73212710576E-05	1.49291874847E+02	6.93533928779E-05	-8.25776932008E+01	2.66110289320E-01	-1.10318608951E+02
7.73747494990E+10	1.45434741159E-01	-8.50016080562E+01	7.26304227440E-05	1.40757982677E+02	6.47114307186E-05	-4.75149692589E+01	2.64758167459E-01	-1.10455129305E+02
7.73807615230E+10	1.42176655546E-01	-8.34134386774E+01	6.47905800354E-05	1.43265692657E+02	9.84487476330E-05	-8.93351317562E+01	2.67325097342E-01	-1.11361710767E+02
7.73867735471E+10	1.44423203972E-01	-8.52934913118E+01	3.67347834335E-05	9.12251669875E+01	6.49578275331E-05	-9.53639410595E+01	2.66192327335E-01	-1.11953385589E+02
7.73927855711E+10	1.44967247905E-01	-8.60571190974E+01	4.52092445118E-05	1.04411534677E+02	1.20813642722E-04	-8.58074405742E+01	2.59737725472E-01	-1.10158224295E+02
7.73987975952E+10	1.44009857117E-01	-8.62870872713E+01	6.63946896637E-05	1.53574354709E+02	1.35599970641E-04	-1.26242076904E+02	2.61634566709E-01	-1.11270672609E+02
7.74048096192E+10	1.44019732212E-01	-8.49625236643E+01	3.07433983359E-05	7.59591646011E+01	1.45995969349E-04	-1.02316362540E+02	2.63163091789E-01	-1.12015283294E+02
7.74108216433E+10	1.43527719361E-01	-8.52802876598E+01	6.21403968005E-05	9.93484666528E+01	9.46285657681E-05	-1.12107218802E+02	2.61021336696E-01	-1.11069325286E+02
7.74168336673E+10	1.42720736572E-01	-8.56163714859E+01	7.93674986751E-06	6.67131364244E+01	7.01391599001E-05	-1.39090367546E+02	2.62193657630E-01	-1.12217717286E+02
7.74228456914E+10	1.42217325090E-01	-8.50987072224E+01	2.76572277776E-05	-1.30765463758E+01	1.45833023282E-04	-1.41304881067E+02	2.59134732749E-01	-1.11438192092E+02
7.74288577154E+10	1.43536831333E-01	-8.65528237397E+01	2.88792891946E-05	1.56353279858E+02	8.83829494166E-05	-1.39430531351E+02	2.59460596970E-01	-1.12147872174E+02
7.74348697395E+10	1.42143442051E-01	-8.60778839133E+01	1.16174634387E-04	1.04416204507E+02	1.21195618374E-04	-1.77342106744E+02	2.62768943012E-01	-1.13365293151E+02
7.74408817635E+10	1.42107644938E-01	-8.56413090818E+01	1.07155124377E-04	2.18466226909E+01	8.35781892017E-05	-1.71183743215E+02	2.61917257680E-01	-1.13758756451E+02
7.74468937876E+10	1.41509361788E-01	-8.54641788448E+01	1.17441750419E-04	4.21586812243E+01	1.25445608255E-04	1.65973598408E+02	2.60538403536E-01	-1.13550237101E+02
7.74529058116E+10	1.41359454037E-01	-8.55444087796E+01	1.61183731499E-04	-3.36743962913E+01	1.48262561555E-04	1.79171676729E+02	2.60480840103E-01	-1.13603109393E+02
7.74589178357E+10	1.40676337629E-01	-8.62182810158E+01	7.82822466141E-05	-4.11419872779E+01	1.13465478058E-04	1.56942572443E+02	2.59206464265E-01	-1.13413548537E+02
7.74649298597E+10	1.40606073072E-01	-8.64013090308E+01	2.30191117150E-05	5.18847919366E+01	9.61826941211E-05	1.61169413921E+02	2.60839414290E-01	-1.14519485511E+02
7.74709418838E+10	1.44374239596E-01	-8.80412852225E+01	2.97157863708E-05	8.76643147632E+01	1.82382033544E-04	1.48964532433E+02	2.59268958582E-01	-1.14796699204E+02
7.74769539078E+10	1.45775202327E-01	-8.73151336419E+01	6.45211561750E-05	8.10585224481E+00	1.19404720332E-04	1.69571942091E+02	2.59125811862E-01	-1.15184447478E+02
7.74829659319E+10	1.41861278958E-01	-8.60476763336E+01	4.73325348197E-05	-2.32757101256E+01	1.53741462238E-04	1.45039868272E+02	2.62868581796E-01	-1.16104100258E+02
7.74889779559E+10	1.41974023005E-01	-8.82138274415E+01	9.46837256929E-05	-2.19351559014E+01	1.51784907752E-04	1.15629994680E+02	2.57602145992E-01	-1.14361672635E+02
7.74949899800E+10	1.41357641093E-01	-8.78583584923E+01	9.55366141396E-05	-1.11062148056E+01	1.27538255062E-04	9.12141520778E+01	2.56358475747E-01	-1.15384079031E+02
7.75010020040E+10	1.38816195025E-01	-8.60137080630E+01	6.61827514429E-05	-7.82841528018E+01	4.36484771947E-05	1.33173791685E+02	2.56515307944E-01	-1.15254800333E+02
7.75070140281E+10	1.42736408618E-01	-8.76088728887E+01	9.94582862216E-05	-3.61495998240E+01	1.06592652886E-04	1.04366718094E+02	2.59187770221E-01	-1.17190228913E+02
7.75130260521E+10	1.41948156258E-01	-8.73678946021E+01	1.09257427680E-04	-5.47538721308E+01	1.05088368059E-04	1.17823856466E+02	2.59216774723E-01	-1.17396425930E+02
7.75190380762E+10	1.40510013893E-01	-8.83888634660E+01	4.61386536871E-05	-1.36534677919E+01	1.08686972896E-04	1.25275033819E+02	2.59232481472E-01	-1.17556300280E+02
7.75250501002E+10	1.42973666032E-01	-8.85553934998E+01	9.92860364491E-05	-1.05820721531E+02	1.58615274582E-04	7.69188602496E+01	2.54705811268E-01	-1.16809352729E+02
7.75310621242E+10	1.39231321768E-01	-8.71299092096E+01	7.41929744517E-05	-9.56886048476E+01	7.86863835691E-05	5.13229567228E+01	2.55783364326E-01	-1.16530342400E+02
7.75370741483E+10	1.39474471633E-01	-8.95422847280E+01	7.09914509215E-05	-6.98264401597E+01	1.04985182495E-04	7.36088535768E+01	2.58780494239E-01	-1.17961142316E+02
7.75430861723E+10	1.41835007468E-01	-8.93570410055E+01	1.18369679886E-04	-1.04590037599E+02	1.38776660091E-04	5.90645563897E+01	2.55349150526E-01	-1.17700247846E+02
7.75490981964E+10	1.42646768867E-01	-9.03064119011E+01	6.42697825459E-05	-1.30610416204E+02	1.61246152339E-04	4.49337767905E+01	2.55558073644E-01	-1.18050997974E+02
7.75551102204E+10	1.41037938740E-01	-8.79655833559E+01	6.91789280233E-05	-1.34186726226E+02	1.38430134668E-04	3.12680930211E+01	2.55276094512E-01	-1.18510821592E+02
7.75611222445E+10	1.40770026889E-01	-8.91410186235E+01	3.70357127614E-05	-1.46512281019E+02	1.38660868552E-04	-8.38812164642E-01	2.56276943889E-01	-1.19255841058E+02
7.75671342685E+10	1.40982865214E-01	-9.04501351602E+01	1.15629694215E-04	-1.11184089743E+02	1.42365527646E-04	9.36988107472E+00	2.55943393017E-01	-1.19279395997E+02
7.75731462926E+10	1.38861769789E-01	-9.14188141586E+01	9.13844774072E-05	-1.25293195433E+02	9.87442313328E-05	-6.26446317719E+00	2.55743101133E-01	-1.19524037465E+02
7.75791583166E+10	1.38578447614E-01	-9.00971120607E+01	8.16380020525E-05	-1.21419741825E+02	5.40664762898E-05	-3.38061727199E+01	2.53769225230E-01	-1.18983541498E+02
7.75851703407E+10	1.38543980698E-01	-8.95425836385E+01	2.72954076123E-05	1.75080357981E+02	7.79420179659E-05	-1.56534163694E+01	2.52588494405E-01	-1.19422733550E+02
7.75911823647E+10	1.39405932553E-01	-9.00843915365E+01	8.14294486359E-05	-1.60650016978E+02	6.43699043873E-05	-2.44168299183E+01	2.50961698219E-01	-1.19872866920E+02
7.75971943888E+10	1.37128493473E-01	-9.01533891268E+01	5.27861063526E-05	-1.76020874268E+02	6.36670336089E-05	-1.53991791478E+00	2.52673956980E-01	-1.20244542316E+02
7.76032064128E+10	1.37153339684E-01	-9.10932429872E+01	1.05454313225E-04	1.65698438425E+02	7.53987561518E-05	-4.32020955647E+01	2.52034578322E-01	-1.20085464076E+02
7.76092184369E+10	1.38290042242E-01	-9.14951206059E+01	7.74432598402E-05	1.70128498914E+02	9.67574863397E-05	-3.43397420003E+01	2.55112160290E-01	-1.22209228458E+02
7.76152304609E+10	1.40391329030E-01	-9.26172360994E+01	3.40608086764E-05	-1.52863441990E+02	1.16694273645E-04	-5.34164907587E+01	2.52711775019E-01	-1.21875724839E+02
7.76212424850E+10	1.37618114995E-01	-9.27990720334E+01	9.05786949485E-05	-1.70648572708E+02	1.40912779390E-04	-6.31051702407E+01	2.52672594988E-01	-1.21951079090E+02
7.76272545090E+10	1.37229278504E-01	-9.15108089227E+01	1.09833765292E-04	1.42704779427E+02	1.22231770680E-04	-7.35432186373E+01	2.50741146952E-01	-1.21298503637E+02
7.76332665331E+10	1.38485686079E-01	-9.22806645105E+01	1.34521824899E-04	1.45846861127E+02	1.90988399426E-04	-7.32123729601E+01	2.51539947329E-01	-1.22043900214E+02
7.76392785571E+10	1.37875559943E-01	-9.26843494851E+01	7.05262964164E-05	9.02101333144E+01	1.46124053086E-04	-9.57795178727E+01	2.50809927688E-01	-1.23047806822E+02
7.76452905812E+10	1.37504476601E-01	-9.24226304492E+01	1.29256909536E-04	1.06637185854E+02	1.55377423400E-04	-1.18842048550E+02	2.52545135777E-01	-1.23987033744E+02
7.76513026052E+10	1.37097971440E-01	-9.29069979951E+01	8.34253831625E-05	1.16695239821E+02	6.93630866813E-05	-1.11421220803E+02	2.50332662349E-01	-1.23376160714E+02
7.76573146293E+10	1.38474376814E-01	-9.12719432450E+01	9.68345841320E-05	1.02382770922E+02	1.27849080491E-04	-1.00078254906E+02	2.48485531921E-01	-1.22915514685E+02
7.76633266533E+10	1.37007858871E-01	-9.23318868724E+01	1.08927672184E-04	1.12194104907E+02	1.26015753998E-04	-1.20917044163E+02	2.48879558889E-01	-1.23378246431E+02
7.76693386774E+10	1.36843323683E-01	-9.21415865873E+01	9.52271400245E-05	9.14342898075E+01	1.17005569487E-04	-1.31674656556E+02	2.50725225221E-01	-1.24434738566E+02
7.76753507014E+10	1.35490708139E-01	-9.31402091287E+01	1.30872668085E-04	6.78352127502E+01	1.31201897647E-04	-1.36958915549E+02	2.49063387051E-01	-1.25189592694E+02
7.76813627255E+10	1.34996390898E-01	-9.17677436123E+01	2.04595803845E-05	2.33506195076E+01	1.43661430432E-04	-1.42374711255E+02	2.47786350116E-01	-1.25436860151E+02
7.76873747495E+10	1.39498903594E-01	-9.51860560024E+01	5.91780896083E-05	6.68224305578E+01	1.61812109559E-04	-1.69031241650E+02	2.48854991592E-01	-1.25314569015E+02
7.76933867735E+10	1.35677580973E-01	-9.51108573158E+01	1.23269901214E-04	4.42685522071E+01	9.39794848311E-05	-1.74035559174E+02	2.47126374905E-01	-1.25312688959E+02
7.76993987976E+10	1.37349140379E-01	-9.53066696149E+01	1.46649176557E-04	4.22006163421E+01	1.25186338742E-04	1.58957630700E+02	2.45540562484E-01	-1.25294612343E+02
7.77054108216E+10	1.35159365875E-01	-9.40570665242E+01	7.43691890938E-05	4.99512090700E+01	1.19265512812E-04	1.68322420602E+02	2.43994371893E-01	-1.25569119711E+02
7.77114228457E+10	1.35470702540E-01	-9.36529213444E+01	9.09904487795E-05	2.85315770079E+01	1.27588275484E-04	-1.77936919386E+02	2.44879128387E-01	-1.26182796729E+02
7.77174348697E+10	1.33020069662E-01	-9.30859977725E+01	1.11748533543E-04	1.45342662215E+01	1.77289733434E-04	-1.77972071176E+02	2.47131086455E-01	-1.26655200710E+02
7.77234468938E+10	1.33335346541E-01	-9.55372243135E+01	1.08450123054E-04	-7.44445966940E+00	1.39612032336E-04	1.66568878348E+02	2.43573832870E-01	-1.25893878975E+02
7.77294589178E+10	1.34595600121E-01	-9.33228126140E+01	8.61094969459E-05	-1.90387182370E+01	1.24745778697E-04	1.73115721208E+02	2.45006103232E-01	-1.27243902718E+02
7.77354709419E+10	1.33075746217E-01	-9.54242658637E+01	8.34685198117E-05	-2.92574614729E+01	1.65180784271E-04	1.45804903596E+02	2.44110675249E-01	-1.27998412193E+02
7.77414829659E+10	1.32814520869E-01	-9.45679459421E+01	5.84019610409E-05	-3.06558613834E+01	1.60960726214E-04	1.22363278868E+02	2.43196968569E-01	-1.28036836260E+02
7.77474949900E+10	1.33433990192E-01	-9.52083109763E+01	7.85002521174E-05	-2.67143972327E+01	1.78817361154E-04	1.14127275989E+02	2.42522869102E-01	-1.27346085107E+02
7.77535070140E+10	1.33166445089E-01	-9.46879771679E+01	1.16687386965E-04	6.62730961409E+00	1.91077455180E-04	1.09263048518E+02	2.42912595506E-01	-1.28484238076E+02
7.77595190381E+10	1.33239864793E-01	-9.52840980658E+01	1.01117241113E-04	-1.76100699559E+01	1.40478765995E-04	1.04570471502E+02	2.41279591265E-01	-1.28591906372E+02
7.77655310621E+10	1.31062196745E-01	-9.47867977349E+01	1.03891359021E-04	-2.73407994270E+01	1.42875503773E-04	9.73547022006E+01	2.42290489096E-01	-1.29451710529E+02
7.77715430862E+10	1.31066927418E-01	-9.29166133017E+01	1.03107143216E-04	-2.36101908945E+01	1.36028568716E-04	6.03880808295E+01	2.40857459961E-01	-1.29818823874E+02
7.77775551102E+10	1.33675471546E-01	-9.58127514162E+01	1.26939636857E-04	-3.73942259204E+01	1.63215664717E-04	6.24880549549E+01	2.39183198110E-01	-1.29415423982E+02
7.77835671343E+10	1.33956676131E-01	-9.68197464611E+01	1.74793105238E-04	-7.53195594299E+01	1.24774461505E-04	8.84303538420E+01	2.41152708088E-01	-1.29791610823E+02
7.77895791583E+10	1.31846835911E-01	-9.58515372356E+01	1.13405170365E-04	-5.63903015913E+01	2.06794991953E-04	6.08335808556E+01	2.39316522309E-01	-1.29553407916E+02
7.77955911824E+10	1.32945151170E-01	-9.63664015586E+01	1.63347574314E-04	-6.85315515969E+01	1.30503173942E-04	6.54497456888E+01	2.37198312088E-01	-1.30088459986E+02
7.78016032064E+10	1.30510637953E-01	-9.54315668978E+01	1.50630195809E-04	-1.00194285775E+02	1.46511669157E-04	6.75006325256E+01	2.35853867778E-01	-1.29823644553E+02
7.78076152305E+10	1.30092840496E-01	-9.54374685956E+01	1.27199812277E-04	-1.25383173396E+02	1.55033517743E-04	4.28173741802E+01	2.38483948263E-01	-1.30956128148E+02
7.78136272545E+10	1.32430386853E-01	-9.63381014557E+01	1.18534737853E-04	-1.62916682941E+02	2.04599460163E-04	5.16663770642E+01	2.41187127705E-01	-1.31685191593E+02
7.78196392786E+10	1.32213227328E-01	-9.63919741884E+01	1.33463852815E-04	-1.44120482293E+02	1.81584134645E-04	2.46309950195E+01	2.37194581158E-01	-1.31211827125E+02
7.78256513026E+10	1.33332054779E-01	-9.76789012640E+01	5.77075038495E-05	1.78327886541E+02	1.90933932477E-04	2.32483711458E+01	2.33272140789E-01	-1.30835465210E+02
7.78316633267E+10	1.31297499126E-01	-9.86981181206E+01	3.63851284015E-05	-1.18200108723E+02	2.14119466308E-04	-1.91607420319E+00	2.38204315101E-01	-1.32720231876E+02
7.78376753507E+10	1.30465179281E-01	-9.58531603036E+01	5.57034894000E-05	-1.49545766882E+02	3.03543049247E-04	2.15621620856E+00	2.35551844975E-01	-1.31990917194E+02
7.78436873747E+10	1.31701883245E-01	-9.69866831463E+01	1.51739515565E-04	-1.40308501703E+02	2.36610820512E-04	-5.55682065654E+00	2.35199410910E-01	-1.32090542996E+02
7.78496993988E+10	1.33161292282E-01	-9.82299954733E+01	1.48683587634E-04	-1.60235490026E+02	2.40379324816E-04	-2.79223560058E+01	2.35173158293E-01	-1.32581145401E+02
7.78557114228E+10	1.30105305210E-01	-9.85438809541E+01	1.32662174278E-04	-1.71654987650E+02	2.43004024915E-04	-2.59129762955E+01	2.34630061379E-01	-1.33274490212E+02
7.78617234469E+10	1.28945139298E-01	-9.57848753802E+01	2.04989539820E-04	1.74705478250E+02	2.26878849117E-04	-4.16061383432E+01	2.37054891899E-01	-1.34389618881E+02
7.78677354709E+10	1.30353250940E-01	-9.70874297851E+01	1.50678269955E-04	1.54451935036E+02	2.57098048804E-04	-5.85669644115E+01	2.33036230760E-01	-1.33665772039E+02
7.78737474950E+10	1.29990464727E-01	-9.64500899240E+01	1.27573460867E-04	1.45767044200E+02	2.59176053275E-04	-6.61377440424E+01	2.31770926297E-01	-1.33620058978E+02
7.78797595190E+10	1.29999511142E-01	-9.75848748452E+01	1.37466267299E-04	1.74649876216E+02	1.68883993204E-04	-7.51922118631E+01	2.31243207599E-01	-1.34019810921E+02
7.78857715431E+10	1.28509629230E-01	-9.83139352276E+01	1.12460788384E-04	1.49150805665E+02	1.98825902935E-04	-5.96198196872E+01	2.31479311375E-01	-1.34566646388E+02
7.78917835671E+10	1.29585870580E-01	-9.74887687825E+01	1.20390654673E-04	1.37027383817E+02	2.63447890366E-04	-7.56094266229E+01	2.31812801929E-01	-1.35113946011E+02
7.78977955912E+10	1.31254472667E-01	-9.99548165872E+01	1.68220852451E-04	1.54288876353E+02	2.25383780251E-04	-9.23614501986E+01	2.31401197497E-01	-1.34476524671E+02
7.79038076152E+10	1.30466748654E-01	-1.00156445018E+02	1.46558792188E-04	1.60051157804E+02	2.12980590347E-04	-9.83041690506E+01	2.30643932201E-01	-1.34962136361E+02
7.79098196393E+10	1.28557995437E-01	-9.67629063496E+01	1.92722136940E-04	1.09670834565E+02	2.17615070744E-04	-1.08486513811E+02	2.29588884958E-01	-1.36059792748E+02
7.79158316633E+10	1.29710011944E-01	-9.82586703341E+01	1.87438253955E-04	8.97875237090E+01	2.04060974838E-04	-1.20081731405E+02	2.29984974961E-01	-1.36091561921E+02
7.79218436874E+10	1.30516540811E-01	-1.00321750249E+02	2.06676506854E-04	9.55157157239E+01	1.91757820619E-04	-1.25137857121E+02	2.30787395530E-01	-1.36375644263E+02
7.79278557114E+10	1.31149314288E-01	-1.00694305539E+02	1.10299206070E-04	5.89547427763E+01	2.30236668171E-04	-1.44642778199E+02	2.28915074183E-01	-1.35697549376E+02
7.79338677355E+10	1.33508336333E-01	-1.01696418447E+02	1.42815775915E-04	8.34293481590E+01	2.67601448433E-04	-1.39277888602E+02	2.28934923742E-01	-1.37179956667E+02
7.79398797595E+10	1.29838577219E-01	-9.95271813890E+01	1.51519052051E-04	9.04095924405E+01	1.79544543461E-04	-1.57222692548E+02	2.27150957006E-01	-1.36771408322E+02
7.79458917836E+10	1.29664986817E-01	-9.93919188078E+01	1.03384901836E-04	6.98581760170E+01	1.72518038421E-04	-1.50427544537E+02	2.26421771776E-01	-1.37139411786E+02
7.79519038076E+10	1.28468965208E-01	-1.00491113626E+02	1.39285648929E-04	7.36707513174E+01	2.35056653336E-04	-1.64539874829E+02	2.26163891150E-01	-1.37904407066E+02
7.79579158317E+10	1.28799545636E-01	-9.92182808051E+01	1.71659756481E-04	7.42839386119E+01	1.90288875443E-04	-1.79237252481E+02	2.26558084870E-01	-1.37447914919E+02
7.79639278557E+10	1.29102016049E-01	-9.93674425211E+01	1.66312526772E-04	6.80325988199E+01	1.89117613668E-04	1.73406791785E+02	2.26168789478E-01	-1.37817146338E+02
7.79699398798E+10	1.28224075071E-01	-1.00772761355E+02	1.65529309824E-04	2.35945012223E+01	2.73376073571E-04	1.77415748868E+02	2.26297040547E-01	-1.39108830374E+02
7.79759519038E+10	1.26596865918E-01	-9.92386331174E+01	1.54764360581E-04	2.33902949515E+01	1.84417455052E-04	1.44175951305E+02	2.26236650859E-01	-1.39104937271E+02
7.79819639279E+10	1.31158956064E-01	-1.02297745638E+02	1.43246112696E-04	3.17800569860E+01	2.17816065717E-04	1.40263791177E+02	2.23638004516E-01	-1.38023040332E+02
7.79879759519E+10	1.28949993424E-01	-1.01271038305E+02	2.09029737967E-04	3.87679211470E+00	1.80516138422E-04	1.21336700234E+02	2.25074469216E-01	-1.39380945039E+02
7.79939879760E+10	1.27834791977E-01	-9.97509087558E+01	7.97154418339E-05	5.64186686657E+00	1.95214901212E-04	1.34966103146E+02	2.23185162158E-01	-1.39395662687E+02
7.80000000000E+10	1.28995257529E-01	-1.02199037346E+02	1.12049839994E-04	6.64823155214E+00	1.50665283845E-04	1.22027716552E+02	2.23352840205E-01	-1.40063138558E+02
