# Hz S MA R 50
! CMT, C4420, 21421029, 25.1.2/3
! Date: 8/7/2025 12:49:32 PM
! Data: Format (Calibration Info)
! Freq	S33:Mag/Ang(F2)	S43:Mag/Ang(F2)	S34:Mag/Ang(F2)	S44:Mag/Ang(F2)
7.50000000000E+10	1.98280031094E-01	-1.39756586814E+01	5.58441055156E-05	-1.77723055476E+02	1.21731168133E-04	1.39211908276E+02	2.17154926400E-01	-2.74955927495E+01
7.50060120240E+10	1.98373620862E-01	-1.41517118376E+01	5.82233270537E-05	1.46211936354E+02	5.28520643861E-05	1.18024780411E+02	2.15948593183E-01	-2.76467654625E+01
7.50120240481E+10	2.01338151026E-01	-1.51886888625E+01	4.75884077332E-05	1.55886405861E+02	6.86281051486E-05	1.15017146652E+02	2.14284082494E-01	-2.66471043472E+01
7.50180360721E+10	2.00332933661E-01	-1.58398460103E+01	7.52715311818E-05	1.72049839880E+02	9.26053696682E-05	1.51904014672E+02	2.13459923629E-01	-2.68901340026E+01
7.50240480962E+10	1.99368750750E-01	-1.57904690272E+01	1.32014556549E-04	1.24777074944E+02	6.48391883363E-05	1.34259327332E+02	2.13898786712E-01	-2.82031115528E+01
7.50300601202E+10	1.98781911987E-01	-1.41986244460E+01	5.94783937817E-05	8.41927421221E+01	3.84248512544E-05	6.67343577482E+01	2.14056511292E-01	-2.80506812996E+01
7.50360721443E+10	1.99315586404E-01	-1.38427194977E+01	6.78359329063E-05	8.85299667843E+01	5.58462737333E-05	9.77871429707E+01	2.13942303393E-01	-2.84203688456E+01
7.50420841683E+10	1.99334418288E-01	-1.38041133420E+01	2.79375326846E-05	-3.34500187288E+01	5.98582950299E-05	5.24053250100E+01	2.10344252311E-01	-2.64322090308E+01
7.50480961924E+10	1.98822429358E-01	-1.65533589349E+01	4.01471510052E-05	1.04115107679E+02	1.38481839719E-05	1.23099112755E+02	2.09544634968E-01	-2.84346720533E+01
7.50541082164E+10	1.96026764110E-01	-1.49999922539E+01	5.85592461886E-05	1.35368271571E+02	6.15173503704E-05	1.24817527307E+02	2.13179482800E-01	-2.96849278950E+01
7.50601202405E+10	1.98907752340E-01	-1.41008099344E+01	3.47968428156E-05	1.72827947116E+02	6.54887696088E-05	1.66942281895E+02	2.15395762428E-01	-3.01890095758E+01
7.50661322645E+10	2.01892616070E-01	-1.63753263518E+01	4.96847046501E-05	5.87327727310E+01	9.91697909341E-05	1.16180944939E+02	2.13409087725E-01	-3.04989855376E+01
7.50721442886E+10	1.97365058978E-01	-1.49728000751E+01	1.07955463671E-04	7.78209625724E+01	1.13772322175E-04	9.12201925194E+01	2.11720125536E-01	-3.00145308649E+01
7.50781563126E+10	1.98411917769E-01	-1.69828282304E+01	4.33562986483E-05	7.91340134984E+01	1.09680039472E-04	9.21611650050E+01	2.09437335015E-01	-2.87628313052E+01
7.50841683367E+10	1.95577918458E-01	-1.58766467378E+01	1.17307330038E-04	1.01538930922E+02	9.33618905190E-05	4.54942693162E+01	2.11784486638E-01	-2.94629233503E+01
7.50901803607E+10	1.97798414563E-01	-1.66035791722E+01	8.72691778442E-05	1.76458080498E+01	7.81679114408E-05	5.48542011334E+01	2.14339706055E-01	-3.04625689733E+01
7.50961923848E+10	1.99418548577E-01	-1.71975917599E+01	7.96176406221E-05	9.00301647020E+01	1.11894021898E-04	5.52041536689E+01	2.11944161428E-01	-3.17579850273E+01
7.51022044088E+10	1.95932090139E-01	-1.54712845341E+01	2.93236694714E-05	9.63651976698E+01	4.11355044935E-05	-2.54073220511E+01	2.12255050048E-01	-3.12431519037E+01
7.51082164329E+10	1.95338506549E-01	-1.73750062889E+01	5.71111862784E-05	1.54985808239E+02	7.80062127215E-05	-7.91096288474E+01	2.11936811711E-01	-3.15125909435E+01
7.51142284569E+10	1.94596826671E-01	-1.73100959035E+01	1.49218832389E-05	-7.21765928461E+01	6.12962672183E-05	2.18179801975E+01	2.10869492024E-01	-3.19771042451E+01
7.51202404810E+10	1.97210425243E-01	-1.83472824041E+01	7.06833814198E-05	1.42293240726E+02	8.46113834019E-05	1.17673228069E+02	2.09675593691E-01	-3.12618488178E+01
7.51262525050E+10	1.94871495090E-01	-1.78908910773E+01	3.12207402230E-05	8.20663681436E+01	3.66767185392E-05	1.67474622375E+01	2.07539356706E-01	-3.18554659606E+01
7.51322645291E+10	1.95116284626E-01	-1.70851606547E+01	7.14219586310E-05	9.07894292141E+01	1.00291313274E-04	7.92318640084E+01	2.08159561049E-01	-3.07991348750E+01
7.51382765531E+10	1.95113165988E-01	-1.71949303615E+01	1.37825392192E-04	5.97921833859E+01	7.76880010408E-05	9.43054063770E+01	2.10458455055E-01	-3.37051593901E+01
7.51442885772E+10	1.95175123648E-01	-1.78390232144E+01	9.76749446693E-05	6.10618867608E+01	4.21608282220E-05	-3.97080166787E+01	2.10702121639E-01	-3.25373326381E+01
7.51503006012E+10	1.95198208059E-01	-1.84533658812E+01	7.09671477072E-05	6.02805064017E+01	9.22767267458E-05	7.19173854010E+01	2.06516357551E-01	-3.23961318158E+01
7.51563126253E+10	1.91623635073E-01	-1.70297648005E+01	6.82008444710E-05	4.27312787475E+01	6.40542731643E-05	2.08205296877E+01	2.09520948575E-01	-3.37432993367E+01
7.51623246493E+10	1.98322894300E-01	-2.07824039806E+01	6.76403416785E-05	2.79771418499E+01	1.54270692811E-04	3.67249151397E+01	2.07162958876E-01	-3.26053197218E+01
7.51683366733E+10	1.94289024581E-01	-1.95715088202E+01	2.11817966865E-05	-1.58394519669E+01	6.56566530219E-05	2.56063342068E+01	2.09967845071E-01	-3.35712104158E+01
7.51743486974E+10	1.96854611339E-01	-1.95476998580E+01	1.04685675734E-04	9.14967982319E+00	4.38124597989E-05	3.74447702946E+01	2.08321506372E-01	-3.39468426395E+01
7.51803607214E+10	1.94570820581E-01	-1.86426984639E+01	6.72922199225E-05	1.67894931934E+01	4.89438526862E-05	1.22441463777E+01	2.07790115707E-01	-3.50002848907E+01
7.51863727455E+10	1.96067180003E-01	-1.94679783573E+01	1.16183299767E-04	-2.28142663891E+00	1.35135027537E-04	-8.88775416354E+00	2.07809828237E-01	-3.44785527370E+01
7.51923847695E+10	1.92299426753E-01	-1.96595011036E+01	6.42389035478E-05	-6.43183856745E+01	5.27946892290E-05	-1.02095132739E+02	2.10841763177E-01	-3.51977850256E+01
7.51983967936E+10	1.93049004440E-01	-1.93168685077E+01	4.05056254450E-05	-1.16138349440E+02	5.22189465313E-05	-9.34354321861E+01	2.08224509894E-01	-3.46556161472E+01
7.52044088176E+10	1.97769473383E-01	-2.15878065878E+01	5.05271506181E-05	-1.80684136619E+01	4.99016683669E-05	-1.94376734474E+01	2.06608006401E-01	-3.44350790733E+01
7.52104208417E+10	1.94787653769E-01	-2.15466179793E+01	8.05233592523E-05	-5.89045106387E+01	3.94474746259E-05	1.27291083870E+02	2.04230673139E-01	-3.42370401077E+01
7.52164328657E+10	1.94221811069E-01	-2.00326968679E+01	3.91396184672E-05	-5.23131572133E-01	5.43716003048E-05	6.21041798403E+01	2.09829809501E-01	-3.68877768722E+01
7.52224448898E+10	1.92915932860E-01	-2.02995078748E+01	3.53413320832E-05	1.11483297075E+02	6.28966319865E-05	3.53297716099E+01	2.04837686586E-01	-3.51501761240E+01
7.52284569138E+10	1.95921850665E-01	-2.00603719954E+01	7.75545381074E-05	4.85274105729E+01	9.31762737172E-05	9.61455820248E+01	2.03712759581E-01	-3.54784614833E+01
7.52344689379E+10	1.93618480020E-01	-2.16252994212E+01	1.06992767062E-04	3.24612812609E+00	8.35854255365E-05	4.20926344219E+00	2.05921122609E-01	-3.67409768190E+01
7.52404809619E+10	1.97440265939E-01	-2.21498936220E+01	1.12863991107E-04	-4.33613887113E+01	1.18048609791E-04	-2.35110602926E+01	2.05033189176E-01	-3.58317470659E+01
7.52464929860E+10	1.95900701143E-01	-2.23324373615E+01	6.18576392108E-05	9.54102392471E+00	1.35171573825E-04	-5.24730324841E+01	2.04264183020E-01	-3.58697145190E+01
7.52525050100E+10	1.92309745809E-01	-2.22160463431E+01	5.01423386052E-05	-1.04562025292E+01	1.38784485470E-04	-8.80616799487E+01	2.07077230406E-01	-3.83543951795E+01
7.52585170341E+10	1.91571947798E-01	-2.04691618069E+01	5.65162409305E-05	-1.07238120072E+02	8.83483183924E-05	-6.48056569643E+01	2.07524346050E-01	-3.81619688435E+01
7.52645290581E+10	1.94574797727E-01	-2.17262427466E+01	1.07595486695E-04	-4.68605512581E+01	1.53769940806E-04	-7.42833030959E+01	2.07224799022E-01	-3.80418600825E+01
7.52705410822E+10	1.92403797466E-01	-2.15888844053E+01	7.26591075031E-05	-8.82471116659E+01	9.54220950231E-05	-6.33611016663E+01	2.04404191230E-01	-3.77725978653E+01
7.52765531062E+10	1.92021424006E-01	-2.22636769132E+01	7.72648494237E-05	-1.40458361351E+02	3.29375705930E-05	-1.33466098751E+02	2.01177758549E-01	-3.71079026678E+01
7.52825651303E+10	1.91091118258E-01	-2.32714806521E+01	4.33214121361E-05	-8.67606372709E+01	8.83375414510E-05	-6.30752641493E+01	2.01743221148E-01	-3.75078562746E+01
7.52885771543E+10	1.92941599982E-01	-2.34107153241E+01	2.16776797153E-05	-1.36732953169E+02	4.04910467444E-05	-1.30813049791E+02	2.06252857181E-01	-3.93303543770E+01
7.52945891784E+10	1.94595414987E-01	-2.31490607972E+01	4.32048201554E-05	-1.17149644557E+02	1.01976488808E-04	1.61588306470E+02	2.07131807699E-01	-3.95931670099E+01
7.53006012024E+10	1.92999342529E-01	-2.30820240220E+01	5.93908057261E-05	-1.57525314427E+02	4.74714391985E-05	8.69594626396E+01	2.04846269053E-01	-3.93587672849E+01
7.53066132265E+10	1.88342271240E-01	-2.14577030859E+01	3.91234567692E-05	-1.70910016838E+02	2.32263677108E-05	1.65820418630E+02	2.00346089163E-01	-3.78069710939E+01
7.53126252505E+10	1.88887053450E-01	-2.22871325295E+01	1.57296690804E-05	-3.24522966396E+00	2.40982753789E-05	8.55270485071E+01	1.99564033693E-01	-3.89089199365E+01
7.53186372745E+10	1.94322265066E-01	-2.52256812928E+01	5.27811425482E-05	-1.07291280713E+02	1.14789283668E-04	-1.27414080358E+02	2.03340883966E-01	-4.05195769881E+01
7.53246492986E+10	1.93303500833E-01	-2.44621672955E+01	3.33937738334E-05	-1.00254092061E+02	7.33557565405E-05	-1.66994941388E+02	2.05041304554E-01	-4.03868791918E+01
7.53306613226E+10	1.92609639968E-01	-2.41121367633E+01	9.90077857900E-05	-8.92175018614E+01	5.09222838975E-05	-1.71522270028E+02	2.05053453370E-01	-4.05097112060E+01
7.53366733467E+10	1.90024887245E-01	-2.47956678451E+01	1.58989834061E-05	-1.01329244925E+02	4.89957569969E-05	1.09716513764E+02	2.00082163191E-01	-4.06393291555E+01
7.53426853707E+10	1.89539280337E-01	-2.32443766068E+01	4.99428045869E-05	-1.50371544574E+02	4.30959322670E-05	-9.12298781043E+01	1.99000106259E-01	-3.93874272187E+01
7.53486973948E+10	1.93383507444E-01	-2.37241689172E+01	6.26984876194E-05	-6.43115117666E+01	6.53393357850E-05	-1.59694504449E+02	2.00174413103E-01	-4.03006646077E+01
7.53547094188E+10	1.89872299506E-01	-2.29908016530E+01	3.13929755850E-05	-1.47920898706E+02	3.64151383663E-05	1.58004286687E+02	2.02021894318E-01	-4.16958050408E+01
7.53607214429E+10	1.89692576632E-01	-2.33257923626E+01	6.98515709287E-05	1.72468889471E+02	8.01440790912E-05	1.67568565195E+02	2.02945793105E-01	-4.25465316215E+01
7.53667334669E+10	1.90806846119E-01	-2.44854334228E+01	6.36981068290E-05	-1.63900189371E+02	5.43537148721E-05	1.15973210046E+02	2.00175355575E-01	-4.18978729859E+01
7.53727454910E+10	1.92895522375E-01	-2.55598850443E+01	1.07239421478E-06	-3.65842048345E+01	7.83577973917E-05	1.60810193651E+02	1.96836407844E-01	-3.98838095861E+01
7.53787575150E+10	1.91593164143E-01	-2.68720004499E+01	4.20956107026E-05	-1.71001512834E+02	6.02240611849E-05	-1.76338606971E+02	1.99866705282E-01	-4.22758003789E+01
7.53847695391E+10	1.88466071502E-01	-2.35640541397E+01	1.76091623661E-05	-1.29362305822E+01	4.31622613633E-05	-5.53457205213E+01	2.01154282989E-01	-4.33079408897E+01
7.53907815631E+10	1.90537639959E-01	-2.56422672788E+01	2.48381504042E-05	-7.51849332325E+00	4.96058514933E-05	-3.08943965136E+01	1.99684442565E-01	-4.34053024183E+01
7.53967935872E+10	1.91712260448E-01	-2.66529576234E+01	2.70913150841E-05	1.19153771744E+02	6.58100034298E-06	1.33974110997E+02	1.99506435927E-01	-4.25105178984E+01
7.54028056112E+10	1.92735659409E-01	-2.80805961422E+01	3.60326277428E-05	-1.71293891356E+02	7.31281807709E-05	5.01394710745E+01	1.98353144160E-01	-4.22023446267E+01
7.54088176353E+10	1.88972648244E-01	-2.66667780517E+01	1.01235273529E-04	-1.23530119516E+02	1.49540187964E-05	-1.55850229390E+02	1.96530723667E-01	-4.23889935345E+01
7.54148296593E+10	1.87082058486E-01	-2.39185368939E+01	8.03826476478E-05	-7.35447466201E+01	1.68168824371E-05	8.49812373393E+01	1.94657796561E-01	-4.33361575781E+01
7.54208416834E+10	1.92936420394E-01	-2.65622681968E+01	1.28142779720E-05	5.08510883695E+01	7.31411616957E-05	1.33687749480E+02	1.96650083717E-01	-4.26597203385E+01
7.54268537074E+10	1.88777250886E-01	-2.50636808713E+01	4.27371094526E-05	5.85752957066E+01	5.12084603064E-05	1.11539022111E+02	1.99457932867E-01	-4.42766354194E+01
7.54328657315E+10	1.87729705147E-01	-2.60020168365E+01	3.09059084854E-05	2.64303114179E+01	6.30190998726E-05	5.75949435287E+01	1.97314172815E-01	-4.42669817333E+01
7.54388777555E+10	1.87160964220E-01	-2.62658498471E+01	1.51552876028E-05	7.59105575876E+01	3.95429313684E-05	-1.84352638095E+00	1.94552201383E-01	-4.41045982652E+01
7.54448897796E+10	1.87450083883E-01	-2.78107697306E+01	6.55548146128E-05	-1.17426713476E+02	4.82902380014E-05	-1.46180268072E+02	1.95671388389E-01	-4.46792113690E+01
7.54509018036E+10	1.90185326960E-01	-2.68510207865E+01	4.49541738333E-05	1.63191866397E+02	5.39267981943E-05	1.73911095355E+02	1.94456615214E-01	-4.41863392092E+01
7.54569138277E+10	1.87363084035E-01	-2.60860844494E+01	2.91788544646E-05	4.01070785084E+01	2.26424318326E-05	-1.50927388072E+02	1.94797158669E-01	-4.52798042043E+01
7.54629258517E+10	1.90821786301E-01	-2.80505972924E+01	6.18203018344E-05	1.26482828526E+02	2.44692248695E-05	-9.36319869530E+00	1.95488579047E-01	-4.50290303280E+01
7.54689378758E+10	1.87660545980E-01	-2.81074465406E+01	7.53907241766E-06	-3.85197862808E+01	8.52957902106E-05	-9.46714828659E+01	1.96006994925E-01	-4.54404853050E+01
7.54749498998E+10	1.88768461939E-01	-2.75198171637E+01	6.07698004710E-05	-1.28702631945E+02	9.02694480359E-05	-1.49337784161E+02	1.95700763335E-01	-4.56523752000E+01
7.54809619238E+10	1.87926231273E-01	-2.70193634066E+01	4.91298355971E-05	1.28714935017E+02	8.52225489456E-05	-1.68548475069E+02	1.95180605981E-01	-4.60702016351E+01
7.54869739479E+10	1.91576875216E-01	-2.92452106351E+01	8.84761325858E-05	1.62558248553E+02	8.25653822319E-05	1.29903850345E+02	1.94836859939E-01	-4.69686032328E+01
7.54929859719E+10	1.88037912178E-01	-2.84781464925E+01	7.35261212760E-05	1.61225440117E+02	7.74430038442E-05	1.24003990304E+02	1.95267917163E-01	-4.62566433342E+01
7.54989979960E+10	1.83328010037E-01	-2.68408481295E+01	2.58921353771E-05	-1.08217779974E+02	7.52268654745E-05	1.11562711730E+02	1.95229346185E-01	-4.69133910972E+01
7.55050100200E+10	1.89839808304E-01	-3.05013647386E+01	6.41054789664E-05	4.73615595948E+01	3.43830514479E-05	-6.43057545796E+01	1.95231314043E-01	-4.71229925527E+01
7.55110220441E+10	1.90842445321E-01	-2.99789000527E+01	2.93761417050E-05	-1.64337069235E+02	3.33178005176E-05	-7.75595470519E+01	1.93683955467E-01	-4.68800135215E+01
7.55170340681E+10	1.89553894531E-01	-3.07703534112E+01	7.31222892977E-05	1.09191414151E+02	2.84410304782E-05	-1.63257766181E+02	1.94490196596E-01	-4.74261651676E+01
7.55230460922E+10	1.85866093124E-01	-2.89318987281E+01	5.61923447763E-05	5.18138669987E+01	6.78905552348E-05	-1.27653274384E+02	1.94146366647E-01	-4.73965919790E+01
7.55290581162E+10	1.86149977896E-01	-2.97172030523E+01	4.98863978693E-05	-5.77987121996E+01	7.84310395638E-05	1.61275781297E+02	1.93371533516E-01	-4.75050835146E+01
7.55350701403E+10	1.88572224183E-01	-3.02852457553E+01	3.01881172897E-06	-6.92717430747E+01	2.43098875396E-05	5.02170657691E+01	1.91904497257E-01	-4.81849045228E+01
7.55410821643E+10	1.85745754031E-01	-2.87917374053E+01	5.09026716025E-05	-7.13426537198E+01	5.33279911504E-05	8.17274189187E+01	1.94379011814E-01	-4.92004612597E+01
7.55470941884E+10	1.89313585993E-01	-3.09009855336E+01	8.19653559057E-05	-7.74253275158E+01	6.66586328864E-05	1.41647983950E+02	1.92387618447E-01	-4.79317074919E+01
7.55531062124E+10	1.88234229296E-01	-3.09734958878E+01	7.93873695941E-05	-1.28846427155E+02	3.39947600506E-05	1.22812330238E+02	1.93778758041E-01	-4.89962823356E+01
7.55591182365E+10	1.86292852915E-01	-3.18684554721E+01	5.87915935240E-05	8.81271873584E+01	5.51759131203E-05	9.50804315568E+01	1.91867726719E-01	-4.97959536192E+01
7.55651302605E+10	1.85669077323E-01	-3.09615736873E+01	2.84762930604E-05	9.19760738888E+01	4.47886059595E-05	-1.59622111945E+02	1.91662912379E-01	-4.91112415035E+01
7.55711422846E+10	1.87624807879E-01	-3.01768938326E+01	2.40553829325E-05	1.56920813188E+02	9.08111260791E-06	1.33250488995E+02	1.94116249915E-01	-4.95178214557E+01
7.55771543086E+10	1.85387820901E-01	-3.03612671810E+01	4.97462337346E-05	9.53058077891E+01	3.45701640380E-05	1.68397459662E+02	1.92674754095E-01	-4.98849025143E+01
7.55831663327E+10	1.83757718061E-01	-3.17847884210E+01	5.85061026747E-05	1.11046809189E+02	6.59255141425E-05	1.32059953850E+02	1.90553512641E-01	-4.96627714981E+01
7.55891783567E+10	1.86569561624E-01	-3.22011798526E+01	4.48018732502E-05	1.10210387352E+01	3.48101744445E-05	9.04646209175E+01	1.91160765357E-01	-5.01463598875E+01
7.55951903808E+10	1.84577258631E-01	-3.14186989552E+01	3.15947818523E-05	7.53405475246E+01	2.64750113391E-05	8.91907250585E+01	1.94116870518E-01	-5.17986006312E+01
7.56012024048E+10	1.89476145693E-01	-3.27841717557E+01	2.67339672517E-05	-1.71258681040E+02	4.83082549326E-05	3.42323429685E+01	1.91925983278E-01	-5.10606774221E+01
7.56072144289E+10	1.87094017827E-01	-3.24313268420E+01	1.52135136116E-05	-2.68060649686E+01	3.04102275705E-06	1.51405114987E+02	1.89185485189E-01	-5.15078736803E+01
7.56132264529E+10	1.84415427536E-01	-3.11596378431E+01	4.33133442294E-05	-8.49027857825E+01	3.56915455205E-05	7.24859607599E+01	1.91297448130E-01	-5.11114655379E+01
7.56192384770E+10	1.83011647598E-01	-3.22031572843E+01	4.90378147990E-05	-1.20684190675E+01	3.36677741854E-05	8.66722643698E+01	1.90615871884E-01	-5.12101849007E+01
7.56252505010E+10	1.83858189856E-01	-3.21283625218E+01	9.57395691931E-06	1.79068569425E+02	2.35218701387E-05	1.18059828827E+02	1.92046898179E-01	-5.27563565493E+01
7.56312625251E+10	1.86468408626E-01	-3.28323992535E+01	5.40117943233E-05	7.80186644562E+01	9.65660069387E-05	3.89239630297E+01	1.89594870286E-01	-5.28794923656E+01
7.56372745491E+10	1.85084408301E-01	-3.33579131224E+01	9.07168016696E-05	7.23744021241E+01	3.50411188159E-05	-1.27109819864E+01	1.88579795304E-01	-5.08034820431E+01
7.56432865731E+10	1.83357836582E-01	-3.39394778416E+01	5.71217245231E-05	5.45563029159E+01	6.00301450288E-05	6.14617259066E+01	1.91620264207E-01	-5.35389572736E+01
7.56492985972E+10	1.81341307754E-01	-3.17066207188E+01	6.46901655655E-05	3.11027890250E+01	5.76344326209E-05	1.05849248407E+01	1.90474111081E-01	-5.44815657393E+01
7.56553106212E+10	1.85115149822E-01	-3.31864078480E+01	8.91631461164E-05	7.34604211308E+01	2.74004243896E-05	-8.86623721350E+00	1.89984951583E-01	-5.42137891897E+01
7.56613226453E+10	1.86077553407E-01	-3.32597045278E+01	3.56305576792E-05	1.82426100855E+01	7.89081154608E-07	1.20442688325E+02	1.88381080451E-01	-5.25523366611E+01
7.56673346693E+10	1.84990000127E-01	-3.38585219532E+01	5.04733948899E-05	4.37225854359E+01	6.96084701479E-05	2.09534445236E+01	1.89890642542E-01	-5.36598523858E+01
7.56733466934E+10	1.84302381499E-01	-3.48981761415E+01	5.95922078677E-05	-9.10392782466E+01	2.18430473250E-05	1.50777120911E+02	1.89077083657E-01	-5.55664553611E+01
7.56793587174E+10	1.81026629365E-01	-3.35176902642E+01	2.93561099710E-05	2.38712909743E+00	3.91886526517E-06	3.90292477831E+01	1.85718580669E-01	-5.32718849508E+01
7.56853707415E+10	1.82114959867E-01	-3.43647556148E+01	2.85727268907E-05	-1.55987527535E+02	5.51615149050E-05	4.58209960065E+00	1.89766955510E-01	-5.50863255799E+01
7.56913827655E+10	1.84034324695E-01	-3.54886387585E+01	6.41594047106E-05	-1.54612607004E+01	2.55169170780E-05	-6.11273728650E+01	1.86855961925E-01	-5.37757510900E+01
7.56973947896E+10	1.82320739305E-01	-3.42608961842E+01	4.44188508148E-05	5.36953207897E+01	4.82649101822E-05	4.42392175409E+00	1.85640394649E-01	-5.41699652472E+01
7.57034068136E+10	1.85211867194E-01	-3.46971009361E+01	7.20418173991E-05	5.21596449940E+01	5.20365153112E-05	-4.05387995078E+01	1.85472768655E-01	-5.58722725491E+01
7.57094188377E+10	1.83410041349E-01	-3.65481861038E+01	5.68630626124E-05	1.13307526903E+02	2.28063425046E-06	-6.32123138868E+01	1.86383411288E-01	-5.65274298979E+01
7.57154308617E+10	1.83129370681E-01	-3.58410062937E+01	8.41387394740E-05	3.44259306259E+01	4.80967249637E-05	3.25842097097E+01	1.87071122919E-01	-5.63203795893E+01
7.57214428858E+10	1.83237982010E-01	-3.43083125448E+01	5.78697015079E-05	3.61522879444E+00	3.57413820384E-05	4.16508634794E+01	1.88113315968E-01	-5.51981250372E+01
7.57274549098E+10	1.85054851482E-01	-3.55082487438E+01	6.29578018458E-05	-1.20165094724E+01	4.87452974134E-05	-4.09983103329E+01	1.85630733001E-01	-5.59694600620E+01
7.57334669339E+10	1.83821501899E-01	-3.71229450024E+01	3.03488641692E-05	-1.06481125694E+02	6.00239961719E-05	-4.35600096586E+01	1.88292011503E-01	-5.84302676000E+01
7.57394789579E+10	1.80888079444E-01	-3.62582193639E+01	2.32272703003E-05	-1.71701117426E+02	3.62511695886E-05	-9.75660855803E+01	1.85831085776E-01	-5.64563974728E+01
7.57454909820E+10	1.81944609687E-01	-3.56411605223E+01	3.75343595204E-05	2.01596590421E+01	4.04210433798E-05	-1.12786134204E+02	1.84188500752E-01	-5.71052991948E+01
7.57515030060E+10	1.84154893716E-01	-3.60271645908E+01	2.35924859996E-05	-1.36441364456E+02	5.28436737739E-05	-5.25129281748E+01	1.88035391320E-01	-5.83650493504E+01
7.57575150301E+10	1.83125417570E-01	-3.68758246471E+01	3.70539075947E-05	1.43995694484E+01	3.96474638581E-05	2.84867234418E+01	1.85693010865E-01	-5.89684808434E+01
7.57635270541E+10	1.79314403233E-01	-3.56048471837E+01	2.04634878963E-05	1.53804851725E+01	2.12981387588E-05	-3.34483266427E+01	1.83293810642E-01	-5.93351897647E+01
7.57695390782E+10	1.82224610699E-01	-3.76266228069E+01	1.51906132558E-04	-7.18932788531E+01	8.15125316670E-05	-5.17005615411E+01	1.88216642860E-01	-5.97240318216E+01
7.57755511022E+10	1.84361432390E-01	-3.92753935745E+01	6.55621043538E-05	-4.06439889080E+01	5.28665685344E-05	-9.15153161459E+01	1.85346655574E-01	-5.89020906558E+01
7.57815631263E+10	1.82498926286E-01	-3.81938164725E+01	4.57666097720E-05	-6.25876138452E+01	3.94316001592E-05	-1.78856849718E+02	1.83845674121E-01	-5.87429357014E+01
7.57875751503E+10	1.78826271353E-01	-3.64220798864E+01	2.90528380690E-05	1.00435177379E+02	3.38549949277E-05	1.77398176153E+02	1.82606561466E-01	-5.88995931911E+01
7.57935871743E+10	1.85082035701E-01	-3.90575529920E+01	5.21438390683E-05	-8.88564044673E+01	7.32338458271E-05	-2.87183791418E+01	1.84920746643E-01	-5.99666563622E+01
7.57995991984E+10	1.80006993083E-01	-3.93353027457E+01	6.06415545742E-05	-1.59484914354E+01	6.22615233059E-05	-8.93721917343E+01	1.84346013046E-01	-6.00059128046E+01
7.58056112224E+10	1.80890561732E-01	-3.74393788600E+01	1.12534679471E-04	-3.84250713447E+01	6.46396597057E-05	-9.34315964402E+01	1.83650872366E-01	-6.00663574565E+01
7.58116232465E+10	1.83185077561E-01	-3.79614544407E+01	1.16777954195E-04	-6.89836834885E+01	6.00238816190E-05	-8.09462466979E+01	1.82151659983E-01	-6.06080413753E+01
7.58176352705E+10	1.79553151075E-01	-3.76724653503E+01	6.91863889909E-05	-6.65564153007E+01	1.12989884149E-04	-9.23612978589E+01	1.81146874737E-01	-6.05924639710E+01
7.58236472946E+10	1.82039342113E-01	-3.99848346946E+01	8.39390815584E-05	-1.01826224528E+02	1.19055116619E-04	-1.14177275318E+02	1.82812487343E-01	-6.15106985066E+01
7.58296593186E+10	1.81545163667E-01	-4.02618261519E+01	1.11302588365E-04	-1.05030407323E+02	6.30198470187E-05	1.70998484741E+02	1.83700237312E-01	-6.14903459265E+01
7.58356713427E+10	1.80530591779E-01	-3.93881130462E+01	4.66884183472E-05	-1.32234570291E+02	1.16273277377E-04	-1.29615321594E+02	1.81179216743E-01	-6.05767787617E+01
7.58416833667E+10	1.79003045165E-01	-3.86455643408E+01	9.44998253574E-05	-1.66650862641E+02	1.39907398276E-04	-1.78813064938E+02	1.80724163543E-01	-6.25577368066E+01
7.58476953908E+10	1.78622391370E-01	-3.97259770381E+01	1.00395865289E-04	-1.77335453589E+02	5.68108160860E-05	9.52624779154E+01	1.79473935197E-01	-6.22531568136E+01
7.58537074148E+10	1.81256578872E-01	-3.96494978508E+01	6.94143861667E-05	1.25903292782E+02	3.51066685199E-05	-7.18785167348E+01	1.82081508158E-01	-6.24202563488E+01
7.58597194389E+10	1.81171708581E-01	-3.96071463268E+01	3.97990155874E-05	-1.05065548549E+02	3.48975573764E-05	1.07236561195E+02	1.80287484528E-01	-6.33553934904E+01
7.58657314629E+10	1.79158959485E-01	-3.88468899347E+01	2.18868842109E-05	1.73509010530E+02	7.19888518732E-05	-8.50724562729E+01	1.80627155877E-01	-6.18100800644E+01
7.58717434870E+10	1.78220999702E-01	-4.13251925718E+01	1.95706738747E-05	-6.59858404570E-01	2.97422029943E-05	1.16031152968E+02	1.80971051773E-01	-6.35490155638E+01
7.58777555110E+10	1.79377967776E-01	-4.05091299465E+01	3.28796188505E-05	-1.45544359882E+02	6.02791562469E-05	1.64526793812E+02	1.82828643417E-01	-6.50352636324E+01
7.58837675351E+10	1.75941048337E-01	-4.00413495825E+01	1.45300537695E-05	1.18190828470E+02	4.21523986543E-05	-1.34907021202E+02	1.80210037352E-01	-6.50388309871E+01
7.58897795591E+10	1.78106945340E-01	-4.07399053918E+01	4.33031319262E-05	-1.71142958224E+02	1.28183901601E-04	-1.76165773437E+02	1.78727552594E-01	-6.43041420062E+01
7.58957915832E+10	1.79612052340E-01	-4.25008471531E+01	1.02908312625E-05	-5.33950946969E+01	9.46025822063E-05	1.60323525556E+02	1.76695403967E-01	-6.45375246170E+01
7.59018036072E+10	1.80297111831E-01	-4.25267810349E+01	2.71659656649E-05	1.06804353925E+02	3.95210639307E-05	9.19300487022E+01	1.78325109210E-01	-6.56069811726E+01
7.59078156313E+10	1.76701338477E-01	-3.99085459335E+01	1.27799414058E-05	-1.78492033773E+01	4.96840027792E-05	-8.98074268670E+01	1.78318596359E-01	-6.55082765599E+01
7.59138276553E+10	1.76412759229E-01	-4.14186899010E+01	8.46771042434E-05	-1.42717393916E+02	3.85058286851E-05	-1.76166936976E+02	1.77715271356E-01	-6.64722934701E+01
7.59198396794E+10	1.79988380336E-01	-4.18939277182E+01	4.66086360139E-05	1.62269118372E+02	7.12967935392E-05	1.60814057793E+02	1.77826438835E-01	-6.67839079630E+01
7.59258517034E+10	1.78568992201E-01	-4.18003834429E+01	4.81727265586E-05	-1.74597755656E+02	8.12226516428E-06	2.55558830132E+01	1.78443307024E-01	-6.74017719459E+01
7.59318637275E+10	1.78399240981E-01	-4.30763057852E+01	3.75827398196E-05	1.20030935849E+02	3.90216005430E-05	-1.49160448837E+02	1.78452561926E-01	-6.74977706463E+01
7.59378757515E+10	1.74788982769E-01	-4.15451536509E+01	5.75266359472E-05	1.03198622651E+02	8.29387607972E-05	1.37263433491E+02	1.76902686984E-01	-6.82275713416E+01
7.59438877756E+10	1.79789723528E-01	-4.32501482244E+01	9.46996339114E-05	1.62642246510E+02	9.06969771302E-05	1.41071617479E+02	1.76643876985E-01	-6.72793106567E+01
7.59498997996E+10	1.79512005590E-01	-4.29964861563E+01	7.93343173304E-05	9.06212166477E+01	5.01471116140E-05	7.80604023702E+01	1.75041982508E-01	-6.74126427706E+01
7.59559118236E+10	1.78147826043E-01	-4.22751160284E+01	2.81201599161E-05	6.41942289130E+01	9.45389327974E-05	1.18993450119E+02	1.75354806820E-01	-6.81645648107E+01
7.59619238477E+10	1.76945420064E-01	-4.36818990728E+01	4.59438833719E-05	1.67049287974E+02	8.63845745402E-05	3.89972501422E+01	1.73378062873E-01	-6.78780979288E+01
7.59679358717E+10	1.77556013169E-01	-4.40469067463E+01	5.23693609445E-05	5.16823163105E+01	8.36003238199E-05	8.76701322903E+01	1.72649064662E-01	-6.80912744942E+01
7.59739478958E+10	1.79336633666E-01	-4.37524046166E+01	5.09031329669E-05	1.13893001029E+02	4.86650286905E-05	2.55202789120E+01	1.74119851670E-01	-6.98020023310E+01
7.59799599198E+10	1.78435611820E-01	-4.34420136804E+01	6.56117475621E-05	8.35467420039E+01	5.01179472972E-05	9.45510274867E+01	1.73464565507E-01	-6.81420048807E+01
7.59859719439E+10	1.74640219688E-01	-4.46653233103E+01	6.83231544409E-05	9.03404241038E+01	3.05963693132E-05	2.66795816670E+01	1.72598987790E-01	-6.99952600825E+01
7.59919839679E+10	1.78003636873E-01	-4.58573399466E+01	4.94112204217E-05	9.38768064964E+01	1.49514259754E-05	-1.28426004991E+02	1.73627460859E-01	-7.07784028215E+01
7.59979959920E+10	1.77448676278E-01	-4.36756489410E+01	4.51093236470E-05	6.98446509240E+01	6.70933428186E-05	8.26537435581E+01	1.69393925163E-01	-6.88640194767E+01
7.60040080160E+10	1.76172855453E-01	-4.52496722891E+01	8.68968756794E-05	6.49210925332E+01	9.12703476050E-05	8.86122485258E+01	1.71827029836E-01	-6.97578162603E+01
7.60100200401E+10	1.76763273638E-01	-4.62943917482E+01	7.26007637981E-05	6.46530912234E+01	8.57699120235E-05	8.91858519395E+01	1.70123078498E-01	-7.08085398924E+01
7.60160320641E+10	1.73724285054E-01	-4.37493373528E+01	4.21906032390E-05	1.15891540383E+02	3.35545564404E-05	1.30585364095E+02	1.73027649100E-01	-7.19681733120E+01
7.60220440882E+10	1.74633859399E-01	-4.52687629429E+01	1.05999287225E-04	3.10551400138E+01	1.10759745692E-04	7.96235830443E+01	1.71442504728E-01	-7.15501008124E+01
7.60280561122E+10	1.76280715726E-01	-4.67430926939E+01	5.42365965492E-05	1.01857354606E+02	8.25407920641E-05	6.35810422121E+01	1.69102733458E-01	-7.19788351098E+01
7.60340681363E+10	1.74858714443E-01	-4.48447190716E+01	3.53375093477E-05	1.26733047347E+02	1.24696969105E-04	3.94962327482E+01	1.67317981947E-01	-7.14660240347E+01
7.60400801603E+10	1.74085256911E-01	-4.42409005020E+01	9.71901835290E-05	5.48521670120E+01	1.47024188235E-04	6.48713205458E+00	1.69295193042E-01	-7.27807923847E+01
7.60460921844E+10	1.73552527821E-01	-4.38055633385E+01	1.64935052989E-04	2.70624738601E+01	8.71539948566E-05	-5.50316948745E+00	1.68829003338E-01	-7.29532234488E+01
7.60521042084E+10	1.72883359447E-01	-4.60156404268E+01	1.28899165231E-04	-4.02184884204E+00	1.61111013239E-04	-1.38469243980E+01	1.68548118636E-01	-7.35204221124E+01
7.60581162325E+10	1.74298789233E-01	-4.75542127496E+01	1.28876483641E-04	-6.13501767334E+00	1.00380422224E-04	-3.76976018198E+01	1.68390130941E-01	-7.32999999898E+01
7.60641282565E+10	1.75026121580E-01	-4.56997656514E+01	1.24494063446E-04	-5.13651888552E+01	6.49989129764E-05	-4.55877946072E+01	1.66367226068E-01	-7.34292975993E+01
7.60701402806E+10	1.72516779037E-01	-4.51778328891E+01	6.26351626590E-05	-4.61662743551E+01	1.28055559220E-04	-5.78603447953E+01	1.65844930794E-01	-7.28332339611E+01
7.60761523046E+10	1.74306819081E-01	-4.82447897873E+01	6.33267485462E-05	-7.37884433642E+01	7.81103050881E-05	-7.13788351030E+01	1.65408133369E-01	-7.30493380666E+01
7.60821643287E+10	1.75877980505E-01	-4.77482412695E+01	7.84058657266E-05	-7.02221591223E+01	8.52500046064E-05	-1.08162841071E+02	1.66064563650E-01	-7.42524178546E+01
7.60881763527E+10	1.74755474458E-01	-4.78231493967E+01	6.12537719026E-05	-7.88030145347E+01	4.67849262935E-05	-1.34777623573E+02	1.66076054698E-01	-7.49181276302E+01
7.60941883768E+10	1.70952958347E-01	-4.64633274613E+01	4.87043635426E-05	-1.53847784894E+02	3.65183612558E-05	1.67760014238E+02	1.63762369635E-01	-7.42902100174E+01
7.61002004008E+10	1.71825828182E-01	-4.67018641735E+01	5.58728337846E-05	-7.18023407445E+01	7.03821219531E-06	-5.68161772562E+01	1.64669714595E-01	-7.53293238196E+01
7.61062124248E+10	1.74065408150E-01	-4.72403145962E+01	6.55917667857E-05	-4.30061458586E+00	5.77932750207E-05	-5.28560101905E+01	1.63894468142E-01	-7.55591126801E+01
7.61122244489E+10	1.70294154338E-01	-4.72495314257E+01	4.54157659285E-05	-7.59723166336E+01	7.28730992046E-05	-4.23107776267E+01	1.63180169950E-01	-7.61348018714E+01
7.61182364729E+10	1.74179294443E-01	-4.93278709003E+01	7.44417359182E-05	-2.60638037669E+01	4.02033752689E-05	-6.64954647358E+01	1.63506432174E-01	-7.63812383254E+01
7.61242484970E+10	1.69520973054E-01	-4.71580533875E+01	6.18151763229E-05	-1.45660563693E+01	5.90745535274E-05	-4.18438646515E+01	1.63079850975E-01	-7.65010100922E+01
7.61302605210E+10	1.70423668793E-01	-4.60421960446E+01	7.59130119209E-05	-6.36975543746E+01	7.90586491121E-05	-2.23165417527E+01	1.61183150272E-01	-7.55259740421E+01
7.61362725451E+10	1.70781356375E-01	-4.77006367131E+01	1.39474226837E-04	-5.99541784804E+01	1.11018126715E-04	-2.32007270226E+01	1.60671103433E-01	-7.65548010350E+01
7.61422845691E+10	1.73508434266E-01	-4.90890335354E+01	1.55423876124E-04	-7.10238991093E+01	1.67079660050E-04	-5.64962237240E+01	1.60730260984E-01	-7.75686846934E+01
7.61482965932E+10	1.69607194204E-01	-4.87738120270E+01	1.53014841153E-04	-1.25052500950E+02	1.11817174025E-04	-1.21786903995E+02	1.60558468446E-01	-7.68993198470E+01
7.61543086172E+10	1.74039650544E-01	-4.93047624578E+01	1.45438937892E-04	-1.19624168896E+02	1.79808816845E-04	-1.10773500016E+02	1.60279993406E-01	-7.70670634126E+01
7.61603206413E+10	1.71123875293E-01	-4.88156071991E+01	1.48717511004E-04	-1.54428843356E+02	9.83398468644E-05	-1.75561870878E+02	1.60974947100E-01	-7.80429602688E+01
7.61663326653E+10	1.70221672194E-01	-4.91231582153E+01	5.86906529776E-05	-1.37739770614E+02	5.37199699346E-05	-1.21192343221E+02	1.58877861537E-01	-7.77196898159E+01
7.61723446894E+10	1.72847615870E-01	-5.06346471600E+01	9.97325370208E-05	-1.74795893478E+02	9.70234636474E-05	-1.48528427395E+02	1.59875439153E-01	-7.92229292013E+01
7.61783567134E+10	1.72241529299E-01	-5.08935857180E+01	2.95224574135E-05	-1.40008207257E+02	5.55098317634E-05	-8.98008155165E+01	1.59885684546E-01	-7.96278708579E+01
7.61843687375E+10	1.69896385158E-01	-5.08266171044E+01	1.17613897229E-04	-1.13754435105E+02	4.42024830108E-05	1.43517866963E+02	1.57950773312E-01	-7.90247304903E+01
7.61903807615E+10	1.70252749851E-01	-5.08838130230E+01	5.51040384973E-05	-1.76014733178E+02	9.67713041072E-05	-1.61868817961E+02	1.57192579341E-01	-7.90451433375E+01
7.61963927856E+10	1.70096366454E-01	-4.81825289548E+01	9.99145844889E-05	-1.61038657189E+02	3.47634355734E-05	-1.20991606735E+02	1.56346703871E-01	-7.91467819147E+01
7.62024048096E+10	1.66972283150E-01	-4.94010870011E+01	4.54069491240E-05	-7.95641865342E+01	1.24915540786E-05	-1.47594650937E+01	1.56298623614E-01	-7.89805373163E+01
7.62084168337E+10	1.67707749618E-01	-5.03087964084E+01	2.97838455262E-05	1.48687246230E+02	4.24455309510E-05	4.46612181358E+01	1.55559214243E-01	-7.97021650750E+01
7.62144288577E+10	1.68265425159E-01	-4.93698477199E+01	5.21728579277E-06	-1.71010620435E+02	7.16662138383E-05	-1.48153388338E+02	1.56307710447E-01	-8.03020109835E+01
7.62204408818E+10	1.69364299522E-01	-4.95633326070E+01	5.63544744892E-05	1.61784879380E+02	4.47747008353E-05	-1.31025586714E+02	1.56880586046E-01	-8.14843597433E+01
7.62264529058E+10	1.69951835222E-01	-5.16455049215E+01	4.61718525283E-05	1.56704025131E+02	2.46770029432E-05	-1.65574424959E+02	1.55998042301E-01	-8.16250771753E+01
7.62324649299E+10	1.68308325586E-01	-4.98973587786E+01	6.27234513747E-05	1.43810968122E+02	7.76714619734E-05	-1.68417778876E+02	1.54152878890E-01	-8.02796835389E+01
7.62384769539E+10	1.68642851814E-01	-5.12050373346E+01	7.96434857991E-05	1.79700228842E+02	5.67536450653E-05	1.35294155607E+02	1.53037897949E-01	-8.10430776194E+01
7.62444889780E+10	1.67992775585E-01	-5.12794233939E+01	5.24212401788E-05	1.61162939359E+02	9.61124653421E-05	1.09781569232E+02	1.53304502390E-01	-8.15779791937E+01
7.62505010020E+10	1.69396482644E-01	-4.99967279825E+01	9.61616404708E-05	1.49189033817E+02	8.72542496631E-05	1.52702212694E+02	1.53616912303E-01	-8.21943338595E+01
7.62565130261E+10	1.69461262525E-01	-5.13443590021E+01	7.08170042819E-05	1.20833554982E+02	4.87911403775E-05	1.37650610019E+02	1.53762026861E-01	-8.29335582016E+01
7.62625250501E+10	1.68478897533E-01	-5.17959083572E+01	1.19317823227E-04	8.25515100370E+01	5.69793955017E-05	7.84373922500E+01	1.55811837322E-01	-8.35684067258E+01
7.62685370741E+10	1.68607830407E-01	-5.30952024020E+01	8.97311683768E-05	6.67545926492E+01	2.52678402151E-05	6.55481183909E+01	1.52650071976E-01	-8.29690132993E+01
7.62745490982E+10	1.66789110157E-01	-5.12766938585E+01	4.05096931710E-05	1.26882639788E+02	7.99725853493E-05	1.33595203946E+02	1.53420842312E-01	-8.33342190910E+01
7.62805611222E+10	1.69093471871E-01	-5.30452746480E+01	4.24072602406E-05	-5.77232466543E+00	7.28701250191E-05	1.32161199560E+02	1.51482373849E-01	-8.36420476800E+01
7.62865731463E+10	1.68099787142E-01	-5.24180813523E+01	8.48681991263E-05	-1.67816185571E+02	1.28696491423E-04	1.67365480981E+02	1.51004632203E-01	-8.39109398818E+01
7.62925851703E+10	1.65871400545E-01	-5.24888505442E+01	5.22981604294E-05	1.35724435736E+02	3.70359586666E-05	1.49245620575E+02	1.50830711202E-01	-8.41310812752E+01
7.62985971944E+10	1.67541381145E-01	-5.27449988420E+01	9.92180736619E-05	1.02156872880E+02	3.44829541208E-05	1.03531663054E+02	1.50654922326E-01	-8.44247917471E+01
7.63046092184E+10	1.66195331933E-01	-5.37816864817E+01	2.06310802384E-05	-1.28413771657E+02	1.81737443626E-05	-5.50589537727E+00	1.51351038248E-01	-8.52200370962E+01
7.63106212425E+10	1.66790772375E-01	-5.35840910298E+01	7.42575479117E-05	1.24001828224E+02	4.01166465439E-05	1.76434227268E+02	1.49973074607E-01	-8.51711313252E+01
7.63166332665E+10	1.64318208259E-01	-5.22903573266E+01	6.83435504021E-05	8.76593488297E+01	9.04579675823E-05	1.24231141726E+02	1.49827576800E-01	-8.60406206183E+01
7.63226452906E+10	1.69057565463E-01	-5.27286978940E+01	1.08086294481E-04	1.27129245168E+02	1.29899075468E-04	1.23665744130E+02	1.48981937339E-01	-8.63536804660E+01
7.63286573146E+10	1.65639114621E-01	-5.23954048412E+01	1.15296176412E-04	9.23795426701E+01	7.55276969979E-05	1.01857447286E+02	1.47060049454E-01	-8.51566478601E+01
7.63346693387E+10	1.65970194900E-01	-5.47563319173E+01	4.43755296356E-05	2.97908670469E+01	9.67331792347E-05	6.25252227210E+01	1.49499871200E-01	-8.68557054857E+01
7.63406813627E+10	1.65871225096E-01	-5.31898538615E+01	7.84468033720E-05	5.72614326042E+01	1.37466607901E-04	3.94388141191E+01	1.47042336717E-01	-8.70328853730E+01
7.63466933868E+10	1.69131311546E-01	-5.38757921926E+01	1.83221856586E-04	3.88851175720E+01	5.87918881740E-05	4.47431174364E+01	1.47459600412E-01	-8.73278437539E+01
7.63527054108E+10	1.65804765002E-01	-5.30060141195E+01	4.24561763858E-05	1.33287577986E+01	3.36420284091E-05	6.75420124232E+01	1.47078392359E-01	-8.71679502563E+01
7.63587174349E+10	1.64997732835E-01	-5.38333963552E+01	6.04563925367E-05	-3.32867717711E+01	7.12077284614E-05	2.80538182367E+01	1.48328627570E-01	-8.82766299037E+01
7.63647294589E+10	1.67127702381E-01	-5.46299834119E+01	7.72373684128E-05	3.51699148859E+01	5.80748013381E-05	-6.89929271257E+01	1.46885580694E-01	-8.86358437117E+01
7.63707414830E+10	1.67182924570E-01	-5.57345724037E+01	3.30786693449E-05	-6.12148846813E+00	2.07059620559E-05	1.57234589294E+02	1.44339422778E-01	-8.84805495721E+01
7.63767535070E+10	1.66977501492E-01	-5.65198089794E+01	6.70306099212E-05	-1.07319136401E+01	8.94912033075E-05	2.53813069428E+01	1.45349034873E-01	-8.88631692780E+01
7.63827655311E+10	1.66007892091E-01	-5.73190221140E+01	8.77836858732E-06	3.39101275134E+01	9.71021956098E-05	5.12451024025E+01	1.45224302667E-01	-8.96086244044E+01
7.63887775551E+10	1.65363564026E-01	-5.50805665847E+01	8.23327112505E-05	1.00641768071E+01	1.17622233341E-04	1.67404402662E+01	1.44761214506E-01	-8.99536723643E+01
7.63947895792E+10	1.63885121593E-01	-5.36957262671E+01	1.01536160960E-04	-1.41213401932E+01	4.76564332557E-05	7.88351409253E+01	1.42955205402E-01	-8.90519934180E+01
7.64008016032E+10	1.61525562276E-01	-5.51231023032E+01	2.58944573247E-05	4.60868351910E+01	2.88901416290E-05	1.41802842019E+02	1.42081055417E-01	-8.98135250759E+01
7.64068136273E+10	1.65917764990E-01	-5.43343502793E+01	3.78734581773E-05	-4.13776291344E+00	6.35132037704E-05	3.02375306006E+01	1.41718866235E-01	-9.06743758245E+01
7.64128256513E+10	1.66584606405E-01	-5.77367408890E+01	8.27908771106E-05	1.16598267935E+01	9.68938061050E-05	2.03295020489E+01	1.42558979509E-01	-9.21207272078E+01
7.64188376754E+10	1.63907452021E-01	-5.54964141490E+01	6.18371756957E-05	-2.57510792764E+01	6.35157558005E-05	-4.05996312142E+01	1.42143938121E-01	-9.14400826797E+01
7.64248496994E+10	1.63330556146E-01	-5.46681479776E+01	7.07778468976E-05	-6.52008441254E+01	1.03519086838E-04	-4.07594119653E+00	1.41159364014E-01	-9.24127655418E+01
7.64308617234E+10	1.65154189244E-01	-5.52098720743E+01	5.65180881692E-05	-7.97127151513E+01	9.60086781935E-05	-4.03020211690E+01	1.39248253621E-01	-9.11698954831E+01
7.64368737475E+10	1.65383517284E-01	-5.64617092702E+01	7.36383422211E-05	-6.67727910121E+01	7.89631353334E-05	-4.13732204805E+01	1.42365582156E-01	-9.35970081814E+01
7.64428857715E+10	1.65892459464E-01	-5.72499227480E+01	9.13539670194E-05	-5.78234526794E+01	4.81701875641E-05	2.80880154335E+01	1.39062282766E-01	-9.17565684398E+01
7.64488977956E+10	1.64352131975E-01	-5.75579189412E+01	1.32237570473E-04	-1.41586857885E+02	9.45302662756E-05	-1.14698674979E+00	1.38852836300E-01	-9.21919260087E+01
7.64549098196E+10	1.61907830737E-01	-5.58248564540E+01	5.05814016162E-05	-1.36333713378E+02	6.52616318987E-05	-8.02103533976E+01	1.38859668097E-01	-9.29044676247E+01
7.64609218437E+10	1.62910908661E-01	-5.79744706230E+01	1.26400824797E-05	5.69325149489E+01	6.57149283844E-05	-1.22741873762E+02	1.38866350780E-01	-9.43652044568E+01
7.64669338677E+10	1.62156613795E-01	-5.60748988310E+01	3.82841085351E-05	-1.13324270112E+02	8.54106688188E-05	-1.09624635711E+02	1.37970492084E-01	-9.51339121778E+01
7.64729458918E+10	1.63361850914E-01	-5.59409006522E+01	8.76919142829E-05	-1.72025604352E+02	1.17424155622E-04	-9.07268639916E+01	1.37269427500E-01	-9.45283198693E+01
7.64789579158E+10	1.65523567282E-01	-5.88455583422E+01	6.46867804188E-05	1.77913857998E+02	7.02687996846E-05	-1.22592294114E+02	1.35973236547E-01	-9.41363842022E+01
7.64849699399E+10	1.63821176701E-01	-5.61860594643E+01	2.00974161152E-05	9.70224945766E+01	4.19650589326E-05	-5.11634713036E+00	1.36258773945E-01	-9.48879007340E+01
7.64909819639E+10	1.62492034524E-01	-5.69804797562E+01	5.49168140413E-05	-8.87885016994E+01	9.97255939363E-05	-5.20938547809E+01	1.36816007503E-01	-9.67870986328E+01
7.64969939880E+10	1.62807398812E-01	-5.80888486432E+01	1.42518699931E-04	-7.35751029994E+01	7.21255642093E-05	-9.58152984081E+01	1.35495315268E-01	-9.69459877242E+01
7.65030060120E+10	1.62565086515E-01	-5.87182460737E+01	1.52505422934E-04	-6.31151740604E+01	9.75549435555E-05	-1.60063470480E+02	1.34364822119E-01	-9.64796598286E+01
7.65090180361E+10	1.63841402048E-01	-5.79120536924E+01	1.11564635314E-04	-1.41448893805E+02	1.19349538934E-04	-1.18750451554E+02	1.32586764636E-01	-9.55002069473E+01
7.65150300601E+10	1.63868456809E-01	-5.86196226713E+01	3.68589985123E-05	1.47363796132E+02	7.81859738747E-06	1.03898554401E+01	1.33081274931E-01	-9.72421218582E+01
7.65210420842E+10	1.63557302244E-01	-6.04608098690E+01	5.12299515537E-05	-1.05531352283E+02	3.22263059849E-05	1.62017827079E+02	1.33454026430E-01	-9.78862727266E+01
7.65270541082E+10	1.62865118192E-01	-5.97729754788E+01	8.76400161716E-05	-1.67874492391E+02	5.90641146273E-05	-1.15107449156E+02	1.31791618876E-01	-9.71763801211E+01
7.65330661323E+10	1.65430361729E-01	-6.07173763387E+01	6.52253139580E-05	-1.62695066907E+02	9.28755848830E-05	-1.58945685252E+02	1.31755956821E-01	-9.84436649220E+01
7.65390781563E+10	1.63571004088E-01	-5.92571788020E+01	9.46267455993E-05	-1.25430052668E+02	1.27904291683E-04	-1.31477938158E+02	1.29546710399E-01	-9.79221637917E+01
7.65450901804E+10	1.65548107623E-01	-5.99339569607E+01	1.10945058101E-04	1.73575042897E+02	1.37051164071E-04	-1.60692019334E+02	1.29313928450E-01	-9.88003937648E+01
7.65511022044E+10	1.62226452569E-01	-5.83871007696E+01	3.73545077664E-05	1.18151032108E+02	1.33399659321E-04	1.50988357379E+02	1.29073992241E-01	-9.95622814610E+01
7.65571142285E+10	1.62853152340E-01	-6.02860993399E+01	1.45417296853E-05	6.14262164750E+01	6.01795519265E-05	1.44394018766E+02	1.29168617507E-01	-9.97378892707E+01
7.65631262525E+10	1.64428466650E-01	-6.21607174621E+01	3.87655689695E-05	1.42382924308E+02	9.59869443121E-05	1.25415751614E+02	1.28664076079E-01	-9.98157550337E+01
7.65691382766E+10	1.61254421044E-01	-5.95340465922E+01	9.54060125906E-06	-6.23050697482E+01	1.14795276423E-04	-9.69191609088E+01	1.27152433971E-01	-1.00842973992E+02
7.65751503006E+10	1.61216196925E-01	-5.99923796715E+01	7.75550312560E-05	-1.57763528951E+02	2.87298634068E-05	1.08189905079E+02	1.27131350686E-01	-1.00895704966E+02
7.65811623246E+10	1.61301647512E-01	-6.04473308014E+01	5.86349775237E-05	1.18698491086E+02	1.05401803014E-04	-1.79648591854E+02	1.25903271023E-01	-1.00735163621E+02
7.65871743487E+10	1.62097271138E-01	-6.16601224381E+01	3.28850533927E-05	1.66132759777E+02	5.12170298386E-05	8.56905069340E+01	1.25641273719E-01	-1.01669844352E+02
7.65931863727E+10	1.60904463399E-01	-6.06435660646E+01	8.69351903405E-06	-1.28455981937E+02	2.24642132047E-05	5.84343490589E+01	1.25213578256E-01	-1.02466169161E+02
7.65991983968E+10	1.63413946978E-01	-6.21581739300E+01	4.22311741608E-05	-1.02425319081E+02	6.76125551541E-05	4.13359638861E+01	1.24257731311E-01	-1.02204715055E+02
7.66052104208E+10	1.60878824535E-01	-6.07241136385E+01	7.48857909437E-05	-1.18688593924E+02	5.72897220071E-05	1.78848391380E+02	1.22987252517E-01	-1.02621546020E+02
7.66112224449E+10	1.59828713782E-01	-6.12147897315E+01	1.90614601132E-05	8.39993110995E+01	3.57096266792E-05	1.16203997571E+02	1.23497092662E-01	-1.04017478112E+02
7.66172344689E+10	1.61384986667E-01	-6.14138748416E+01	8.39980951835E-05	-1.31971630178E+02	7.71851871982E-05	-1.56764393285E+02	1.23051922669E-01	-1.04437095056E+02
7.66232464930E+10	1.60336635660E-01	-6.02486934075E+01	8.97223397918E-06	-1.71470442520E+02	9.67515669367E-05	1.54526544764E+02	1.22015202367E-01	-1.04280667268E+02
7.66292585170E+10	1.61667391294E-01	-6.13405797035E+01	1.26437670269E-04	1.57865288329E+02	1.47777400565E-04	1.39277123093E+02	1.20049898611E-01	-1.03405685658E+02
7.66352705411E+10	1.61482436549E-01	-6.18568842544E+01	4.38751522992E-05	9.23411474002E+01	9.03006450431E-05	9.57763243427E+01	1.19152594382E-01	-1.04014208868E+02
7.66412825651E+10	1.62442564842E-01	-6.33774022843E+01	4.71568611687E-05	1.36557278289E+02	5.04258060697E-05	1.14191864314E+02	1.18421630890E-01	-1.04478568856E+02
7.66472945892E+10	1.62327521522E-01	-6.40592710505E+01	4.51207245360E-05	1.40846852539E+02	7.94198062569E-05	6.89592770452E+01	1.18508316437E-01	-1.04958615459E+02
7.66533066132E+10	1.61967252186E-01	-6.35502403008E+01	5.05967560436E-05	2.76324512622E+01	3.98223297890E-05	1.83242639919E+01	1.18677115477E-01	-1.06025525620E+02
7.66593186373E+10	1.58826877922E-01	-6.33152509254E+01	1.62029918087E-05	1.10382528674E+02	2.82790568860E-05	7.81221873905E+01	1.17675703341E-01	-1.07142824327E+02
7.66653306613E+10	1.60927439834E-01	-6.38643054767E+01	4.51682344916E-05	5.65999186946E+01	1.19468885650E-04	2.65524387627E+01	1.16903305453E-01	-1.06232675394E+02
7.66713426854E+10	1.60805161312E-01	-6.35936094412E+01	2.26456400948E-05	-7.09615058726E+01	3.49726192721E-05	7.87634647620E+01	1.14957908331E-01	-1.05167049969E+02
7.66773547094E+10	1.60168213218E-01	-6.29502797002E+01	5.34063348666E-05	1.05159358816E+02	2.14674675296E-05	-1.73648314331E+01	1.14619551277E-01	-1.07592372317E+02
7.66833667335E+10	1.58902166741E-01	-6.26833415839E+01	8.78382965984E-05	-4.39486881665E+01	8.68659321099E-06	-4.39541392034E+01	1.15147832781E-01	-1.06256306649E+02
7.66893787575E+10	1.59135025124E-01	-6.46804502191E+01	2.29150080334E-05	8.55868141011E+01	4.75396433967E-05	-8.29685482079E+01	1.14126742658E-01	-1.07692357378E+02
7.66953907816E+10	1.58830225249E-01	-6.29697439799E+01	2.50591450872E-05	1.06141978288E+02	2.28077339577E-05	1.25542509769E+02	1.13774777133E-01	-1.08301025952E+02
7.67014028056E+10	1.62287124842E-01	-6.49422156161E+01	3.09635091231E-05	-1.69850622520E+02	4.94185970429E-05	-1.50516184915E+02	1.12531636579E-01	-1.07750314168E+02
7.67074148297E+10	1.61034937158E-01	-6.47978555908E+01	4.24930231135E-05	3.56338452866E+01	3.38482150625E-05	-1.59824440856E+02	1.12302132448E-01	-1.09443843796E+02
7.67134268537E+10	1.60336024526E-01	-6.54126407756E+01	4.62411257234E-05	-1.39245088610E+01	3.62452392967E-05	7.75911742960E+01	1.10641003408E-01	-1.09383027798E+02
7.67194388778E+10	1.62548121118E-01	-6.64534986716E+01	4.36424023929E-05	7.95154559103E+01	8.06690224438E-05	5.20284058503E+01	1.09470531602E-01	-1.07808448307E+02
7.67254509018E+10	1.60320430183E-01	-6.49949901856E+01	4.80189825513E-05	9.95446732473E+01	7.06154807153E-05	4.55120852071E+01	1.09715223406E-01	-1.09153213572E+02
7.67314629259E+10	1.59927481037E-01	-6.60216937395E+01	8.27753696323E-05	6.47010036992E+01	5.43971734483E-05	-1.93835841677E+01	1.09728829130E-01	-1.09782562951E+02
7.67374749499E+10	1.61371993681E-01	-6.60474725174E+01	7.05934343672E-05	-3.81260297698E+01	7.73299754624E-05	-4.24355496371E+01	1.07875635797E-01	-1.10375528988E+02
7.67434869739E+10	1.62719336564E-01	-6.67297823828E+01	9.30029928393E-05	7.69147364836E-02	4.94711406383E-05	5.75075649716E+00	1.07214000543E-01	-1.10614223121E+02
7.67494989980E+10	1.59840663177E-01	-6.61442473732E+01	7.11706808155E-06	9.08091259719E+01	3.76465680559E-05	1.53827014880E+00	1.06903894010E-01	-1.10406350438E+02
7.67555110220E+10	1.57133159037E-01	-6.65473066267E+01	2.45099774476E-05	-5.91944002383E+01	7.92978559286E-05	-1.09661875581E+02	1.07116113879E-01	-1.12079826064E+02
7.67615230461E+10	1.56955294563E-01	-6.57984725075E+01	8.13995403916E-05	-2.70178155278E+01	5.22393589942E-05	-1.58149712443E+02	1.05503291357E-01	-1.10884452780E+02
7.67675350701E+10	1.56687054327E-01	-6.56351085798E+01	4.71997470784E-05	-1.30070130662E+02	5.08629369491E-05	-8.79529187400E+01	1.04564780338E-01	-1.13028394903E+02
7.67735470942E+10	1.56280840466E-01	-6.48416299896E+01	3.28071228160E-05	2.63180802642E+00	7.80911604655E-05	-1.50939282352E+02	1.03809263298E-01	-1.12262564140E+02
7.67795591182E+10	1.60193060252E-01	-6.76514717733E+01	4.43239966207E-05	-7.49053873462E+01	2.59692952333E-05	-1.53028416580E+02	1.03272831560E-01	-1.12835998372E+02
7.67855711423E+10	1.58611772162E-01	-6.64472684780E+01	4.35883751165E-05	-1.26149314057E+02	4.49429769725E-05	1.45221071127E+02	1.02581841202E-01	-1.12983362642E+02
7.67915831663E+10	1.56710926301E-01	-6.74408627378E+01	2.55652078851E-05	-1.66150391081E+02	5.09115214300E-05	-1.42506451684E+01	1.02794262643E-01	-1.13275581805E+02
7.67975951904E+10	1.56935396949E-01	-6.58616701177E+01	4.54704697968E-05	6.10450512246E+01	2.74610224004E-05	-3.40317449578E+01	1.01657537759E-01	-1.13749677779E+02
7.68036072144E+10	1.55835799013E-01	-6.75797828025E+01	5.43464838697E-06	1.27510990610E+02	5.36516397904E-05	-3.06895878892E+01	1.01233871204E-01	-1.15137926126E+02
7.68096192385E+10	1.59884586798E-01	-6.91135740744E+01	6.17411574153E-05	-1.49612231148E+02	1.61133438949E-05	-6.05301451097E+01	1.00139787769E-01	-1.13840309069E+02
7.68156312625E+10	1.58105726386E-01	-6.77797043758E+01	2.77675389157E-05	7.06344740725E+01	5.31628924043E-06	5.62742769614E+01	9.91408058425E-02	-1.14367937789E+02
7.68216432866E+10	1.55313588050E-01	-6.63449175608E+01	6.41385818041E-05	1.12581668553E+02	1.74392671276E-05	8.95529051076E+01	9.80264210536E-02	-1.15093630589E+02
7.68276553106E+10	1.55592838528E-01	-6.74796947830E+01	6.31181344497E-05	1.78021807765E+02	4.28610947518E-05	1.14521287833E+02	9.77597350614E-02	-1.15438789365E+02
7.68336673347E+10	1.56913796886E-01	-6.84198517984E+01	8.81217127853E-05	2.03498963704E+01	2.43712424187E-05	-9.49475048245E+01	9.74895175767E-02	-1.15527234470E+02
7.68396793587E+10	1.58025352084E-01	-6.81462466296E+01	5.08727067252E-05	1.30859375009E+02	7.36287499061E-05	-6.02792075371E+01	9.62606122169E-02	-1.15799774454E+02
7.68456913828E+10	1.58591441465E-01	-6.90717577655E+01	1.55953051730E-05	-6.14319160441E+01	2.53221481107E-05	1.76995409906E+02	9.60027235599E-02	-1.18036396684E+02
7.68517034068E+10	1.56056449520E-01	-6.78717727442E+01	2.76833704396E-05	7.99340686880E+01	9.54218173033E-05	1.14445577154E+02	9.46013741977E-02	-1.17506296138E+02
7.68577154309E+10	1.54009913832E-01	-6.88755280668E+01	2.91364610480E-05	-2.68487237458E+01	5.28074837303E-05	8.52633586949E+01	9.42565030652E-02	-1.17593032916E+02
7.68637274549E+10	1.57298200030E-01	-6.95412952435E+01	8.10149656963E-05	1.19969689899E+01	6.01027013990E-05	-3.81227558335E+01	9.39896186876E-02	-1.18000081534E+02
7.68697394790E+10	1.56470500726E-01	-6.97617824517E+01	9.81304532444E-05	-6.75862023557E+01	6.26799335696E-05	7.53453858111E+00	9.32507551025E-02	-1.17319006458E+02
7.68757515030E+10	1.56747817930E-01	-6.96104920830E+01	8.90369810437E-05	-1.68342668152E+02	3.28454314171E-05	-8.23908424903E+01	9.16542325636E-02	-1.18163521895E+02
7.68817635271E+10	1.59248660779E-01	-7.07339380740E+01	5.52917101540E-05	1.01576541265E+02	2.77815111834E-06	2.98690872255E+01	9.01809234285E-02	-1.18627122349E+02
7.68877755511E+10	1.53738660603E-01	-6.81418619004E+01	1.11758162178E-04	1.19547624856E+02	1.01514062023E-04	1.37093983220E+02	8.99816616917E-02	-1.19987594309E+02
7.68937875752E+10	1.57408960860E-01	-7.01336997943E+01	1.33244374163E-04	1.00366574756E+02	6.93388154586E-05	3.81978078874E+01	8.93727665784E-02	-1.20258524123E+02
7.68997995992E+10	1.54972814471E-01	-7.01440958721E+01	8.96798216445E-05	5.64851334760E+01	9.13718080400E-05	4.65773282979E+01	8.89660172083E-02	-1.21680440676E+02
7.69058116232E+10	1.57707138334E-01	-7.18218080765E+01	1.04806412211E-04	1.07991974237E+01	1.00095435347E-04	-2.63271294987E-02	8.77772410936E-02	-1.20869374708E+02
7.69118236473E+10	1.53703226393E-01	-7.04306678645E+01	7.41957685831E-05	3.39628797288E+01	4.26022624690E-05	-7.81367388246E+01	8.65835491198E-02	-1.19744630282E+02
7.69178356713E+10	1.55743261279E-01	-7.05136866723E+01	3.03216907477E-05	5.56774266488E+01	3.26139641413E-05	-9.47890308302E+01	8.57040463594E-02	-1.20070487205E+02
7.69238476954E+10	1.54482316241E-01	-7.00014434792E+01	5.33849396368E-05	-7.32296712412E+01	2.48936706571E-05	6.20219368177E+01	8.57990676473E-02	-1.21709487065E+02
7.69298597194E+10	1.59376888832E-01	-7.29598827731E+01	6.81209981644E-05	-4.56313930190E+01	6.13858340783E-05	-1.53421780659E+01	8.49802642039E-02	-1.22872789984E+02
7.69358717435E+10	1.55435431253E-01	-7.25756218593E+01	9.59060776229E-05	-7.47218060461E+01	1.44969713028E-05	-4.29235942694E+01	8.40708897833E-02	-1.21103241185E+02
7.69418837675E+10	1.54783347733E-01	-7.23496718311E+01	1.22326990064E-05	-1.44872688972E+02	3.72180993771E-05	-1.53213224632E+02	8.30888701449E-02	-1.24068992114E+02
7.69478957916E+10	1.55813229807E-01	-7.14307604781E+01	6.36247763039E-05	-3.50935627710E+01	7.74665968752E-05	-1.00856906485E+02	8.19281034079E-02	-1.23361357755E+02
7.69539078156E+10	1.53799801132E-01	-7.08898841670E+01	7.09909433701E-05	-6.76614493810E+01	1.96433734820E-05	-7.96241083146E+01	8.15995437367E-02	-1.21175999921E+02
7.69599198397E+10	1.54294500286E-01	-7.25376215761E+01	2.91517426501E-05	4.82603174548E+01	2.04151385183E-05	-3.94058833642E+01	8.13992206944E-02	-1.23654309197E+02
7.69659318637E+10	1.56996400564E-01	-7.42145774733E+01	2.92574035282E-05	-1.02442582573E+02	6.05595135763E-05	-6.27078854307E+01	8.00401351850E-02	-1.25755626638E+02
7.69719438878E+10	1.54137486780E-01	-7.35812796869E+01	2.49286560647E-05	-8.63778055710E+01	4.31243865599E-05	2.39950375646E+01	7.91376963218E-02	-1.25230377157E+02
7.69779559118E+10	1.53566774133E-01	-7.31878725018E+01	2.91272780252E-05	1.78215650706E+01	8.36440913126E-05	-6.57041211373E+01	7.74199146611E-02	-1.22970002285E+02
7.69839679359E+10	1.51886266217E-01	-7.20923265922E+01	6.08117490850E-05	-6.29855128615E+01	2.05505387416E-05	-2.74188084215E+01	7.68901845492E-02	-1.24936775418E+02
7.69899799599E+10	1.51753010885E-01	-7.17941171284E+01	6.47825570647E-05	-1.16910971378E+02	1.52629271898E-05	-1.38638309954E+02	7.62929798189E-02	-1.25510714546E+02
7.69959919840E+10	1.51666974255E-01	-7.25623905314E+01	1.66000481829E-05	-1.64683559370E+02	2.67374107613E-05	7.01255567190E+01	7.57015631107E-02	-1.24911197523E+02
7.70020040080E+10	1.52619877177E-01	-7.33239341933E+01	8.48060483375E-05	2.12532666959E+01	1.25242067823E-04	1.01045888757E+01	7.54631841806E-02	-1.24801826263E+02
7.70080160321E+10	1.54139705048E-01	-7.46399300404E+01	6.59360619996E-05	-4.44367598821E+01	3.16514196291E-05	-9.70984899145E+00	7.46492747854E-02	-1.25534836135E+02
7.70140280561E+10	1.55364636607E-01	-7.44675261402E+01	5.92941463003E-05	-5.91544885045E+01	5.72836682444E-05	-4.39769751425E+01	7.36472774783E-02	-1.25643115799E+02
7.70200400802E+10	1.54409502059E-01	-7.47984104205E+01	3.73534114749E-05	-5.93312052493E+01	4.94443163738E-05	-6.82802826082E+01	7.30296646645E-02	-1.25278361562E+02
7.70260521042E+10	1.52463182957E-01	-7.54702578296E+01	8.31118545638E-05	-6.27109768626E+01	3.58440727391E-05	-4.99889298467E+01	7.18570069885E-02	-1.26044896860E+02
7.70320641283E+10	1.53021459156E-01	-7.55380909137E+01	7.59247126254E-05	-1.21390206604E+02	1.04942508254E-04	-1.00344868190E+02	7.12137495994E-02	-1.27592708210E+02
7.70380761523E+10	1.52740343180E-01	-7.41027152914E+01	1.22107908488E-04	-1.57709215956E+02	1.00096071280E-04	-9.95196569525E+01	7.11584621167E-02	-1.26394802433E+02
7.70440881764E+10	1.52076539202E-01	-7.60546529388E+01	5.65320229722E-05	9.09165734226E+01	8.07951437260E-05	-1.61689808971E+02	7.02113757063E-02	-1.28052080954E+02
7.70501002004E+10	1.50768412342E-01	-7.38514499701E+01	3.18191798471E-05	1.06926443707E+02	2.71444814997E-05	-3.95325466033E+00	6.91708027289E-02	-1.29012199576E+02
7.70561122244E+10	1.53528322058E-01	-7.54360838504E+01	6.97402523260E-05	-1.70195972194E+02	2.56622735183E-05	-8.56642460544E+01	6.81020476770E-02	-1.28595544376E+02
7.70621242485E+10	1.53617115960E-01	-7.68130488612E+01	6.23636153997E-05	-1.32809192452E+02	3.91002432077E-05	-1.11641492770E+02	6.73576047316E-02	-1.29324603708E+02
7.70681362725E+10	1.50747780645E-01	-7.58577917170E+01	1.38553647918E-04	-1.60756973637E+02	5.99531877934E-05	-1.25583852229E+02	6.73730327390E-02	-1.28662873460E+02
7.70741482966E+10	1.49664754788E-01	-7.43450741855E+01	1.73302075804E-05	1.66011831406E+02	1.63776389376E-05	-1.72338952560E+02	6.71840852452E-02	-1.29695127398E+02
7.70801603206E+10	1.50305586411E-01	-7.50027420986E+01	1.93334620248E-05	1.03345743032E+02	8.12541353181E-05	1.60782782909E+02	6.54727508994E-02	-1.27226740490E+02
7.70861723447E+10	1.49892791491E-01	-7.64928015337E+01	7.32863792098E-05	-1.58745528218E+02	7.28627708225E-05	-1.39461728175E+02	6.53131954628E-02	-1.31512105147E+02
7.70921843687E+10	1.49722603688E-01	-7.62661986716E+01	5.91480975180E-05	-9.87699719057E+01	9.10008608454E-05	-1.35013374489E+02	6.47252101856E-02	-1.32749707113E+02
7.70981963928E+10	1.51418790039E-01	-7.53410899914E+01	7.34477519869E-05	-1.29359583672E+02	4.75619332255E-06	-8.28501980656E+01	6.32814087057E-02	-1.30558445351E+02
7.71042084168E+10	1.52892287991E-01	-7.72847269892E+01	5.05156794796E-05	-1.51230965562E+02	1.48726607952E-04	-1.51588280933E+02	6.24938601637E-02	-1.30384011435E+02
7.71102204409E+10	1.53271458363E-01	-7.74480198586E+01	6.59899166082E-06	1.15996026492E+02	1.14312826559E-04	-1.68680909073E+02	6.18170830752E-02	-1.30311595598E+02
7.71162324649E+10	1.50444996263E-01	-7.63705460551E+01	5.79810337133E-05	1.74052427863E+02	1.08808590771E-04	-1.53749149547E+02	6.12630246526E-02	-1.34093191354E+02
7.71222444890E+10	1.47791913829E-01	-7.64091585517E+01	8.49265882374E-05	1.78218134793E+02	7.25756641975E-05	1.76765896594E+02	6.05733922511E-02	-1.32694659384E+02
7.71282565130E+10	1.49354998862E-01	-7.64450511587E+01	8.84541862179E-05	-1.47099144232E+02	1.31859637455E-04	1.71823264545E+02	5.93295238105E-02	-1.32941502270E+02
7.71342685371E+10	1.49263250428E-01	-7.62055839441E+01	6.26310879614E-05	1.45983619723E+02	1.42453809770E-04	1.75988752670E+02	5.84065223491E-02	-1.34097302267E+02
7.71402805611E+10	1.53546335183E-01	-7.81870382218E+01	1.18127196312E-04	1.27290813409E+02	1.25102726754E-04	1.40322516155E+02	5.84800242145E-02	-1.35530956041E+02
7.71462925852E+10	1.47955566571E-01	-7.78653115857E+01	8.26274618086E-05	1.00514556037E+02	4.17788652760E-05	1.41719523725E+02	5.74334732818E-02	-1.35473525456E+02
7.71523046092E+10	1.48349046574E-01	-7.77617620924E+01	5.88659300571E-05	1.05524994745E+02	3.19556177172E-05	7.84341536391E+01	5.58649546049E-02	-1.34129457009E+02
7.71583166333E+10	1.51758715811E-01	-7.91177267313E+01	6.13238332223E-05	1.08474214559E+02	5.09975407800E-05	8.94789483463E+01	5.60509689613E-02	-1.36997496032E+02
7.71643286573E+10	1.50002197563E-01	-7.93388021505E+01	1.72740014018E-05	1.57639005247E+02	5.84902785134E-05	1.17165973021E+02	5.52737454193E-02	-1.37630313172E+02
7.71703406814E+10	1.46788142978E-01	-7.78158853505E+01	3.73497556901E-05	1.03263368582E+02	8.41115380013E-05	5.28271160371E+01	5.39543737438E-02	-1.37998154551E+02
7.71763527054E+10	1.47557095797E-01	-7.93585515430E+01	1.07696268834E-05	1.46934528629E+02	3.86498317815E-05	8.42454088959E+01	5.32417646442E-02	-1.36046419467E+02
7.71823647295E+10	1.47875964519E-01	-7.90467526263E+01	5.70396893946E-05	-1.68160211748E+02	5.63435380895E-05	1.24588823366E+02	5.15358786376E-02	-1.34876438366E+02
7.71883767535E+10	1.46501913725E-01	-7.73869495796E+01	7.60498185545E-05	-1.69077467939E+02	3.41785183749E-05	1.50254561395E+02	5.11905010000E-02	-1.37287145359E+02
7.71943887776E+10	1.46354372041E-01	-7.88347508176E+01	7.81239242690E-05	1.60807050469E+02	1.02078927258E-04	1.09821075369E+02	5.09035783994E-02	-1.39620668794E+02
7.72004008016E+10	1.46890326079E-01	-8.03098932369E+01	1.03025772849E-04	1.74388962294E+02	8.73062321060E-05	9.23063056479E+01	5.00106691447E-02	-1.40107271812E+02
7.72064128257E+10	1.47300191347E-01	-7.93286257419E+01	8.98886101652E-05	8.14351971086E+01	8.13185043485E-05	9.61381013681E+01	4.82611733427E-02	-1.37654757503E+02
7.72124248497E+10	1.46624926172E-01	-7.88377549314E+01	9.68819559697E-05	1.18821933015E+02	8.61400505903E-05	4.67150804510E+01	4.69809304732E-02	-1.37806266766E+02
7.72184368737E+10	1.48890988871E-01	-8.18475375940E+01	8.12811738723E-05	8.38274146182E+01	8.33749281852E-05	4.87231980975E+01	4.64512628970E-02	-1.39337588858E+02
7.72244488978E+10	1.48884224741E-01	-8.08567296163E+01	5.20948901848E-05	7.60000833103E+01	7.56301418611E-05	8.86991219265E+01	4.66542586896E-02	-1.41574040678E+02
7.72304609218E+10	1.46560786681E-01	-7.89215889718E+01	9.98754877664E-05	3.08119363970E+01	9.85337780662E-05	2.44226967604E+01	4.53698167891E-02	-1.40692426296E+02
7.72364729459E+10	1.47825222247E-01	-8.09201090684E+01	7.83833694994E-05	4.59719488343E+01	1.44633168560E-05	7.98970728567E+01	4.35575847668E-02	-1.37640553329E+02
7.72424849699E+10	1.48416140882E-01	-8.18428528688E+01	1.09077330125E-04	4.50840662302E+01	7.63551498407E-05	7.60174671896E+01	4.40271075971E-02	-1.41289852237E+02
7.72484969940E+10	1.47765916609E-01	-8.23847849342E+01	7.86262760470E-05	5.85092355152E+01	8.61435554086E-05	3.84854497293E+01	4.33664921800E-02	-1.43169525062E+02
7.72545090180E+10	1.46027688426E-01	-8.03536498998E+01	3.34949816121E-05	5.22768465327E+01	1.06647843142E-04	5.16635886620E+01	4.16670725504E-02	-1.40058171277E+02
7.72605210421E+10	1.44952327069E-01	-8.14993572785E+01	7.25197556319E-05	1.72758166595E+01	1.23508388092E-04	3.20722536914E+01	4.12544370282E-02	-1.43632945682E+02
7.72665330661E+10	1.46746976388E-01	-8.10465059331E+01	6.96995526674E-05	4.86865733879E+00	1.29968430517E-04	7.54656965270E+00	4.03813860483E-02	-1.43199405274E+02
7.72725450902E+10	1.46051317443E-01	-8.16751712485E+01	1.08683196378E-05	4.48205376907E+01	8.07689778275E-05	-1.22253303205E+01	3.90031200660E-02	-1.40622058776E+02
7.72785571142E+10	1.47748167745E-01	-8.30490360566E+01	6.86379215685E-05	7.61944878556E+01	1.15720352952E-04	2.12096143363E+01	3.88251953568E-02	-1.43490486549E+02
7.72845691383E+10	1.44918016488E-01	-8.26045570563E+01	8.81948422968E-05	-7.13230057338E+00	6.80782640231E-05	2.45460516857E+01	3.80945098078E-02	-1.45628244289E+02
7.72905811623E+10	1.43929822609E-01	-8.11131163678E+01	9.86693563993E-05	2.11753256872E+01	2.86849708301E-05	3.76369452122E+01	3.66994452216E-02	-1.43125258287E+02
7.72965931864E+10	1.44027979526E-01	-8.19142334341E+01	5.34927167567E-05	-1.95892984464E+01	8.54308192557E-05	2.71676706429E+01	3.60505568904E-02	-1.45748843325E+02
7.73026052104E+10	1.43752567599E-01	-8.03795761888E+01	1.32856448985E-04	1.31075834170E+01	9.58408347714E-05	-1.50490147987E+01	3.53774924284E-02	-1.45514761536E+02
7.73086172345E+10	1.45128658412E-01	-8.26621264108E+01	3.60474522583E-05	-2.77001591634E-01	7.03068910552E-05	2.06637901061E+01	3.41896366500E-02	-1.45140406321E+02
7.73146292585E+10	1.45657562972E-01	-8.31446966855E+01	4.77086214064E-05	-2.81186312990E+00	1.23680180580E-04	1.98916227703E+01	3.29351339429E-02	-1.43234011390E+02
7.73206412826E+10	1.46879164651E-01	-8.39262886063E+01	4.97699209245E-05	-4.23788823811E+01	1.02206927883E-04	-4.46328226083E+01	3.31461207558E-02	-1.48215891372E+02
7.73266533066E+10	1.43736921209E-01	-8.42984507974E+01	4.70945084803E-05	-6.60898045910E+01	7.80021867234E-05	-4.65236252772E+01	3.19809282887E-02	-1.45987691623E+02
7.73326653307E+10	1.44903854848E-01	-8.33166117049E+01	9.87457964872E-05	-1.05172812126E+01	7.93740878270E-05	-1.25731821159E+00	3.07553303538E-02	-1.45419428900E+02
7.73386773547E+10	1.45294284545E-01	-8.39640302558E+01	9.97438648839E-05	-1.70738291337E+01	7.53007804583E-05	-7.10989552615E+01	2.94436555395E-02	-1.45524378723E+02
7.73446893788E+10	1.43038132116E-01	-8.32718938010E+01	8.77547540142E-05	-4.91997688701E+01	2.25611362043E-05	-6.49358181403E+01	2.90194911481E-02	-1.46239184595E+02
7.73507014028E+10	1.44904571452E-01	-8.57358816904E+01	1.00132717922E-04	9.20159712911E+00	9.31318827936E-05	-6.29563215179E+01	2.93217307830E-02	-1.49523698744E+02
7.73567134269E+10	1.40669621133E-01	-8.16553560738E+01	8.08470498492E-05	-7.66571806773E+01	1.20438945449E-04	-9.13591766401E+01	2.72801154770E-02	-1.45679740678E+02
7.73627254509E+10	1.41531963575E-01	-8.51036577688E+01	9.11493327003E-05	-7.52904245076E+01	8.89810172769E-05	-1.02798994700E+02	2.65031310520E-02	-1.47578447823E+02
7.73687374749E+10	1.44543549007E-01	-8.50784908365E+01	4.42699436856E-05	-3.27421512856E+01	5.52620438225E-05	-2.78134513785E+01	2.57135866134E-02	-1.48682861976E+02
7.73747494990E+10	1.42823374506E-01	-8.30109183979E+01	1.24716946366E-04	-6.20083269097E+01	5.70396007649E-05	-3.01010356022E+01	2.55838877905E-02	-1.50442390353E+02
7.73807615230E+10	1.40995219387E-01	-8.58848191836E+01	1.28199381880E-04	-6.03841770244E+01	5.94867699880E-05	-5.16049187743E+01	2.50133907765E-02	-1.52499946246E+02
7.73867735471E+10	1.42280451802E-01	-8.57474380639E+01	1.54856438634E-04	-6.18541090139E+01	8.14618643755E-05	-8.69838815890E+01	2.41315220078E-02	-1.53121811984E+02
7.73927855711E+10	1.43256682613E-01	-8.62314756232E+01	1.11276129142E-04	-8.70928320342E+01	5.66840048459E-05	-8.73521822755E+01	2.26241606742E-02	-1.52560485173E+02
7.73987975952E+10	1.41804056492E-01	-8.62826105844E+01	1.09749437256E-04	-9.51039403966E+01	7.89379171879E-05	-8.61540847299E+01	2.08844985530E-02	-1.50598863400E+02
7.74048096192E+10	1.41214561943E-01	-8.19234697629E+01	5.82802429400E-05	-1.01901578646E+02	1.29086131234E-04	-1.03959575707E+02	2.11983504782E-02	-1.52729949139E+02
7.74108216433E+10	1.41610617516E-01	-8.50247737512E+01	7.64885785800E-05	-1.01007991115E+02	8.98103524896E-05	-1.21351223801E+02	1.94833288166E-02	-1.51427932973E+02
7.74168336673E+10	1.40629090851E-01	-8.45441367702E+01	6.17494218478E-05	-7.54648016416E+01	6.34345978439E-05	-3.89569955583E+01	1.90092715475E-02	-1.54234224660E+02
7.74228456914E+10	1.41003503714E-01	-8.68535272403E+01	1.25226740246E-04	-1.48498412067E+02	1.05030275825E-04	-1.36720199900E+02	1.88736057387E-02	-1.54576621159E+02
7.74288577154E+10	1.41729965486E-01	-8.76743909252E+01	6.64494923230E-05	-1.14538327972E+02	8.42438765360E-05	-9.73443515311E+01	1.72223052946E-02	-1.53142619666E+02
7.74348697395E+10	1.40662388019E-01	-8.71397681610E+01	1.57311431384E-04	-1.30123101675E+02	7.64862533616E-05	-1.61553886998E+02	1.70258244747E-02	-1.57001498083E+02
7.74408817635E+10	1.40164114795E-01	-8.60787677543E+01	1.32393032074E-04	-1.27175168290E+02	8.87699072074E-05	-1.33655156796E+02	1.49794404667E-02	-1.53973539806E+02
7.74468937876E+10	1.39391679423E-01	-8.54283116102E+01	9.25639454871E-05	-1.09624403487E+02	7.47241929203E-05	-1.28389241513E+02	1.44532675220E-02	-1.55671858593E+02
7.74529058116E+10	1.39353963821E-01	-8.75450191410E+01	9.96566539225E-05	-1.26595808132E+02	4.54515449543E-05	-1.68432537643E+02	1.41994580647E-02	-1.57938607994E+02
7.74589178357E+10	1.38312099432E-01	-8.77741334156E+01	7.37032051665E-05	1.72745648441E+02	1.00372352688E-04	-1.78151432332E+02	1.34510190095E-02	-1.59616559658E+02
7.74649298597E+10	1.37805655318E-01	-8.73960294783E+01	1.08680838245E-04	-1.30393688970E+02	5.83736898730E-05	-1.31066102950E+02	1.17059106639E-02	-1.58007529374E+02
7.74709418838E+10	1.40315268358E-01	-8.56896988603E+01	1.32210015136E-04	-1.54491798808E+02	9.36676862877E-05	-1.62338055713E+02	1.14546170032E-02	-1.59894516929E+02
7.74769539078E+10	1.42999156455E-01	-8.92506126529E+01	6.72041595952E-05	-1.67428753335E+02	6.01359590783E-05	-1.51652533335E+02	1.00613818523E-02	-1.58016744669E+02
7.74829659319E+10	1.38619411883E-01	-8.55979308915E+01	2.50410302376E-05	1.28997739008E+02	1.76681359306E-05	1.41132928720E+02	9.12523808971E-03	-1.58277566084E+02
7.74889779559E+10	1.38913770023E-01	-8.65894042967E+01	1.28057489425E-04	1.75661860160E+02	5.37634830072E-05	1.75409402150E+02	8.62729574862E-03	-1.59961788381E+02
7.74949899800E+10	1.38239095729E-01	-8.71379795857E+01	1.10369294281E-05	1.14317363034E+02	6.95227851340E-05	1.61231446591E+02	8.40565836452E-03	-1.64191890090E+02
7.75010020040E+10	1.36309325923E-01	-8.63689300099E+01	8.06981099191E-05	-1.32709415467E+02	9.58766904868E-05	-1.66823213156E+02	7.23874951847E-03	-1.63098401587E+02
7.75070140281E+10	1.40677988262E-01	-8.91801507168E+01	8.01258565584E-05	1.72270718146E+02	9.35299054493E-05	-1.56702775604E+02	6.12521570217E-03	-1.65496822811E+02
7.75130260521E+10	1.39907089362E-01	-8.89776693075E+01	5.70581470318E-05	-1.67524269397E+02	7.54116823819E-05	1.43536755200E+02	4.86935489256E-03	-1.66460156359E+02
7.75190380762E+10	1.38438216496E-01	-8.96894459663E+01	1.70991466513E-04	1.46615910329E+02	1.32403432624E-04	1.60676966141E+02	4.49193032834E-03	-1.70070753285E+02
7.75250501002E+10	1.40161256812E-01	-8.82452351243E+01	1.42301491945E-04	1.09093163491E+02	7.18893738639E-05	1.22984819607E+02	3.79850083271E-03	-1.71839267249E+02
7.75310621242E+10	1.36758961513E-01	-8.73488802307E+01	1.36960836563E-04	9.42022239026E+01	5.84035130321E-05	8.80733604870E+01	2.80305795917E-03	-1.75265428205E+02
7.75370741483E+10	1.36915271921E-01	-8.93379609719E+01	7.75974024566E-05	8.88959906195E+01	7.01162203984E-05	1.19809629611E+02	1.72186415721E-03	1.79194080125E+02
7.75430861723E+10	1.39109449280E-01	-8.95320121739E+01	2.66888281103E-05	3.16022971123E+01	5.11382229763E-05	1.32430267959E+02	1.40090018770E-03	1.71461670196E+02
7.75490981964E+10	1.39796160491E-01	-8.96815744613E+01	5.80493686734E-05	1.57344456220E+02	5.09246771253E-05	9.94669782751E+01	6.26435559959E-04	1.18187786595E+02
7.75551102204E+10	1.37952336551E-01	-8.76586359449E+01	1.04772237645E-04	8.85722509153E+01	4.59038638992E-05	1.37915604637E+02	1.13899082869E-03	5.38242568111E+01
7.75611222445E+10	1.37299014940E-01	-8.82241731549E+01	3.54306870953E-05	8.43836026524E+01	9.49396989111E-05	9.77141574702E+01	1.70272711315E-03	4.20540650276E+01
7.75671342685E+10	1.37498979147E-01	-8.89891862536E+01	4.94365981060E-05	5.66543220179E+01	2.09223164579E-05	1.23312186006E+02	2.32622825873E-03	3.35643767026E+01
7.75731462926E+10	1.35114120843E-01	-8.91239520711E+01	2.82026522637E-05	-3.53355612903E+01	5.81668273259E-05	-9.67885854931E+01	3.58344488201E-03	3.00090221380E+01
7.75791583166E+10	1.35996011391E-01	-8.99246503181E+01	6.50311373163E-05	-1.47095772193E+02	5.29527879613E-05	-1.27513565683E+02	3.77791897378E-03	2.75654996209E+01
7.75851703407E+10	1.36373256138E-01	-9.12591661120E+01	8.83719464134E-05	1.39911664384E+02	8.10474710290E-05	1.65901117285E+02	5.12052516168E-03	2.58549019806E+01
7.75911823647E+10	1.37922589248E-01	-9.15228007298E+01	9.07580784480E-05	1.35183021574E+02	1.52975519347E-04	1.09529043371E+02	5.74205689859E-03	2.50688517480E+01
7.75971943888E+10	1.35166283997E-01	-9.04426246036E+01	8.47244931318E-05	9.01150504216E+01	8.57780772055E-05	9.62015156078E+01	6.45722467617E-03	2.38935231215E+01
7.76032064128E+10	1.34421051453E-01	-9.01849444816E+01	9.19780881402E-05	8.74191103528E+01	6.18622316944E-05	3.01312468205E+01	6.88748890756E-03	2.25286796477E+01
7.76092184369E+10	1.35425599537E-01	-8.85369327014E+01	9.95064529549E-05	8.44581150852E+01	8.72543402147E-05	4.87854372267E+01	8.10019848453E-03	2.29925374685E+01
7.76152304609E+10	1.38044877977E-01	-9.01652118192E+01	8.14750942802E-05	8.50164194553E+01	1.13238160868E-04	6.94605479380E+01	9.13009028947E-03	2.13467747679E+01
7.76212424850E+10	1.36043272229E-01	-9.23036643940E+01	5.56143170675E-05	5.34973498621E+01	1.36665855143E-04	4.77471524352E+01	9.76504415632E-03	1.93964365928E+01
7.76272545090E+10	1.36462565717E-01	-9.34415263127E+01	1.10358224991E-04	2.45596468008E+01	1.34294387572E-04	3.38558354970E+01	1.03395969672E-02	1.82696387730E+01
7.76332665331E+10	1.36916734943E-01	-9.27647516779E+01	8.81165864285E-05	-1.75232661349E+00	1.20628144159E-04	2.34888873367E+01	1.08894190895E-02	1.80295951361E+01
7.76392785571E+10	1.35077123549E-01	-9.07195223174E+01	6.51729876271E-05	-4.09989593601E+01	8.09355106756E-05	-2.17277803806E+01	1.20799077272E-02	2.03635801737E+01
7.76452905812E+10	1.35132566514E-01	-9.05120897961E+01	3.05056586439E-05	-5.53191859301E+01	4.33372772539E-05	-9.65094703227E+01	1.30535097724E-02	1.76192601282E+01
7.76513026052E+10	1.34618874744E-01	-9.14180104893E+01	3.21296715651E-05	1.21155734508E+02	4.95431133391E-05	8.99365028091E+01	1.37617375917E-02	1.76426883013E+01
7.76573146293E+10	1.37041711450E-01	-9.11794498770E+01	3.03427194983E-05	-1.21876455947E+02	3.82322095626E-05	7.04014591883E+01	1.46082621177E-02	1.83089039187E+01
7.76633266533E+10	1.35355322572E-01	-9.19962052465E+01	3.74752945876E-05	8.82834841242E+01	6.32675302663E-05	6.17367528646E+01	1.56569219975E-02	1.83547831445E+01
7.76693386774E+10	1.35598635365E-01	-9.28225982200E+01	5.09390251577E-05	1.98692958527E+01	1.74463765501E-05	-1.40567597765E+02	1.64014562857E-02	1.68052080739E+01
7.76753507014E+10	1.35103905766E-01	-9.45477743389E+01	7.63993730080E-05	3.67970121337E+01	1.01710762007E-04	3.21892917113E+00	1.71503483814E-02	1.71741156179E+01
7.76813627255E+10	1.34184869515E-01	-9.18899892284E+01	6.99783628987E-05	4.03752793633E+01	1.43198643511E-04	1.07434270042E+01	1.78530275996E-02	1.50454961159E+01
7.76873747495E+10	1.37800875495E-01	-9.35230019777E+01	7.63334222067E-05	-3.68055917042E+01	7.34395272575E-05	-1.55371232664E+01	1.90255815947E-02	1.48934758086E+01
7.76933867735E+10	1.33995852252E-01	-9.30265394585E+01	4.78675618593E-05	-9.65977776620E+01	4.29486799247E-05	-3.80214768610E+01	1.96564190665E-02	1.45043684169E+01
7.76993987976E+10	1.35025609282E-01	-9.16162201492E+01	6.79686330372E-05	4.81530631768E+01	5.84454707636E-05	5.25705586718E+01	2.02585322850E-02	1.35204376473E+01
7.77054108216E+10	1.34524341471E-01	-9.26882555436E+01	3.44281922694E-05	2.32390829921E+01	7.26763862299E-05	1.83634315960E+01	2.12556323905E-02	1.42480362218E+01
7.77114228457E+10	1.36405834448E-01	-9.49656440245E+01	8.96635358060E-05	-2.81452352186E+01	8.13119399016E-05	3.62131073025E+00	2.21635258836E-02	1.55153512772E+01
7.77174348697E+10	1.33514825160E-01	-9.37364485219E+01	3.45130938729E-05	-1.85524467554E+01	8.64893255378E-05	-3.30556293159E+01	2.31193127106E-02	1.29735937294E+01
7.77234468938E+10	1.31542818669E-01	-9.18918843101E+01	6.33983965004E-05	-9.07754219318E+01	8.45328361010E-05	-3.65715529300E+01	2.38577485473E-02	1.20664823202E+01
7.77294589178E+10	1.35586477407E-01	-9.49831843553E+01	2.43224361236E-05	-1.15866540674E+01	3.21827618186E-05	4.47192928780E+01	2.47167037876E-02	1.13154021225E+01
7.77354709419E+10	1.33251994149E-01	-9.51953505242E+01	7.82461571239E-05	-5.22604813356E+01	3.39165855357E-05	-1.10588470595E+02	2.52435924876E-02	1.06854793707E+01
7.77414829659E+10	1.33403950300E-01	-9.45044108793E+01	3.77409387186E-05	-4.66099788163E+01	9.63234523749E-05	-6.33610850753E+01	2.59584407422E-02	1.28369986795E+01
7.77474949900E+10	1.33300669103E-01	-9.50899895601E+01	4.74039552565E-05	-1.19197167857E+02	3.76181718713E-05	-1.49237592856E+02	2.67589712323E-02	9.60917766475E+00
7.77535070140E+10	1.32845562841E-01	-9.43117457016E+01	4.83181355353E-05	-9.59496822904E+01	1.97155085453E-05	-8.84153336287E+01	2.77870617064E-02	9.57776233468E+00
7.77595190381E+10	1.32878324550E-01	-9.45384669913E+01	3.30062996392E-05	-5.64662827805E+01	3.15080024025E-05	-4.80326961957E+01	2.87066777164E-02	1.12670691933E+01
7.77655310621E+10	1.30498830016E-01	-9.38391914793E+01	7.48144138714E-05	-7.00931980967E+01	3.74439688151E-05	-6.52512901147E+01	2.95609909280E-02	1.08850361936E+01
7.77715430862E+10	1.31585174757E-01	-9.39535152103E+01	5.96182836940E-05	-7.67140872392E+01	4.01412916812E-05	-1.77712033563E+02	3.03534436694E-02	9.43129904325E+00
7.77775551102E+10	1.33038193881E-01	-9.46620619433E+01	8.94707433218E-05	-6.85908085635E+01	3.55846839078E-05	-1.06980091991E+02	3.13153734110E-02	6.59241089942E+00
7.77835671343E+10	1.32840703010E-01	-9.48111924391E+01	6.18806138421E-05	-1.07977158394E+02	2.91668571803E-05	-1.21315135438E+02	3.22080673967E-02	6.72768481046E+00
7.77895791583E+10	1.32138179878E-01	-9.51007706272E+01	1.17059844901E-05	2.86202249385E+01	5.12160106550E-05	-1.67180570523E+02	3.25907566764E-02	9.28402524337E+00
7.77955911824E+10	1.34149543396E-01	-9.71072487712E+01	3.66168917148E-05	-2.40698083931E+01	4.29099779565E-05	-1.70332649645E+02	3.32641577654E-02	6.00902948334E+00
7.78016032064E+10	1.32565442835E-01	-9.62854133151E+01	4.08994795250E-05	-7.19980126518E+01	1.43025627578E-05	1.34456157981E+02	3.40593858313E-02	5.43901063310E+00
7.78076152305E+10	1.30377081549E-01	-9.37791585348E+01	4.38446721200E-05	-9.26263575882E+01	3.77121089631E-05	2.31634488768E+01	3.47270106296E-02	7.77098387312E+00
7.78136272545E+10	1.33579529698E-01	-9.63320884173E+01	9.12926471950E-05	-1.23631427465E+02	3.25798556735E-05	-7.03765315804E+01	3.60158734655E-02	6.00098519762E+00
7.78196392786E+10	1.33652211172E-01	-9.65610177596E+01	2.61339701530E-05	1.35996576603E+02	6.66122147525E-05	-1.28957382926E+02	3.63754066302E-02	6.05951934647E+00
7.78256513026E+10	1.32412852839E-01	-9.51272850894E+01	5.84225771338E-05	1.47973807476E+02	4.33683459622E-05	-9.89812615352E+01	3.72763696770E-02	4.98066806587E+00
7.78316633267E+10	1.30694181197E-01	-9.63969715176E+01	4.57862255572E-05	1.47876377958E+02	4.39531743895E-05	-8.69794722225E+01	3.84132324300E-02	3.84240231985E+00
7.78376753507E+10	1.32873702256E-01	-9.83436221436E+01	4.90042299196E-05	-1.48027066107E+02	4.73747200140E-05	-4.53568805534E+01	3.88891281632E-02	5.30795621344E+00
7.78436873747E+10	1.32831882959E-01	-9.71295140126E+01	9.58018426006E-05	-1.29624345019E+02	5.40575441113E-05	-1.20214873936E+02	4.00602982714E-02	2.59826292737E+00
7.78496993988E+10	1.31454119053E-01	-9.55613968013E+01	8.78336927076E-05	-1.55381264107E+02	6.38651117914E-05	-1.65714988290E+02	4.00191050296E-02	5.91067153224E+00
7.78557114228E+10	1.29963429439E-01	-9.76451645260E+01	4.30358833293E-05	-1.24774513753E+02	7.42475709033E-05	-1.28533700572E+02	4.12383816879E-02	1.99296452405E+00
7.78617234469E+10	1.29268363134E-01	-9.57314369626E+01	1.01183602229E-04	-1.31997148910E+02	8.44490789943E-05	1.46405267057E+02	4.20228582805E-02	1.72989207514E+00
7.78677354709E+10	1.31301723532E-01	-9.81499362189E+01	3.20365333605E-05	1.35688692666E+02	1.04465809282E-05	6.92061005078E+01	4.25552046849E-02	1.80913389077E+00
7.78737474950E+10	1.30010542560E-01	-9.68275179969E+01	3.66433300045E-05	3.43397109405E+01	2.28665775334E-05	1.56890800385E+02	4.29131487950E-02	2.80871165203E+00
7.78797595190E+10	1.29760873159E-01	-9.72748566032E+01	1.01580622432E-04	1.61024743071E+02	4.26152623985E-05	9.86523417354E+01	4.34384322073E-02	3.32946295737E+00
7.78857715431E+10	1.28545007575E-01	-9.82706912872E+01	5.64113475339E-05	1.60867148672E+02	6.32701340441E-05	1.40761044880E+02	4.47597357736E-02	1.88558672015E+00
7.78917835671E+10	1.29679735752E-01	-9.70370441929E+01	2.70105093607E-05	-1.01805486722E+02	4.83271723464E-05	8.52687757543E+01	4.55395309859E-02	1.26698517169E+00
7.78977955912E+10	1.28700662151E-01	-9.57412482168E+01	2.92009851145E-05	1.28778239700E+02	1.06101409235E-05	1.76665624677E+02	4.69579854317E-02	2.44893953842E-02
7.79038076152E+10	1.30153701725E-01	-9.85283641055E+01	6.65796499038E-05	1.00694646331E+02	5.20882985155E-05	-1.37748926017E+02	4.73468691093E-02	-1.71154057185E-01
7.79098196393E+10	1.30823097856E-01	-9.84617070692E+01	6.93351157722E-05	7.77868571011E+01	3.58922195532E-05	1.22589219341E+02	4.70944274652E-02	6.05496450759E-01
7.79158316633E+10	1.30553511089E-01	-9.85603584287E+01	3.89983771372E-05	1.12515804409E+02	4.18639599371E-05	6.72944800314E+01	4.80595627072E-02	6.38394249527E-01
7.79218436874E+10	1.31351060755E-01	-1.00372671117E+02	2.20692646459E-05	-1.67532288954E+02	5.99119654725E-05	1.30067636009E+02	4.91023878006E-02	5.33501776619E-01
7.79278557114E+10	1.29965118291E-01	-9.90506784916E+01	3.08885020347E-05	7.69273113238E+01	8.19587733579E-05	1.44257481255E+02	5.03596890022E-02	-1.88051870288E-01
7.79338677355E+10	1.31880099039E-01	-9.93353873741E+01	5.18669577162E-05	9.07125227164E+01	5.43075017285E-05	1.16334153050E+02	5.08084533137E-02	-2.02100309470E+00
7.79398797595E+10	1.29252002550E-01	-9.90246979669E+01	8.36202277999E-05	1.13924987107E+02	6.38641767912E-05	1.17152237407E+02	5.16840396645E-02	-1.94970595742E+00
7.79458917836E+10	1.28860663504E-01	-9.86104105105E+01	1.07238298430E-04	6.51787481537E+01	2.03290772164E-05	-1.38053402053E+02	5.25297470847E-02	-1.81148149789E+00
7.79519038076E+10	1.27695501837E-01	-9.96524609605E+01	2.17328868501E-05	-1.37953761900E+01	5.78903927142E-05	1.29980467811E+02	5.24251534992E-02	-1.05935407043E+00
7.79579158317E+10	1.28057315311E-01	-9.82969812959E+01	3.90180032941E-05	-1.76535264935E+02	5.29795661466E-05	-1.12951239717E+01	5.49060747270E-02	-4.05248563998E+00
7.79639278557E+10	1.30887119744E-01	-1.00744653657E+02	4.02927654428E-05	1.69534731041E+02	6.69946965430E-05	-1.49598287197E+02	5.45547914646E-02	-2.88154201110E+00
7.79699398798E+10	1.28552065327E-01	-1.01240269765E+02	4.21669991142E-05	-4.35841728746E+01	2.12829480872E-05	-1.20973978446E+02	5.53580106953E-02	-3.43660464538E+00
7.79759519038E+10	1.27561769785E-01	-1.00072460489E+02	1.08544575412E-05	1.26110256814E+02	7.74641462862E-05	-1.59870259403E+02	5.59881320382E-02	-3.47711713262E+00
7.79819639279E+10	1.29720530644E-01	-1.00254786066E+02	3.05792309568E-05	8.06470007045E+01	4.94896862030E-05	-1.46948146237E+02	5.71524281241E-02	-3.67069221955E+00
7.79879759519E+10	1.26996336495E-01	-9.87438878037E+01	7.57298996868E-05	1.64440091897E+02	1.00433484088E-04	1.47728603534E+02	5.79955722949E-02	-4.80156910996E+00
7.79939879760E+10	1.29691446927E-01	-1.00819118007E+02	5.09476241717E-05	1.49410886159E+02	6.07480161190E-05	9.62685042437E+01	5.73403120153E-02	-3.94051351903E+00
7.80000000000E+10	1.29588334772E-01	-1.01983741627E+02	8.42927200706E-05	9.27821185818E+01	9.38602342198E-05	5.88672950461E+01	5.79714130745E-02	-4.39866050473E+00
