# Hz S MA R 50
! CMT, C4420, 21421029, 25.1.2/3
! Date: 8/7/2025 12:41:44 PM
! Data: Format (Calibration Info)
! Freq	S33:Mag/Ang(F2)	S43:Mag/Ang(F2)	S34:Mag/Ang(F2)	S44:Mag/Ang(F2)
7.50000000000E+10	1.99008209536E-01	-1.41646016525E+01	7.40133426764E-05	3.58182345645E+01	4.30625074782E-05	9.39614440287E+01	2.16200024069E-01	-2.58469883747E+01
7.50060120240E+10	1.97961116378E-01	-1.18608326621E+01	8.01478427141E-05	1.29899440388E+02	4.76081001145E-05	-1.41663920609E+02	2.14329399886E-01	-2.54287956565E+01
7.50120240481E+10	2.01040504971E-01	-1.36349349053E+01	3.02509000683E-05	1.24342346500E+02	6.78426878046E-05	1.44588896063E+02	2.15502226729E-01	-2.65818067923E+01
7.50180360721E+10	2.00399124047E-01	-1.46971954097E+01	3.66894799460E-05	1.74456906533E+02	1.54815997572E-05	3.67932506556E+01	2.14175937126E-01	-2.65332217724E+01
7.50240480962E+10	1.99616847549E-01	-1.44909584647E+01	1.08829501320E-04	1.68329622217E+02	2.55807487793E-05	1.59169674175E+02	2.15271997730E-01	-2.82053599188E+01
7.50300601202E+10	1.98390515445E-01	-1.33105258375E+01	4.66066783945E-05	-1.21784680258E+02	7.92157251967E-05	6.07654600123E+00	2.13037405509E-01	-2.65523538595E+01
7.50360721443E+10	2.00822952853E-01	-1.52591608543E+01	1.23445138864E-05	2.54505931632E+01	5.09429063235E-05	1.36532038945E+02	2.12333900111E-01	-2.65978332132E+01
7.50420841683E+10	2.00556746639E-01	-1.50652953635E+01	9.53748374652E-06	-6.49740013768E+01	4.09474116203E-05	-6.42658760613E+01	2.14312960141E-01	-2.80844590816E+01
7.50480961924E+10	1.98806296313E-01	-1.65633653620E+01	1.49908968390E-05	1.43604333202E+02	5.75872514991E-05	-1.54728258534E+02	2.11389545889E-01	-2.86843069335E+01
7.50541082164E+10	1.96290867996E-01	-1.52752049331E+01	4.73568260853E-05	-1.72439280537E+02	6.82261145425E-05	1.59927274799E+02	2.13292560157E-01	-2.87357747761E+01
7.50601202405E+10	1.99268448713E-01	-1.42377949891E+01	8.56279701972E-05	-1.68349578159E+02	9.43305330518E-05	1.70084624396E+02	2.13576489198E-01	-2.81747708850E+01
7.50661322645E+10	2.00857462995E-01	-1.61285714365E+01	4.94016216632E-05	1.30709226544E+02	7.98805284589E-05	1.37187531163E+02	2.11713547536E-01	-2.84060999897E+01
7.50721442886E+10	1.97125245245E-01	-1.44085260062E+01	1.09603321251E-04	1.78923794445E+02	3.57772154960E-05	8.23080851205E+01	2.12049489076E-01	-2.90644338724E+01
7.50781563126E+10	1.98899244061E-01	-1.81399580297E+01	2.48171519299E-05	-1.63326925185E+02	1.05298637065E-04	7.40464205607E+01	2.12637504095E-01	-2.96004984610E+01
7.50841683367E+10	1.97049961772E-01	-1.73018022018E+01	6.51045855434E-05	6.28511469082E+01	5.61302830093E-05	6.62437774361E+01	2.12539319233E-01	-2.91094210534E+01
7.50901803607E+10	1.98329734263E-01	-1.71994735149E+01	5.72619467997E-05	1.71904235619E+02	7.66885328319E-05	1.00817880621E+02	2.12975419238E-01	-2.86926053365E+01
7.50961923848E+10	1.99547069672E-01	-1.68232908918E+01	6.45235460630E-05	-1.59712808652E+02	9.09057344811E-05	9.11672577623E+01	2.13107791539E-01	-3.11213394908E+01
7.51022044088E+10	1.95700458645E-01	-1.58990985168E+01	7.21300535172E-05	1.37232860349E+02	1.19254113918E-04	6.89941623098E+01	2.11447461635E-01	-2.97730752560E+01
7.51082164329E+10	1.94171799810E-01	-1.59462161631E+01	3.39378325682E-05	8.74020605872E+01	5.43989245053E-05	8.77866375999E+01	2.10499153627E-01	-2.96468867783E+01
7.51142284569E+10	1.93696823348E-01	-1.59090626100E+01	9.91712270462E-05	6.96339383325E+01	1.32372510383E-04	6.37125964901E+01	2.10673957318E-01	-3.06128771950E+01
7.51202404810E+10	1.96875445874E-01	-1.78299371406E+01	6.58239081101E-06	1.71419626498E+02	1.22322418634E-04	6.67075767694E+01	2.11695891903E-01	-3.11341507692E+01
7.51262525050E+10	1.96491883404E-01	-1.95259224063E+01	8.29023011650E-05	2.96479491604E+01	3.31962876978E-05	3.29639080739E+01	2.08891512559E-01	-3.13958118422E+01
7.51322645291E+10	1.96592452290E-01	-1.84476406936E+01	4.40460408871E-05	7.03052144471E+00	4.80792432386E-05	4.91828922140E+01	2.11792112186E-01	-3.14461336692E+01
7.51382765531E+10	1.93976482416E-01	-1.59963251824E+01	6.33120416754E-06	1.24275039005E+02	7.43816351721E-05	6.07892974581E+01	2.11262802201E-01	-3.28912675513E+01
7.51442885772E+10	1.95114020690E-01	-1.77257237640E+01	3.19443298434E-05	-1.05099680795E+02	5.95747150822E-05	3.24653989841E+01	2.09271002665E-01	-3.04005202074E+01
7.51503006012E+10	1.94814370790E-01	-1.86212776110E+01	7.15412094118E-05	1.74195538277E+01	1.07740795829E-04	-3.96482180330E+01	2.09918357546E-01	-3.28643426154E+01
7.51563126253E+10	1.93749428297E-01	-1.97274544072E+01	2.90884660741E-05	-3.39623898848E+01	6.84404711015E-05	3.09236180580E+01	2.06754213926E-01	-3.10120727040E+01
7.51623246493E+10	1.96308489694E-01	-1.91484884340E+01	1.84617466598E-05	3.69773139371E+01	4.98023632656E-05	1.09604464364E+01	2.09788811985E-01	-3.24224239907E+01
7.51683366733E+10	1.92181527649E-01	-1.75383584933E+01	5.27783743363E-05	1.31783906614E+02	9.20173303319E-05	2.17662699944E+01	2.11189256722E-01	-3.26422116298E+01
7.51743486974E+10	1.98555167131E-01	-2.10861076101E+01	2.90243476623E-05	4.29822091643E+01	3.58185982877E-05	1.31618808696E+01	2.09170900096E-01	-3.28517434210E+01
7.51803607214E+10	1.96214060088E-01	-2.01044730304E+01	6.92397374728E-05	2.84144826956E+01	1.13330180001E-04	-2.34200462389E+01	2.06747387118E-01	-3.28487222361E+01
7.51863727455E+10	1.95355640856E-01	-1.86528315817E+01	9.61156226585E-05	-5.90695564455E+00	1.05070666530E-04	-6.19829442269E+01	2.05574400028E-01	-3.18196387108E+01
7.51923847695E+10	1.93042556643E-01	-2.05204440284E+01	5.06001516200E-05	-3.64442063692E+01	8.79892617911E-05	-5.65036447303E+01	2.10243563447E-01	-3.34651237174E+01
7.51983967936E+10	1.94036913520E-01	-2.01831488302E+01	5.08461551564E-05	-2.85321137654E+01	1.17011741818E-04	-5.89669148008E+01	2.09928408675E-01	-3.38525036503E+01
7.52044088176E+10	1.98034660658E-01	-2.17405664940E+01	4.27564165678E-05	1.85403148525E+01	9.28380199267E-05	-1.15674079040E+02	2.09395989685E-01	-3.44073653609E+01
7.52104208417E+10	1.92513944761E-01	-1.88121668595E+01	3.17811275071E-05	1.30587050012E+01	1.44630835813E-04	-9.50783956237E+01	2.07242236468E-01	-3.44607387626E+01
7.52164328657E+10	1.95179748938E-01	-2.11615445892E+01	8.81403738935E-05	8.69394987423E+00	5.81713587531E-05	-1.06942508410E+02	2.08395554735E-01	-3.48703350940E+01
7.52224448898E+10	1.95079350550E-01	-2.21284951023E+01	5.20726843807E-05	-1.67427504675E+02	5.11958192951E-05	1.65722217239E+02	2.05146758562E-01	-3.37401632045E+01
7.52284569138E+10	1.98081182220E-01	-2.17643707371E+01	7.01408882962E-05	-7.43766979182E+01	1.16736297347E-04	-1.19548344226E+02	2.05439707537E-01	-3.49497444824E+01
7.52344689379E+10	1.93554817121E-01	-2.13773773531E+01	5.86943085010E-05	-1.04440688865E+02	1.63858959982E-04	-1.63027932854E+02	2.09722609749E-01	-3.68824310460E+01
7.52404809619E+10	1.95126031199E-01	-1.97920979813E+01	5.11567583845E-05	-3.75246949685E+01	7.50406256234E-05	-1.60694890735E+02	2.05013731814E-01	-3.42329361448E+01
7.52464929860E+10	1.93782836681E-01	-2.00746798915E+01	9.36693645216E-05	-1.30389320858E+02	1.15982180599E-04	1.42459696922E+02	2.07996505689E-01	-3.59775274872E+01
7.52525050100E+10	1.91995262856E-01	-2.17331794567E+01	5.92314401313E-05	1.98692683022E+01	9.09594283490E-05	1.55040650827E+02	2.07786897046E-01	-3.72899713587E+01
7.52585170341E+10	1.91407196065E-01	-2.04155425070E+01	7.66389899532E-05	3.21469825217E+01	1.17731750345E-04	1.14935921301E+02	2.07928138025E-01	-3.68661314442E+01
7.52645290581E+10	1.96484276940E-01	-2.35078472356E+01	1.10986998944E-05	-1.78691337834E+02	7.79991536949E-05	1.32826418863E+02	2.05519425995E-01	-3.55588131587E+01
7.52705410822E+10	1.94038220189E-01	-2.36651604521E+01	4.64751410640E-05	2.58516624935E+01	4.62356273308E-05	1.45743003184E+02	2.04549701058E-01	-3.64171075438E+01
7.52765531062E+10	1.92367763490E-01	-2.28345296964E+01	7.44789169242E-05	7.60099831753E+01	9.22233832573E-05	4.62758754844E+01	2.03583040128E-01	-3.68786043133E+01
7.52825651303E+10	1.89042463018E-01	-2.19617887146E+01	8.94469037603E-05	-7.75012153949E+00	1.28045521359E-05	1.35797812189E+02	2.02636887970E-01	-3.64177629264E+01
7.52885771543E+10	1.90405307862E-01	-2.14303365730E+01	1.00496426111E-04	-1.11815200442E+02	8.72764296523E-05	1.19449225280E+02	2.07657349030E-01	-3.85780810655E+01
7.52945891784E+10	1.93605608470E-01	-2.26752661618E+01	9.06547438463E-05	-1.04774570374E+02	6.27110771465E-05	1.20839886472E+02	2.07384434217E-01	-3.82677025685E+01
7.53006012024E+10	1.92265620402E-01	-2.34278387475E+01	8.63086704262E-05	-1.54614328968E+02	1.20049045665E-04	1.38285665461E+02	2.02732711446E-01	-3.68404035118E+01
7.53066132265E+10	1.87594435613E-01	-2.13573598379E+01	6.20388429576E-05	1.72641166797E+02	9.29242338775E-05	7.77757621241E+01	2.02373575164E-01	-3.74083325464E+01
7.53126252505E+10	1.88234627362E-01	-2.24971616505E+01	1.02759126168E-04	-1.43018498749E+02	1.22587531652E-04	7.49251458796E+01	2.02696942567E-01	-3.89450451953E+01
7.53186372745E+10	1.92860209937E-01	-2.41713054733E+01	5.14087266725E-05	1.09475011881E+02	1.11960543324E-04	7.83039203408E+01	2.03395199433E-01	-3.90781641304E+01
7.53246492986E+10	1.90808079158E-01	-2.30086377626E+01	7.39073467370E-05	6.72768182763E+01	7.83091930098E-05	2.70181660811E+01	2.03554741458E-01	-3.80827710461E+01
7.53306613226E+10	1.89603519735E-01	-2.20797356504E+01	2.36233640130E-05	1.27034592824E+02	8.55424851818E-05	4.84475302444E+01	2.05802284245E-01	-3.94601639538E+01
7.53366733467E+10	1.87890978800E-01	-2.35370491289E+01	1.26340329389E-05	-1.78534777976E+02	6.45444164987E-05	1.02246115121E+01	2.03364424745E-01	-4.07314713345E+01
7.53426853707E+10	1.88819344299E-01	-2.33643875632E+01	2.44770406739E-05	4.09735533707E+01	1.24202259649E-04	2.21852353597E+01	1.99594541863E-01	-3.81620991924E+01
7.53486973948E+10	1.95105922390E-01	-2.58755398725E+01	3.68398735448E-05	4.73651664875E+01	4.12440394446E-05	-4.97598324333E+00	2.01849152078E-01	-3.97566775275E+01
7.53547094188E+10	1.90822552237E-01	-2.44794223856E+01	1.25922116277E-05	8.19106539493E+00	4.72902592857E-05	-2.16110330215E+01	2.01498225177E-01	-3.96217780574E+01
7.53607214429E+10	1.87578072584E-01	-2.24300887604E+01	8.29000164515E-05	1.96152351437E+01	4.13836070061E-05	-1.29865744267E+01	2.02407815256E-01	-4.08951565491E+01
7.53667334669E+10	1.89507208414E-01	-2.44459414670E+01	8.77459459810E-05	1.58772756552E+01	7.02874237991E-05	-4.98468594062E+01	1.98888450696E-01	-3.96313714184E+01
7.53727454910E+10	1.91568812642E-01	-2.53960687558E+01	7.29475044265E-05	1.69005429363E+01	7.99437123896E-05	-2.93524628448E+00	2.00129690105E-01	-4.00334987731E+01
7.53787575150E+10	1.89464000036E-01	-2.63534701091E+01	3.71435874152E-05	3.11971938330E+01	8.10974623303E-05	-5.42624971279E+01	2.00166337345E-01	-4.05346408405E+01
7.53847695391E+10	1.88959729892E-01	-2.48947239864E+01	4.39056844694E-05	-6.60941752822E+01	5.96007006485E-05	-1.44497803916E+01	1.99750744030E-01	-4.05812293427E+01
7.53907815631E+10	1.86567617698E-01	-2.31925697639E+01	6.08767733824E-05	-6.05294683361E+01	3.39314083576E-05	-1.22527874121E+02	2.00236495451E-01	-4.20776256263E+01
7.53967935872E+10	1.87416166309E-01	-2.37930900401E+01	1.01219477849E-04	-3.02707275827E+01	9.56565117565E-05	-6.99558442845E+01	2.01682550577E-01	-4.16730338323E+01
7.54028056112E+10	1.90449969551E-01	-2.67536794722E+01	5.35170601054E-05	-7.29562203737E+01	9.32544130943E-05	-9.95056664529E+01	2.01600410954E-01	-4.20638368874E+01
7.54088176353E+10	1.88209250218E-01	-2.67276440991E+01	5.25740443127E-05	-4.10167715213E+01	7.77379556441E-05	-1.34901588775E+02	1.99548571734E-01	-4.22604995923E+01
7.54148296593E+10	1.88944369680E-01	-2.57980957852E+01	1.02936052715E-05	-1.77113160059E+02	6.37212212818E-05	4.77300661205E+01	1.96463218733E-01	-4.25542711944E+01
7.54208416834E+10	1.90610873475E-01	-2.52923798652E+01	1.43304599516E-05	1.85415834934E+01	3.59613959633E-05	-1.43760898465E+02	1.97418363757E-01	-4.10308894289E+01
7.54268537074E+10	1.91195458400E-01	-2.73231207887E+01	4.78888245416E-05	-7.61277407129E+01	5.15100653822E-05	7.59585388943E-01	2.00709758717E-01	-4.29215578149E+01
7.54328657315E+10	1.88881661500E-01	-2.71625095004E+01	9.00026805701E-05	-8.43045499868E+01	1.73479237741E-04	-1.00262069057E+02	1.97632287094E-01	-4.20410162539E+01
7.54388777555E+10	1.84717501644E-01	-2.46007871120E+01	5.55114514273E-05	-5.49344652025E+01	5.20069350290E-05	-9.42615308337E+01	1.96696288242E-01	-4.32612992407E+01
7.54448897796E+10	1.83770262780E-01	-2.51187871535E+01	4.31949624488E-05	-8.80509098022E+01	7.50294602214E-05	-1.21633046040E+02	1.98132089736E-01	-4.42422206281E+01
7.54509018036E+10	1.92774156395E-01	-2.86298548201E+01	1.34977908692E-05	-1.37890904340E+02	1.04079530990E-04	-1.53815770139E+02	1.98375959322E-01	-4.46486318221E+01
7.54569138277E+10	1.85772057129E-01	-2.50801615627E+01	8.29260483786E-05	-1.09735147831E+02	7.12124293421E-05	1.51712894304E+02	1.96900139871E-01	-4.43692027577E+01
7.54629258517E+10	1.91032668241E-01	-2.79219201934E+01	2.51381670507E-05	1.65309596764E+02	2.89302503279E-05	1.28472986457E+02	1.97381493395E-01	-4.41149112266E+01
7.54689378758E+10	1.89210815100E-01	-2.90023721734E+01	1.08340952171E-04	-7.78257852155E+01	5.76730868771E-05	-1.52373059957E+02	1.98659071811E-01	-4.48094601428E+01
7.54749498998E+10	1.87481772082E-01	-2.66135848836E+01	4.80073530180E-05	-1.53570145297E+02	1.27627132916E-04	-9.80810050843E+01	1.97790642821E-01	-4.48879779012E+01
7.54809619238E+10	1.88077351191E-01	-2.73604864449E+01	1.00916013463E-04	-1.41350742351E+02	1.37908944577E-04	-1.38754991660E+02	1.96514958749E-01	-4.45064560340E+01
7.54869739479E+10	1.89202792755E-01	-2.79464261070E+01	1.01810320451E-04	-1.62195460997E+02	2.50134823414E-05	1.42018318219E+02	1.95655096726E-01	-4.50233703617E+01
7.54929859719E+10	1.87571972561E-01	-2.84655680042E+01	3.21444181614E-05	-1.70903788208E+02	6.67852269727E-05	1.59549242314E+02	1.99111490071E-01	-4.68710115762E+01
7.54989979960E+10	1.85744105946E-01	-2.89792217034E+01	6.20271701315E-05	-1.75867454606E+02	1.04900537406E-04	-1.71407270651E+02	1.96715600219E-01	-4.55691607016E+01
7.55050100200E+10	1.88495722401E-01	-2.97540191846E+01	3.41751363371E-05	-1.54185016440E+02	3.44262141786E-05	1.69591069251E+02	1.97052945392E-01	-4.56103284040E+01
7.55110220441E+10	1.88783186381E-01	-2.85896845727E+01	1.23662777011E-04	-1.59429286562E+02	4.69866501937E-05	-1.48055345223E+02	1.96163171355E-01	-4.63904930865E+01
7.55170340681E+10	1.86470589066E-01	-2.89907937741E+01	9.32616266820E-05	1.66273960287E+02	9.83643031064E-05	1.72872862324E+02	1.96371574767E-01	-4.65666684412E+01
7.55230460922E+10	1.85909608943E-01	-2.88920771116E+01	1.10525224718E-04	1.50346763765E+02	2.26891609906E-05	-6.84707317878E+01	1.96404492373E-01	-4.67039815735E+01
7.55290581162E+10	1.87602969854E-01	-3.08750099002E+01	4.81793190676E-05	1.36746194887E+02	7.31604866291E-05	1.79573964845E+02	1.94561413415E-01	-4.58208554134E+01
7.55350701403E+10	1.90257381431E-01	-3.14361109686E+01	1.43031915158E-04	1.59270698321E+02	6.99548361096E-05	1.63812695512E+02	1.92576136167E-01	-4.61789002662E+01
7.55410821643E+10	1.85383205156E-01	-2.86060352416E+01	1.05608283446E-04	1.50932287939E+02	8.76971641874E-05	1.32850498846E+02	1.95998100282E-01	-4.81476698264E+01
7.55470941884E+10	1.88942897787E-01	-3.06879728951E+01	1.47520768889E-04	1.38236775282E+02	1.25939949017E-04	1.52295722168E+02	1.94268446206E-01	-4.70674597539E+01
7.55531062124E+10	1.88602322768E-01	-3.08808474129E+01	6.96873418391E-05	1.50683907192E+02	1.13161369255E-04	1.07228023780E+02	1.95550910362E-01	-4.79341588303E+01
7.55591182365E+10	1.86105617529E-01	-3.18501269149E+01	1.06145374813E-04	9.81322610510E+01	1.69924624024E-04	1.05747464220E+02	1.93871196909E-01	-4.90588390176E+01
7.55651302605E+10	1.83080801802E-01	-2.92514082035E+01	1.49100739330E-04	7.14380307179E+01	1.19397317075E-04	1.16977675856E+02	1.93899310615E-01	-4.82158545652E+01
7.55711422846E+10	1.89324643267E-01	-3.14791904760E+01	8.68654269924E-05	4.35616736747E+01	9.81757027062E-05	4.21725109460E+01	1.95214461654E-01	-4.77990514119E+01
7.55771543086E+10	1.86500330344E-01	-3.15198275909E+01	1.29477919469E-04	4.21313483727E+01	7.20738874338E-05	9.19268484022E+01	1.94743473677E-01	-4.94414618289E+01
7.55831663327E+10	1.82959081946E-01	-3.12853339443E+01	8.19517881300E-05	3.60018997314E+01	6.98841314384E-05	1.33482337595E+02	1.92951307817E-01	-4.97814711749E+01
7.55891783567E+10	1.83589472724E-01	-3.04577771499E+01	4.74694306058E-05	1.23015967634E+01	5.17462011736E-05	7.18374296072E+01	1.92647000666E-01	-4.86520525342E+01
7.55951903808E+10	1.87084745440E-01	-3.34062124455E+01	3.25954726913E-05	4.09445589193E+01	7.96781739622E-05	3.58279004332E+01	1.95291221295E-01	-4.99459647756E+01
7.56012024048E+10	1.90638298844E-01	-3.41747430428E+01	7.32127506944E-05	6.78630940273E+01	7.72960199423E-05	4.56652079195E+01	1.93768670526E-01	-5.02732678773E+01
7.56072144289E+10	1.84346037966E-01	-3.12204095772E+01	5.64486608938E-05	6.28688012332E+00	7.37450139951E-05	-2.08604197515E+01	1.90826754115E-01	-4.95125148692E+01
7.56132264529E+10	1.83018342638E-01	-3.08743476751E+01	2.76758400532E-05	1.65785087062E+01	8.60212074246E-05	2.30645411336E+01	1.93533822091E-01	-5.06901067145E+01
7.56192384770E+10	1.81956614697E-01	-3.19921645130E+01	3.88889775135E-05	-1.35847270020E+00	5.22071513118E-05	4.54416512043E+01	1.92715738759E-01	-5.04279049335E+01
7.56252505010E+10	1.84039319130E-01	-3.27175017505E+01	2.94885710145E-05	-5.42441012447E+01	9.09040061122E-05	-1.75965658086E+01	1.94130505164E-01	-5.17974511093E+01
7.56312625251E+10	1.87066857826E-01	-3.37107309895E+01	1.40707804818E-05	1.37089451726E+02	8.22061582373E-05	4.77826593694E+00	1.91856189631E-01	-5.22010958256E+01
7.56372745491E+10	1.84355303521E-01	-3.28515492847E+01	6.28380790628E-05	3.79033154813E+01	9.20803540765E-05	3.78380525578E+01	1.90489866754E-01	-4.97473062089E+01
7.56432865731E+10	1.83024089369E-01	-3.39198786970E+01	9.17191470538E-05	-4.32930007057E+01	1.15994462034E-04	-3.15141877495E+01	1.93044867102E-01	-5.19867892832E+01
7.56492985972E+10	1.84621714942E-01	-3.42189735314E+01	6.89833537866E-05	-1.47968718026E+02	9.83868462421E-05	-6.45545455439E+01	1.91651614395E-01	-5.18824632260E+01
7.56553106212E+10	1.85308516299E-01	-3.38773622485E+01	1.39679489525E-04	-1.01840568809E+02	3.04387768829E-05	-7.91953543633E+01	1.91282451294E-01	-5.18459590125E+01
7.56613226453E+10	1.84166550086E-01	-3.24325379772E+01	2.68597876368E-05	-1.26222389159E+02	2.67311754939E-05	-1.22695940955E+02	1.91071323283E-01	-5.27535932649E+01
7.56673346693E+10	1.83174965175E-01	-3.29787205485E+01	4.75490053193E-05	1.06469267696E+02	8.64752341670E-05	-2.89681983163E+01	1.92609064640E-01	-5.37830493665E+01
7.56733466934E+10	1.83560346298E-01	-3.47743406750E+01	1.87816060819E-05	1.11581222950E+02	7.09384697771E-05	-1.83800581415E+01	1.91096091171E-01	-5.45427709708E+01
7.56793587174E+10	1.80575600215E-01	-3.35508368706E+01	6.61979864338E-05	4.98106696018E+01	6.05206281605E-05	4.45339179775E+01	1.88315225980E-01	-5.25530970375E+01
7.56853707415E+10	1.81298563060E-01	-3.40707274400E+01	4.83867840449E-05	-1.69241554528E+02	3.61219063380E-05	-4.48772511037E+01	1.91961676029E-01	-5.36109046476E+01
7.56913827655E+10	1.82906810165E-01	-3.48763528545E+01	4.06185368095E-05	-2.85345931449E+01	9.66055104520E-05	-5.75948624074E+01	1.89853835765E-01	-5.41493703851E+01
7.56973947896E+10	1.82930859776E-01	-3.47825809806E+01	3.93436748547E-05	-1.47893751486E+02	4.22193182331E-05	-3.58655289740E+01	1.88829683241E-01	-5.47884557132E+01
7.57034068136E+10	1.84921825847E-01	-3.45963582502E+01	2.67025648851E-05	1.77845174557E+02	1.03829311205E-04	-1.19624144212E+02	1.88150505175E-01	-5.51163853311E+01
7.57094188377E+10	1.82820198240E-01	-3.62065311996E+01	3.62291841692E-05	9.14643310429E+01	5.31731852621E-05	-1.35818350222E+02	1.87853814281E-01	-5.33963942005E+01
7.57154308617E+10	1.83614884561E-01	-3.62196933303E+01	4.35490147350E-05	-1.55587746457E+02	2.95248862374E-05	-1.48506921919E+02	1.89903941287E-01	-5.52828309216E+01
7.57214428858E+10	1.83056583747E-01	-3.42689651557E+01	4.68435737597E-05	8.39853340846E+01	4.82144457842E-05	1.37722787705E+02	1.91342998845E-01	-5.58648488306E+01
7.57274549098E+10	1.83929866608E-01	-3.48116558469E+01	2.97970250819E-05	-1.78639072950E+02	1.66887224571E-05	4.84221263962E+00	1.88931237286E-01	-5.58895327155E+01
7.57334669339E+10	1.82939957905E-01	-3.63644539348E+01	3.69391349487E-06	-1.79132567483E+01	4.02242079885E-05	-1.71316656304E+02	1.90156796958E-01	-5.54883752808E+01
7.57394789579E+10	1.81306186148E-01	-3.63480586144E+01	2.27081724424E-05	1.19018635597E+01	2.17385139448E-05	-1.68449987326E+02	1.89540811013E-01	-5.68703391673E+01
7.57454909820E+10	1.80190314404E-01	-3.44056359934E+01	5.95387244759E-05	3.23956557111E+01	7.40081107607E-05	-1.75977329411E+02	1.87469462880E-01	-5.71042820774E+01
7.57515030060E+10	1.85204971376E-01	-3.65874443097E+01	3.90707293400E-05	4.28109479591E+01	8.15606198289E-05	-7.24635067510E+01	1.91391208565E-01	-5.73080127632E+01
7.57575150301E+10	1.82821164145E-01	-3.64795726986E+01	7.75663368101E-05	-6.47235093920E+00	8.95791556745E-05	-7.30605940603E+01	1.88063543753E-01	-5.72486899528E+01
7.57635270541E+10	1.81492665199E-01	-3.71772371036E+01	7.47939537417E-05	-4.77556842502E+01	5.56760178942E-05	-1.06569692088E+02	1.85756246034E-01	-5.71425243307E+01
7.57695390782E+10	1.82634033943E-01	-3.77544392877E+01	1.49959557605E-05	1.56873245588E+02	1.38880948787E-05	2.23506423456E+01	1.90018455394E-01	-5.71936317743E+01
7.57755511022E+10	1.82603284567E-01	-3.76640930237E+01	3.60428423680E-05	6.91453779063E+01	1.06347190866E-04	-1.48263952274E+02	1.87846685972E-01	-5.76335255636E+01
7.57815631263E+10	1.80129678714E-01	-3.63771925420E+01	2.41797741807E-05	2.75565480781E+00	9.59049083709E-05	-1.33137421091E+02	1.85978492358E-01	-5.64136949106E+01
7.57875751503E+10	1.79426352030E-01	-3.65976956080E+01	5.72975569947E-05	-7.34025780732E+01	8.50159501594E-05	1.79062259541E+02	1.85205726527E-01	-5.77149064247E+01
7.57935871743E+10	1.84268767321E-01	-3.82512768766E+01	8.64555305066E-05	-9.97103848795E+01	5.30242895419E-05	-1.10550634031E+02	1.87338628662E-01	-5.89738281057E+01
7.57995991984E+10	1.77399875443E-01	-3.70488165569E+01	4.20293492521E-05	-1.04187573584E+01	7.45826514330E-05	1.37901520868E+02	1.86939149808E-01	-5.90070133131E+01
7.58056112224E+10	1.81783075431E-01	-3.77330530021E+01	9.68240101896E-05	-8.76442200121E+01	4.16473678225E-05	-1.72708993743E+02	1.86429253624E-01	-5.92798297498E+01
7.58116232465E+10	1.84798930264E-01	-3.88569392623E+01	3.78059326360E-05	-1.02845196489E+02	2.96411403165E-05	-1.50854938291E+02	1.84713757615E-01	-5.92970626254E+01
7.58176352705E+10	1.80574112578E-01	-3.79334364964E+01	9.14140830848E-05	-9.18729828240E+01	4.31453054627E-05	-1.61948167713E+02	1.83855924925E-01	-5.93611656977E+01
7.58236472946E+10	1.80780356679E-01	-3.85315502225E+01	1.32834558302E-04	-1.48624060987E+02	7.02058373302E-06	6.07327363005E+01	1.85620536564E-01	-6.06165624779E+01
7.58296593186E+10	1.81188518796E-01	-3.93998373116E+01	6.69830689305E-05	-1.40298168505E+02	8.33820769511E-05	1.63043958981E+02	1.87165983872E-01	-6.16364171467E+01
7.58356713427E+10	1.79070524058E-01	-3.75153568642E+01	4.91523756073E-05	-1.38618857612E+02	3.88432288294E-05	1.59216023615E+02	1.83699189827E-01	-5.92394774307E+01
7.58416833667E+10	1.78569854048E-01	-3.73556930934E+01	2.58362412266E-05	-1.41620368694E+02	4.94186227628E-05	8.01260045171E+01	1.83392528977E-01	-6.15461138091E+01
7.58476953908E+10	1.79907707719E-01	-4.01705598138E+01	3.82257172767E-05	-3.22447051695E+01	6.50160355568E-05	1.00587253036E+02	1.81413801372E-01	-6.02379601368E+01
7.58537074148E+10	1.82686815101E-01	-4.02253304864E+01	2.69041313717E-05	-1.72335706277E+02	7.25614824394E-05	1.56341988051E+01	1.85025345211E-01	-6.17610656856E+01
7.58597194389E+10	1.81133272952E-01	-3.89130694954E+01	3.31183047374E-05	-2.46510042843E+01	5.84867265529E-05	-1.10292263730E+02	1.83947102072E-01	-6.38091157456E+01
7.58657314629E+10	1.80113525178E-01	-3.91850038493E+01	3.87734566862E-05	-1.77746805432E+02	1.01401190435E-04	-8.57464318902E+01	1.84419117094E-01	-6.22466370555E+01
7.58717434870E+10	1.77287869148E-01	-3.98227181623E+01	3.45098549756E-05	1.76875721498E+02	1.05825516431E-04	-1.41160964568E+02	1.82632546272E-01	-6.08940580517E+01
7.58777555110E+10	1.78847717604E-01	-3.91972008056E+01	7.97337669767E-05	-1.33407363003E+02	6.65793893772E-05	-8.53120932743E+01	1.85266841295E-01	-6.40697663693E+01
7.58837675351E+10	1.77542586144E-01	-4.12757398437E+01	7.99329365852E-05	-1.00831108139E+02	5.77741094256E-05	1.71770422991E+02	1.81965775466E-01	-6.34586905919E+01
7.58897795591E+10	1.77450539084E-01	-3.92605331492E+01	1.29530107446E-04	1.52822739227E+02	2.37323679353E-05	1.25698103961E+02	1.80898471749E-01	-6.25345435456E+01
7.58957915832E+10	1.78812355569E-01	-4.12335071441E+01	6.15367683172E-05	8.98648807625E+01	3.13445270308E-05	7.73113015656E+01	1.80349200595E-01	-6.45777679698E+01
7.59018036072E+10	1.79101145378E-01	-4.05714896448E+01	7.10342323371E-05	1.75663367747E+02	9.44793589178E-05	-7.52917493755E+01	1.81725246834E-01	-6.47459032928E+01
7.59078156313E+10	1.77139428566E-01	-3.95107999241E+01	2.90753327847E-05	1.01605522079E+02	4.08331932761E-05	-1.52255965087E+02	1.80769045297E-01	-6.35804243571E+01
7.59138276553E+10	1.77716311269E-01	-4.20264758443E+01	2.34765314067E-05	-2.33573607287E+01	5.06497968721E-05	-1.67181781979E+02	1.81586409955E-01	-6.61459235248E+01
7.59198396794E+10	1.80060488637E-01	-4.10524165667E+01	9.16709650551E-05	1.31660217519E+02	8.92668613248E-05	1.68611448970E+02	1.81410033459E-01	-6.62110870644E+01
7.59258517034E+10	1.78826588023E-01	-4.10699451142E+01	6.63745144934E-05	1.73800577328E+02	1.30915691931E-04	1.43796506695E+02	1.81230675868E-01	-6.54093977277E+01
7.59318637275E+10	1.77884997078E-01	-4.14411276940E+01	6.41097859056E-05	8.52832250751E+01	6.30977851691E-05	1.05595607069E+02	1.80315381244E-01	-6.45235787661E+01
7.59378757515E+10	1.77086410515E-01	-4.32858451482E+01	6.51063115676E-05	1.02479552293E+02	4.56385017685E-05	7.62741500747E+01	1.80015080844E-01	-6.72352935245E+01
7.59438877756E+10	1.80553170453E-01	-4.30913331907E+01	4.17499400855E-05	-1.59854968567E+02	5.68000796332E-05	1.03562305520E+02	1.80002128329E-01	-6.62046308212E+01
7.59498997996E+10	1.79537397894E-01	-4.25741573383E+01	2.49066866762E-05	2.10562188443E+01	6.00693128252E-05	-7.75457886308E+01	1.78660838190E-01	-6.67019445051E+01
7.59559118236E+10	1.78212509328E-01	-4.15177949374E+01	8.17680606175E-05	-7.75530513565E+01	6.98035203988E-05	-1.55686090839E+02	1.77768404177E-01	-6.63701624550E+01
7.59619238477E+10	1.78516792891E-01	-4.48454533462E+01	5.13024783099E-05	-1.66167980081E+02	8.78570694107E-05	1.58423336732E+02	1.76413646815E-01	-6.66317176792E+01
7.59679358717E+10	1.76763317143E-01	-4.20441234623E+01	9.81701851303E-05	1.05975491388E+02	9.54731496017E-05	1.15595779750E+02	1.76802905726E-01	-6.78741601973E+01
7.59739478958E+10	1.79121749616E-01	-4.29442122581E+01	3.62190217050E-05	1.04939307245E+02	4.77191920554E-05	1.26993839454E+02	1.77345019066E-01	-6.83251506230E+01
7.59799599198E+10	1.79743570330E-01	-4.43889851329E+01	1.10010543255E-04	8.00915483532E+01	6.82354381754E-05	8.63796457616E+01	1.78959171464E-01	-6.90561191982E+01
7.59859719439E+10	1.75279896206E-01	-4.45846273797E+01	5.34113556056E-05	1.64582528798E+01	1.65548412498E-05	3.23369907813E+01	1.76777717616E-01	-6.93663885061E+01
7.59919839679E+10	1.78705767143E-01	-4.53898312952E+01	5.84650163519E-05	7.97845630719E+01	8.46307158285E-05	1.08206976958E+02	1.76030057813E-01	-6.82718711531E+01
7.59979959920E+10	1.78163786825E-01	-4.33845075781E+01	1.18620713755E-05	1.24350797426E+02	1.86753501755E-05	-1.61303191061E+02	1.74412409067E-01	-6.93906172022E+01
7.60040080160E+10	1.76671791428E-01	-4.48353671849E+01	4.34757263784E-05	5.28927459438E+01	6.57960323573E-05	4.44067199115E+01	1.77083818124E-01	-7.06851443241E+01
7.60100200401E+10	1.76419409146E-01	-4.44213715212E+01	1.54475185945E-05	-1.79052046299E+02	1.02203251179E-04	3.21796840937E+01	1.74402314756E-01	-7.05587900659E+01
7.60160320641E+10	1.75724645020E-01	-4.54001769128E+01	7.33474919668E-05	3.94719091341E+01	1.35401880745E-04	-1.08295622034E+00	1.75791921512E-01	-6.96703241940E+01
7.60220440882E+10	1.75864676127E-01	-4.60613798556E+01	4.74550714980E-05	6.19046418689E+01	5.18524043049E-06	-6.09422544833E+01	1.73640219825E-01	-6.89406298766E+01
7.60280561122E+10	1.75640892218E-01	-4.45891244430E+01	8.64419738434E-05	7.73385181508E+01	2.57138835371E-05	5.22242778397E+00	1.72780003199E-01	-7.12252264011E+01
7.60340681363E+10	1.75666003861E-01	-4.49245907360E+01	3.40340966775E-05	-1.06523231154E+01	1.07205565397E-04	2.70598548531E+00	1.72506391653E-01	-7.18373502057E+01
7.60400801603E+10	1.75308179307E-01	-4.52552284460E+01	4.61159666839E-05	8.26456391519E+01	8.85188752968E-05	5.12095622024E+01	1.74676608417E-01	-7.34069601205E+01
7.60460921844E+10	1.73960083872E-01	-4.39147281526E+01	5.75144906768E-05	9.32711041436E+01	4.58061241934E-05	-1.00874507252E+01	1.73127604073E-01	-7.20843942372E+01
7.60521042084E+10	1.72717214236E-01	-4.47201355658E+01	8.32202547353E-05	-3.05692812248E+00	3.34342808198E-05	-6.98924676569E+00	1.71987344693E-01	-7.18170705956E+01
7.60581162325E+10	1.74202027276E-01	-4.60720941211E+01	6.23233458816E-05	6.21516405719E+01	5.15004991741E-05	-9.79493371058E+01	1.71500762486E-01	-7.16103424726E+01
7.60641282565E+10	1.74893442740E-01	-4.43877669344E+01	5.49983159858E-05	-4.38497428898E-02	2.50908032004E-05	1.46220901553E+02	1.70282918401E-01	-7.25353516242E+01
7.60701402806E+10	1.73495604692E-01	-4.59414691614E+01	7.87197389589E-05	-1.87285868158E+01	2.74555048695E-05	-6.31895403738E+01	1.69517345143E-01	-7.19082719379E+01
7.60761523046E+10	1.74559339453E-01	-4.84751135659E+01	6.39766609324E-05	-1.47283044473E+02	5.37451325594E-05	3.01962877762E+01	1.70474401666E-01	-7.29809842179E+01
7.60821643287E+10	1.75213668547E-01	-4.53689582856E+01	7.70920666213E-05	1.53184871157E+01	2.87691406516E-05	2.12996155342E+01	1.68918356710E-01	-7.26209669666E+01
7.60881763527E+10	1.75017374424E-01	-4.67376230826E+01	9.63130370546E-05	1.06468726120E+01	3.52780122723E-05	3.21095517213E+01	1.70543002329E-01	-7.44076560331E+01
7.60941883768E+10	1.72564526163E-01	-4.83759024863E+01	1.14038917496E-04	-3.05790944159E+01	1.24813117917E-04	-3.17378214000E+01	1.68152769748E-01	-7.35936772690E+01
7.61002004008E+10	1.72400007610E-01	-4.56572783970E+01	7.68298410902E-05	-3.98479735083E+01	8.83531780422E-05	-4.20505534116E+01	1.66764278574E-01	-7.30597341041E+01
7.61062124248E+10	1.75165344879E-01	-4.78009392777E+01	4.01408897917E-05	-7.28178090671E+01	9.11750420705E-05	-7.84434605061E+01	1.66314660800E-01	-7.32517855636E+01
7.61122244489E+10	1.71467085939E-01	-4.80411432132E+01	8.87720420526E-05	-7.20861942050E+01	1.05243926850E-04	-5.96831343616E+01	1.67698448799E-01	-7.53825993146E+01
7.61182364729E+10	1.74514896277E-01	-4.72991651781E+01	6.21186792585E-05	-6.81844817161E+01	3.30867640830E-05	1.42326876706E+00	1.66197592527E-01	-7.40773188132E+01
7.61242484970E+10	1.70537469354E-01	-4.71787330038E+01	7.14160530014E-05	-2.16132181549E+01	3.75765305236E-05	-8.92367701655E+01	1.67865311615E-01	-7.60490378830E+01
7.61302605210E+10	1.71792608399E-01	-4.76893406480E+01	1.35451090309E-04	-6.58624077046E+01	3.71014777967E-05	-5.60455020714E+01	1.65997254570E-01	-7.46231656446E+01
7.61362725451E+10	1.72131153726E-01	-4.89750369413E+01	6.00422857901E-05	-5.85323354596E+01	1.17116164555E-04	-7.06281019695E+01	1.63903066990E-01	-7.48340550992E+01
7.61422845691E+10	1.74264479740E-01	-4.96676863087E+01	8.17492528252E-05	-9.41257466884E+01	8.82075852574E-05	-1.10622674631E+02	1.65389903116E-01	-7.66544041392E+01
7.61482965932E+10	1.69616783997E-01	-4.78811832067E+01	1.13558276659E-04	-1.22447875010E+02	6.02754896400E-05	-1.19860747851E+02	1.67052360185E-01	-7.75775898161E+01
7.61543086172E+10	1.75014956843E-01	-5.00003985466E+01	2.62741385078E-05	-6.11322408653E+01	5.41696291704E-05	-1.66843944981E+02	1.63556564266E-01	-7.52549445333E+01
7.61603206413E+10	1.72302558084E-01	-4.91561541261E+01	6.21758586586E-05	-1.35947539727E+02	1.57859686318E-05	1.48397286546E+02	1.65987617310E-01	-7.72994055242E+01
7.61663326653E+10	1.70409048377E-01	-4.74152988590E+01	9.44999529208E-05	-1.75105475583E+02	8.50389455777E-05	1.64383234434E+02	1.62259106223E-01	-7.58431486333E+01
7.61723446894E+10	1.73096270914E-01	-4.89281609183E+01	5.65876183785E-05	6.13833228669E+01	4.26514677394E-05	1.53730812908E+02	1.64023402056E-01	-7.79204292227E+01
7.61783567134E+10	1.72829154174E-01	-4.96074239802E+01	6.29417628063E-05	-6.62789238863E+01	9.70956445547E-05	-7.44713865832E+01	1.62319127274E-01	-7.69478943016E+01
7.61843687375E+10	1.70868578036E-01	-4.99820739212E+01	1.30772903867E-04	-8.04989221574E+01	3.30239636027E-05	-5.62049239072E+01	1.62781666569E-01	-7.85338744616E+01
7.61903807615E+10	1.70952474646E-01	-4.96932587255E+01	1.11330185901E-04	-1.27929737851E+02	8.55224721106E-05	-9.09586428091E+01	1.63105995471E-01	-7.89623667353E+01
7.61963927856E+10	1.71134876571E-01	-4.88611961085E+01	3.13806841563E-05	-9.81230138301E+01	7.64524773785E-05	-1.71009214820E+02	1.61756393342E-01	-7.86607888662E+01
7.62024048096E+10	1.68094031205E-01	-5.04299081644E+01	5.55356588568E-05	-1.23308372485E+02	2.01828625131E-05	-1.41875333185E+02	1.61209317800E-01	-7.80425217550E+01
7.62084168337E+10	1.68719289924E-01	-5.03797425257E+01	6.10450555587E-05	1.77312939649E+02	3.82478310447E-05	-8.66669447514E+01	1.59844820106E-01	-7.84243491120E+01
7.62144288577E+10	1.69774916350E-01	-5.03560216295E+01	7.64311472319E-05	-1.53125215475E+02	6.49133431745E-05	-1.60660649475E+02	1.61347976506E-01	-7.93314516019E+01
7.62204408818E+10	1.70197882493E-01	-4.94674662910E+01	8.71236736933E-05	-1.39275922753E+02	7.82836352721E-05	1.65342062304E+02	1.61456106174E-01	-7.99975296525E+01
7.62264529058E+10	1.70381580768E-01	-5.13117387173E+01	1.11604436630E-04	1.73005763896E+02	1.06336860908E-04	-1.79457181816E+02	1.60134126483E-01	-8.01462358360E+01
7.62324649299E+10	1.69659040145E-01	-5.19033796328E+01	1.02259428185E-04	1.79489876747E+02	7.08326643560E-05	1.05374222455E+02	1.58846054509E-01	-7.92228900671E+01
7.62384769539E+10	1.68745576788E-01	-5.07499809922E+01	9.41204977189E-05	1.66932749471E+02	8.31103372723E-05	7.82187269689E+01	1.58146045782E-01	-8.01661849069E+01
7.62444889780E+10	1.68083076034E-01	-5.06422337933E+01	6.38835538515E-05	-1.63896197413E+02	6.86477693073E-05	6.39837742113E+01	1.57996013272E-01	-8.04884380923E+01
7.62505010020E+10	1.70363242654E-01	-5.04189645329E+01	1.25215005491E-04	1.65751560871E+02	6.68962057087E-05	1.30328828777E+02	1.58796421463E-01	-8.13547132705E+01
7.62565130261E+10	1.69583570637E-01	-5.08156085029E+01	4.71623444835E-05	1.35129853519E+02	5.99425700272E-05	1.09747369722E+02	1.56214675299E-01	-8.04145626431E+01
7.62625250501E+10	1.69838942562E-01	-5.39006486535E+01	3.35160716925E-05	1.07644097195E+02	6.74911847249E-05	4.14417635456E+01	1.59724814488E-01	-8.19502009314E+01
7.62685370741E+10	1.68969056680E-01	-5.25112092213E+01	6.44902642201E-05	1.20925029583E+02	5.30087897620E-05	6.68863515171E+01	1.57728735520E-01	-8.20613471970E+01
7.62745490982E+10	1.68107719495E-01	-5.28181037545E+01	4.53236311807E-05	9.45890070726E+01	1.05525559543E-05	5.75631078941E+01	1.59425434985E-01	-8.30506853768E+01
7.62805611222E+10	1.69513375914E-01	-5.20846440708E+01	3.37504525051E-05	1.43061018186E+02	2.22280711667E-05	-8.00791385529E+01	1.55301400403E-01	-8.19426826299E+01
7.62865731463E+10	1.68355510334E-01	-5.11596724586E+01	6.63196207323E-05	1.60522602691E+02	6.75150548083E-05	-1.61141207886E+02	1.56895440053E-01	-8.34168456579E+01
7.62925851703E+10	1.66718004277E-01	-5.22650982746E+01	6.35102818096E-05	1.34707411189E+02	8.84205822642E-05	-1.60367281904E+02	1.55985202768E-01	-8.32277586365E+01
7.62985971944E+10	1.68982940941E-01	-5.42563240309E+01	6.35534467450E-05	1.37644802840E+02	9.10931710426E-05	9.97419880269E+01	1.55348521058E-01	-8.32304775020E+01
7.63046092184E+10	1.67415713679E-01	-5.55783638608E+01	1.10549204541E-04	6.06006474613E+01	1.25524217296E-04	1.14535156132E+02	1.54804752830E-01	-8.33967789831E+01
7.63106212425E+10	1.67769984567E-01	-5.43360812534E+01	9.47012827228E-05	4.99727803805E+01	6.29539868844E-05	1.52400656218E+02	1.54928716673E-01	-8.39995818929E+01
7.63166332665E+10	1.65364811941E-01	-5.37383416984E+01	8.76877927023E-05	7.47851510890E+01	9.71938772967E-05	7.27126255944E+01	1.54780923079E-01	-8.48482079364E+01
7.63226452906E+10	1.69074910982E-01	-5.32746008001E+01	7.34008535223E-05	9.93974470007E+01	5.69729692278E-05	7.41371909355E+01	1.54298036440E-01	-8.51702770486E+01
7.63286573146E+10	1.65226270380E-01	-5.20336071569E+01	8.44339799318E-05	3.15901880652E+01	1.06025227833E-04	7.35056815313E+01	1.52868303573E-01	-8.47613840898E+01
7.63346693387E+10	1.65091641246E-01	-5.28811131561E+01	1.27376646433E-04	-2.10991986986E+01	2.22553896339E-05	3.43333313033E+01	1.54554819050E-01	-8.58631582833E+01
7.63406813627E+10	1.65937203604E-01	-5.39678161031E+01	4.87580818338E-05	4.08152522555E+01	1.02695088552E-04	3.71702497636E+01	1.50852837208E-01	-8.53341822489E+01
7.63466933868E+10	1.69134068010E-01	-5.45828026632E+01	8.65508328000E-05	1.69225878230E+01	4.61964926752E-05	2.10606767697E+01	1.52459060023E-01	-8.62995849209E+01
7.63527054108E+10	1.65247430088E-01	-5.25742599910E+01	5.74887961860E-05	-5.22598366321E+01	6.62763473177E-05	-7.27316229302E+00	1.52234958096E-01	-8.62031422715E+01
7.63587174349E+10	1.65203778813E-01	-5.42452580005E+01	3.00781794580E-05	-1.26964720865E+02	7.13813927679E-05	5.78412799917E+01	1.51669079650E-01	-8.59900400871E+01
7.63647294589E+10	1.66079449307E-01	-5.27505507336E+01	3.97110223681E-05	-6.90826217122E+01	8.95179083494E-05	1.04091212291E+01	1.51397295038E-01	-8.70694487355E+01
7.63707414830E+10	1.67323520554E-01	-5.59195472251E+01	2.58292553851E-05	-4.97237912728E+01	3.33022657222E-05	7.23471361515E+01	1.50233098790E-01	-8.78511164955E+01
7.63767535070E+10	1.67408586683E-01	-5.65319250432E+01	9.67273066592E-05	-2.88775104279E+01	7.71921768187E-05	-6.47024215481E+01	1.49695318290E-01	-8.69435692884E+01
7.63827655311E+10	1.66295265527E-01	-5.73287204153E+01	7.67425546935E-05	-2.04448326219E+01	5.44523515164E-05	-5.63832377610E+01	1.50549381660E-01	-8.83213759860E+01
7.63887775551E+10	1.64757251553E-01	-5.34090496398E+01	7.06855250933E-05	-4.14290727932E+01	8.51761001116E-06	6.68794211479E+01	1.50117300063E-01	-8.85285475115E+01
7.63947895792E+10	1.64229361773E-01	-5.36876811140E+01	6.80182911115E-05	1.45389061582E+02	1.71962371320E-05	7.00830104992E+01	1.49144844351E-01	-8.82154848646E+01
7.64008016032E+10	1.62396205103E-01	-5.55949965919E+01	3.84484813776E-05	-8.66302230872E+01	3.84090708076E-05	-1.72913706747E+01	1.48083858173E-01	-8.89481325512E+01
7.64068136273E+10	1.66655850892E-01	-5.55214796677E+01	2.24139263834E-05	-5.47347613962E+01	1.07932393820E-05	1.73319115537E+02	1.46376070101E-01	-8.88454491699E+01
7.64128256513E+10	1.66244676590E-01	-5.74688166311E+01	8.68458034674E-05	-2.66630097415E+01	4.36900835050E-05	-1.98651454860E+01	1.47998482003E-01	-9.08096509948E+01
7.64188376754E+10	1.64350448468E-01	-5.65064025540E+01	2.51036700751E-05	-1.12947600293E+02	5.97689996929E-05	-3.96564550559E+01	1.45723427338E-01	-8.87151739234E+01
7.64248496994E+10	1.63210317220E-01	-5.53419507887E+01	6.19457542091E-05	-2.83300598338E+01	1.15149479823E-04	1.80578435343E+00	1.45963104315E-01	-9.07024343480E+01
7.64308617234E+10	1.64908838773E-01	-5.56029591236E+01	5.37420863494E-05	1.18967847498E+02	4.37986622815E-05	-4.22200977024E+01	1.44490268065E-01	-8.97872436025E+01
7.64368737475E+10	1.64942123367E-01	-5.62783952121E+01	3.38912686663E-05	2.97899794341E+01	1.05629577325E-04	-7.85139796520E+01	1.47440630922E-01	-9.20625725383E+01
7.64428857715E+10	1.65288090684E-01	-5.64947049219E+01	4.18805676785E-05	-1.78800587763E+02	3.73826160200E-05	-1.20532495504E+02	1.45749540528E-01	-9.14100152426E+01
7.64488977956E+10	1.64919929623E-01	-5.86454105294E+01	1.88000669021E-05	8.17870598603E+01	1.77385055871E-05	1.27243822149E+02	1.43475859825E-01	-9.00162326858E+01
7.64549098196E+10	1.62910750438E-01	-5.82214019628E+01	4.52516098361E-05	1.70830445232E+02	8.03168164362E-05	-1.47060746389E+02	1.43865449425E-01	-9.11752405399E+01
7.64609218437E+10	1.62903210307E-01	-5.83634811151E+01	2.80419715331E-05	1.53239780428E+02	6.03298998411E-05	1.11780579009E+02	1.44189687260E-01	-9.27243225937E+01
7.64669338677E+10	1.63346001512E-01	-5.86939916025E+01	7.63020957585E-05	1.30979277209E+02	1.37157696477E-05	7.76276267419E+01	1.44586052871E-01	-9.44545019190E+01
7.64729458918E+10	1.63054164883E-01	-5.65584780702E+01	6.81957260199E-05	2.77900199105E+01	4.89326809602E-05	-1.02864301346E+01	1.43468110738E-01	-9.33520764215E+01
7.64789579158E+10	1.65087605264E-01	-5.83906372928E+01	3.83115695496E-05	-1.11426914104E+01	8.34924904155E-05	3.76136749307E+01	1.41876192282E-01	-9.28050586429E+01
7.64849699399E+10	1.62627305928E-01	-5.45488595001E+01	1.52054282987E-05	2.77055211011E+01	6.10930834837E-05	4.30863748080E+01	1.41554218927E-01	-9.30435516807E+01
7.64909819639E+10	1.61446490870E-01	-5.62334488294E+01	1.65834427651E-04	5.06436708642E-01	5.19044774051E-05	1.73893555958E+02	1.42270501979E-01	-9.50629096451E+01
7.64969939880E+10	1.62467113291E-01	-5.82398969585E+01	1.01190335518E-04	-3.04174679530E+01	1.14930245226E-04	-3.87374351864E+01	1.40976625678E-01	-9.55144657994E+01
7.65030060120E+10	1.62667261595E-01	-5.96518241644E+01	8.33583242657E-05	-3.18347229488E+01	6.08053707368E-05	-6.17651183603E+01	1.39000897295E-01	-9.42411058420E+01
7.65090180361E+10	1.63029079252E-01	-5.76286142571E+01	5.42773053573E-05	-7.93805995320E+01	8.25861777706E-05	-5.93407427088E+01	1.38141357948E-01	-9.43561949388E+01
7.65150300601E+10	1.63240313278E-01	-5.86016232587E+01	9.05166755412E-05	-6.65659246397E+01	4.12032229992E-05	4.45554428551E+01	1.39095417304E-01	-9.63240360696E+01
7.65210420842E+10	1.61839769009E-01	-5.96615138183E+01	1.27107803206E-05	2.23699002737E+01	4.14913238779E-05	1.43731779684E+02	1.39067924709E-01	-9.64860903379E+01
7.65270541082E+10	1.60772391341E-01	-5.84268881911E+01	2.70948091997E-05	-5.34826037717E+01	6.10650973779E-05	-1.07510969867E+02	1.37466426516E-01	-9.58004248116E+01
7.65330661323E+10	1.62749852008E-01	-5.87921143034E+01	7.71782701400E-05	-2.24197635653E+01	3.60393345653E-05	-1.21869255943E+02	1.37665075633E-01	-9.72178418028E+01
7.65390781563E+10	1.62488854340E-01	-5.92675790213E+01	8.62448926306E-05	-1.06693877210E+01	1.40419728391E-05	1.25240226933E+02	1.36262788048E-01	-9.77968526218E+01
7.65450901804E+10	1.64638838123E-01	-5.96794288716E+01	5.18049108432E-05	-7.69954340738E+01	6.88261388818E-05	-5.34738316053E+01	1.35577004554E-01	-9.79333694679E+01
7.65511022044E+10	1.61475364692E-01	-5.84339793531E+01	1.09547934629E-04	-1.10863175509E+02	3.23773692076E-05	-1.02219700360E+02	1.33969333696E-01	-9.71246592161E+01
7.65571142285E+10	1.62004428040E-01	-6.00305217280E+01	7.65643563342E-05	-7.97830708163E+01	4.61583656399E-05	-8.72334009918E+01	1.34210627233E-01	-9.75547707381E+01
7.65631262525E+10	1.63231114122E-01	-6.13851259521E+01	7.86391210372E-05	-1.26611282459E+02	3.21848402072E-05	-2.61936422645E+01	1.34895693684E-01	-9.91680270435E+01
7.65691382766E+10	1.61442610983E-01	-6.05608717512E+01	1.24811706602E-04	-1.34046335670E+02	9.36537662897E-05	-1.23884621925E+02	1.32923076516E-01	-9.97229527833E+01
7.65751503006E+10	1.61089311180E-01	-6.01880206258E+01	1.53981250402E-04	-1.29691327386E+02	7.67303861117E-05	-5.57578037097E+01	1.31686604751E-01	-9.82621867354E+01
7.65811623246E+10	1.61241548993E-01	-6.08612417953E+01	2.46285036982E-05	-1.76712844624E+02	2.93553613266E-05	-1.66977896199E+01	1.31561728656E-01	-9.94093100296E+01
7.65871743487E+10	1.60983502491E-01	-6.14342124081E+01	9.27170480096E-05	-1.14923150484E+02	5.16140751766E-05	-1.67021723699E+02	1.31363359569E-01	-1.00250674028E+02
7.65931863727E+10	1.61522788423E-01	-6.14006833230E+01	8.07156238981E-05	-1.19645295806E+02	1.01346134392E-04	-1.23148647602E+02	1.30651039864E-01	-1.00773682211E+02
7.65991983968E+10	1.61691912654E-01	-6.10401764783E+01	1.09234964337E-04	1.68116780560E+02	6.32271904088E-05	-1.59325407947E+02	1.29876962535E-01	-1.00797199739E+02
7.66052104208E+10	1.60752065924E-01	-6.11748329277E+01	8.49361541555E-05	-1.36625315346E+02	1.09204451302E-04	-1.35883083131E+02	1.28669610989E-01	-1.01225736867E+02
7.66112224449E+10	1.59068575031E-01	-6.13182036309E+01	1.91331357164E-05	-9.99034863762E+01	8.09120613628E-05	-8.66860674432E+01	1.29196550702E-01	-1.02384251959E+02
7.66172344689E+10	1.60849303548E-01	-6.19811424730E+01	8.95986855349E-05	-1.17151606743E+02	1.19829792596E-04	-1.65776755771E+02	1.28464982836E-01	-1.02244966103E+02
7.66232464930E+10	1.60907530935E-01	-6.16050053874E+01	1.73199271013E-04	-1.48489421774E+02	1.03298428304E-04	-1.07627069487E+02	1.27241466939E-01	-1.01775656422E+02
7.66292585170E+10	1.59949167595E-01	-6.06090505861E+01	1.30245949710E-04	1.62943927961E+02	1.35972627503E-04	-1.49279640510E+02	1.26345239657E-01	-1.02656574004E+02
7.66352705411E+10	1.60319117218E-01	-6.17664618604E+01	1.33095974733E-04	1.68372385005E+02	8.30227419936E-05	-1.45478513741E+02	1.25294163410E-01	-1.02909802470E+02
7.66412825651E+10	1.61833456404E-01	-6.38114562693E+01	2.27872871967E-04	1.56621314918E+02	1.44410391286E-04	1.75675269320E+02	1.24366690703E-01	-1.02960646596E+02
7.66472945892E+10	1.60419035640E-01	-6.32528710178E+01	5.79596992062E-05	1.14208500900E+02	7.26022494957E-05	1.69424499199E+02	1.23790303343E-01	-1.02410205387E+02
7.66533066132E+10	1.59325013817E-01	-6.16958150309E+01	1.31173996943E-04	1.65233871100E+02	3.72188908015E-05	1.46283496744E+02	1.24116859658E-01	-1.03602671826E+02
7.66593186373E+10	1.58294314624E-01	-6.32636868465E+01	2.45840860190E-05	1.61564444896E+02	7.68975136359E-05	1.52672263195E+02	1.23184014768E-01	-1.04776750474E+02
7.66653306613E+10	1.60122273098E-01	-6.36580754564E+01	8.96446225455E-05	1.22809071911E+02	7.53752413810E-05	1.01207703598E+02	1.22806837584E-01	-1.04612726567E+02
7.66713426854E+10	1.59742674423E-01	-6.30510650161E+01	4.83190984428E-05	1.09475656524E+02	1.06639474331E-04	1.24539856932E+02	1.20958390790E-01	-1.03600818271E+02
7.66773547094E+10	1.59657681504E-01	-6.28967476111E+01	5.40587577911E-05	5.00610173088E+01	9.29718584998E-05	1.32610009473E+02	1.20301008359E-01	-1.05426399621E+02
7.66833667335E+10	1.59785922490E-01	-6.40295809839E+01	9.07612400369E-05	7.86874424769E+01	6.42774623123E-05	9.63060121027E+01	1.21492148067E-01	-1.05873575318E+02
7.66893787575E+10	1.57080744412E-01	-6.34240983779E+01	1.05634163114E-04	2.99994931133E+01	8.41629874239E-05	4.54772216742E+01	1.20269098719E-01	-1.06199461657E+02
7.66953907816E+10	1.60080243081E-01	-6.49039548924E+01	9.96599815736E-05	2.98457217624E+01	9.68395124333E-05	1.34162131836E+02	1.19910441090E-01	-1.06401646701E+02
7.67014028056E+10	1.59087127944E-01	-6.31999149548E+01	4.38896723434E-05	1.06978041701E+02	1.46188327617E-05	-8.47087575357E+01	1.18956748754E-01	-1.06481141040E+02
7.67074148297E+10	1.57883804875E-01	-6.32898850354E+01	6.03909863938E-05	7.16676576739E+01	4.66766113272E-05	1.19099229389E+02	1.18310337600E-01	-1.06628397875E+02
7.67134268537E+10	1.57363404620E-01	-6.40005046106E+01	8.07976716677E-05	3.21853308417E+01	5.34127613517E-05	3.50739047505E+01	1.16783244577E-01	-1.07273807681E+02
7.67194388778E+10	1.59137787033E-01	-6.48514448744E+01	4.47648691251E-05	1.00496913030E+01	1.02291226904E-04	5.39388082686E+01	1.16264232313E-01	-1.07856132265E+02
7.67254509018E+10	1.60255537162E-01	-6.60304128662E+01	5.64925632013E-05	1.29941025014E+01	9.76359576127E-05	5.10024446338E+01	1.16158869206E-01	-1.07273515412E+02
7.67314629259E+10	1.57461365489E-01	-6.51251679036E+01	9.32134845578E-05	3.11296989544E+00	8.11337767324E-05	6.53165284861E+01	1.15951847969E-01	-1.07379409885E+02
7.67374749499E+10	1.59896722744E-01	-6.56367867066E+01	6.07041138132E-05	-1.57858410376E+01	9.08263034413E-05	-2.63266701441E+01	1.14000295546E-01	-1.08180717470E+02
7.67434869739E+10	1.58640301336E-01	-6.43761207717E+01	8.46696236215E-05	-4.41464255274E+01	2.99475756071E-05	-4.55609829950E+01	1.13486850175E-01	-1.09093532167E+02
7.67494989980E+10	1.57060062617E-01	-6.44385913353E+01	1.03301246428E-04	-7.42569107889E+01	4.32461724947E-05	5.71801778799E+01	1.13657824439E-01	-1.10664559029E+02
7.67555110220E+10	1.55730148429E-01	-6.58804110319E+01	8.57681947086E-05	-1.09367983983E+02	3.82490159094E-05	1.21052955827E+02	1.13377189240E-01	-1.10299981773E+02
7.67615230461E+10	1.57241456574E-01	-6.63591238231E+01	2.58447095520E-05	-5.88059206470E-01	1.78232032624E-05	1.10651535861E+02	1.12170594399E-01	-1.10716530993E+02
7.67675350701E+10	1.54599422046E-01	-6.41976548081E+01	3.40013168309E-05	3.21921297378E+01	4.85879798323E-05	4.42761049383E+01	1.10606097304E-01	-1.10114755267E+02
7.67735470942E+10	1.55837903569E-01	-6.45369356449E+01	7.23310059326E-05	-1.10257148772E+02	6.92607128529E-05	2.26752686300E+01	1.09968926381E-01	-1.09570722722E+02
7.67795591182E+10	1.59091043701E-01	-6.66714714287E+01	8.52922087843E-05	-9.45028282756E+01	2.43724299825E-05	-1.28650464508E+02	1.09878803436E-01	-1.10438158395E+02
7.67855711423E+10	1.57632369511E-01	-6.55489591237E+01	7.38604519706E-05	-8.06558498841E+01	5.39128289274E-05	-1.44106645415E+01	1.09133263772E-01	-1.11857078487E+02
7.67915831663E+10	1.55739676495E-01	-6.67339810694E+01	2.77202594504E-05	1.66208748543E+02	9.65937569031E-05	1.42989975665E+01	1.09706094402E-01	-1.13004270792E+02
7.67975951904E+10	1.57028477189E-01	-6.62483262566E+01	9.14104045345E-06	-9.96733172676E+01	3.32692556379E-05	2.03039804567E+01	1.08288297640E-01	-1.11991645813E+02
7.68036072144E+10	1.56022651763E-01	-6.79750447347E+01	2.84402851036E-05	-1.10986459424E+02	8.19127256556E-05	-2.29518558334E+01	1.07403593502E-01	-1.12310685785E+02
7.68096192385E+10	1.56391187343E-01	-6.66339391266E+01	6.44847590830E-05	-1.08902954179E+02	3.93280872159E-05	3.10802536218E+01	1.06533297219E-01	-1.12660263835E+02
7.68156312625E+10	1.56581677160E-01	-6.70429996558E+01	2.59636766548E-05	1.18541307224E+02	6.83857017565E-05	5.25954079239E+01	1.05539067910E-01	-1.13468332806E+02
7.68216432866E+10	1.54713241747E-01	-6.64045820509E+01	4.41347964459E-05	-1.63110761196E+02	6.00152997057E-05	-2.40746731779E+01	1.04423442751E-01	-1.14123864792E+02
7.68276553106E+10	1.54312771510E-01	-6.67635359314E+01	7.04163071578E-05	1.39174748880E+02	8.79900431978E-05	-2.93686948754E+01	1.04176557255E-01	-1.13670114847E+02
7.68336673347E+10	1.56246593092E-01	-6.76815493387E+01	4.13931945512E-05	-1.68403906542E+02	6.68125795661E-05	-4.20178400649E+01	1.03752895202E-01	-1.12705601174E+02
7.68396793587E+10	1.57465972343E-01	-6.76366759702E+01	4.12680232210E-05	7.41921939373E+01	1.71208937935E-05	-4.90238111034E+01	1.02979525415E-01	-1.15358355475E+02
7.68456913828E+10	1.56526777287E-01	-6.72870413799E+01	2.37628607580E-05	9.15680201857E+01	4.42014304579E-05	3.09659433251E+01	1.02608009563E-01	-1.16512381892E+02
7.68517034068E+10	1.56850148528E-01	-6.78707320606E+01	9.58338145134E-05	1.00101905925E+02	2.59155438667E-05	-6.21343492493E+01	1.00962010814E-01	-1.15785993842E+02
7.68577154309E+10	1.54897823920E-01	-6.92323155203E+01	9.58414745437E-05	4.12570841736E+01	2.14311566465E-05	-8.52524320351E+00	1.01066721721E-01	-1.15833065379E+02
7.68637274549E+10	1.59219561320E-01	-7.04130952925E+01	4.21521374767E-05	6.58830337887E+01	8.31133389118E-05	-8.20917785669E+01	1.00564984896E-01	-1.15793467123E+02
7.68697394790E+10	1.56543082734E-01	-6.93249903394E+01	7.50813203187E-05	2.32281182914E+01	5.19631745409E-05	-9.95819583298E+01	1.00213285260E-01	-1.15952606549E+02
7.68757515030E+10	1.54264260350E-01	-6.70939062110E+01	3.02684621432E-05	-6.90997867277E+01	2.79810578760E-05	-1.57279192908E+02	9.84329415817E-02	-1.16146064093E+02
7.68817635271E+10	1.59081287041E-01	-7.00225447017E+01	2.86473080855E-05	-6.15081182846E+01	5.03150408549E-05	-1.70640421428E+02	9.70539647392E-02	-1.17403397878E+02
7.68877755511E+10	1.53754088583E-01	-6.76724959956E+01	1.47480770660E-05	-1.00394455601E+02	4.23472724373E-05	7.81870510372E+01	9.67398006401E-02	-1.18243348075E+02
7.68937875752E+10	1.59254769994E-01	-7.09905759907E+01	7.84398873067E-05	1.13362225052E+02	2.42188880882E-05	1.34060098776E+01	9.59310856355E-02	-1.16352197889E+02
7.68997995992E+10	1.55552552450E-01	-7.03327427346E+01	8.72592380521E-05	7.49083453122E+01	6.70018317031E-05	-3.35326392288E-01	9.57250127422E-02	-1.18772685854E+02
7.69058116232E+10	1.56197450731E-01	-7.04912073221E+01	8.66902637479E-05	-1.27976440989E+01	5.74236778595E-05	1.19566696529E+02	9.48193203499E-02	-1.19571527697E+02
7.69118236473E+10	1.53557853015E-01	-6.99207710348E+01	7.13146612416E-05	1.64114166098E+01	9.10626569885E-05	-2.34574592158E+01	9.39662938490E-02	-1.19668035560E+02
7.69178356713E+10	1.56144353632E-01	-7.05910288674E+01	1.44969047611E-04	1.61817286620E-01	4.11625680239E-05	-4.66452644518E+01	9.29437381063E-02	-1.19728229978E+02
7.69238476954E+10	1.54319728148E-01	-6.95328065552E+01	1.10188899873E-04	-3.99781425915E+01	9.34149198515E-05	-1.03923062501E+02	9.27804115092E-02	-1.19037429372E+02
7.69298597194E+10	1.59926948885E-01	-7.28938723419E+01	6.69509007188E-05	-5.42971567275E+01	4.41368737016E-05	-9.64709594755E+01	9.19557606149E-02	-1.19583334992E+02
7.69358717435E+10	1.53017147021E-01	-7.03083982085E+01	4.47368698112E-05	-4.37067066270E+01	6.02163373674E-05	-1.54034500235E+02	9.18634102229E-02	-1.21631168549E+02
7.69418837675E+10	1.53565242210E-01	-7.08038047471E+01	3.04146181957E-05	7.48439880455E+01	4.38226859529E-05	-1.70764278940E+02	9.03983239086E-02	-1.21579894966E+02
7.69478957916E+10	1.56829955082E-01	-7.18184472186E+01	8.34976186584E-05	-1.46014817211E+01	5.37878400626E-05	1.69926986657E+02	8.91554687357E-02	-1.20584621279E+02
7.69539078156E+10	1.55388320954E-01	-7.16696222006E+01	6.49430653767E-05	-9.28928367471E+01	1.37919788189E-05	-9.10588214938E+01	8.90895585115E-02	-1.19834408376E+02
7.69599198397E+10	1.54357492573E-01	-7.21679884172E+01	7.24702054963E-05	-1.11020383886E+02	2.37653874612E-05	-2.51174087302E+01	8.84407457987E-02	-1.19579742449E+02
7.69659318637E+10	1.56115666946E-01	-7.29433127655E+01	6.66354309285E-05	1.38887101286E+01	1.91088538571E-05	-7.55421364518E+01	8.75657543771E-02	-1.24020455177E+02
7.69719438878E+10	1.52426087908E-01	-7.16506454810E+01	8.31891943032E-05	-7.67389264298E+01	1.77935767259E-05	-1.07775873640E+02	8.60904964076E-02	-1.20933376902E+02
7.69779559118E+10	1.54101492171E-01	-7.28894528842E+01	5.25176021849E-05	-1.02244415700E+02	7.48258378372E-05	-1.39658841789E+01	8.53658917533E-02	-1.23825755617E+02
7.69839679359E+10	1.51599593590E-01	-7.11519293528E+01	1.84888941698E-05	-1.48485623787E+01	2.20640397470E-05	1.46181643268E+02	8.40085566646E-02	-1.22100110468E+02
7.69899799599E+10	1.53854411890E-01	-7.30146548408E+01	4.79912727138E-05	-8.87907408628E+01	3.11361379113E-05	-8.04706965988E+01	8.34810143093E-02	-1.22890024997E+02
7.69959919840E+10	1.53255810933E-01	-7.34653427948E+01	8.45529129190E-05	-1.23192228119E+02	3.99368401575E-05	-3.95775578782E+01	8.31321271352E-02	-1.23143518345E+02
7.70020040080E+10	1.51664489095E-01	-7.21145463497E+01	6.67491974569E-05	-1.58274481839E+02	4.76015653102E-05	-1.40965244524E+02	8.32871675407E-02	-1.24994563247E+02
7.70080160321E+10	1.55334393818E-01	-7.50433531668E+01	3.26358720596E-05	-1.11247759370E+02	2.90458129851E-05	1.58678800782E+02	8.23430739248E-02	-1.25316587626E+02
7.70140280561E+10	1.53923904172E-01	-7.27974068462E+01	3.61917771282E-05	-1.77226566247E+02	3.41053963153E-05	-9.16260520686E+01	8.07447079825E-02	-1.22843899260E+02
7.70200400802E+10	1.53044549452E-01	-7.33277853415E+01	6.22211182008E-05	-1.01845545594E+02	3.68039872303E-05	-1.22135271262E+02	8.05325421435E-02	-1.24465455473E+02
7.70260521042E+10	1.51227678488E-01	-7.37580225456E+01	5.78597589285E-05	-1.01705972498E+02	5.44474392386E-05	-1.77243705534E+02	7.93275935364E-02	-1.25312087728E+02
7.70320641283E+10	1.53083227338E-01	-7.52045320635E+01	6.83816799123E-05	1.55736433896E+02	1.18308509627E-04	1.62569863328E+02	7.81956752297E-02	-1.24651469873E+02
7.70380761523E+10	1.52911512369E-01	-7.39195979584E+01	4.11857219012E-05	8.37182784451E+01	6.41164429730E-05	1.77520730259E+02	7.91436384843E-02	-1.27851638060E+02
7.70440881764E+10	1.51247083096E-01	-7.45857231646E+01	6.89244532103E-05	1.25803821204E+02	4.28259558182E-05	-3.43908957009E+01	7.77169926836E-02	-1.27461521660E+02
7.70501002004E+10	1.51910605057E-01	-7.40562818358E+01	6.08866880653E-05	8.90035095829E+01	4.50391461740E-05	-1.05447038917E+02	7.65648710612E-02	-1.27580342647E+02
7.70561122244E+10	1.53891577876E-01	-7.51538191753E+01	5.56611157717E-05	-1.24437813185E+02	6.38414870922E-05	-1.59449178987E+02	7.54419027972E-02	-1.27436464130E+02
7.70621242485E+10	1.54322005209E-01	-7.63055993123E+01	1.47800353691E-05	-2.10320655791E-01	1.17095545588E-04	-1.30156117595E+02	7.43263457096E-02	-1.26342777663E+02
7.70681362725E+10	1.53187650749E-01	-7.69979067273E+01	8.14724806691E-05	-1.33287667297E+02	4.07878414687E-05	1.68575886369E+02	7.49719277853E-02	-1.29072660375E+02
7.70741482966E+10	1.50382102395E-01	-7.41128611140E+01	7.19522633876E-05	-9.70268318307E+01	1.34298310443E-05	-1.76029856169E+02	7.43936602937E-02	-1.28638133821E+02
7.70801603206E+10	1.50243945889E-01	-7.38261719206E+01	1.22236232458E-04	-1.45761233392E+02	3.73020175033E-06	-6.22516251925E+01	7.31037803140E-02	-1.28652493051E+02
7.70861723447E+10	1.50726624307E-01	-7.64643859130E+01	7.92440949114E-05	-1.36342709881E+02	1.00555961597E-04	-1.52009565822E+02	7.23226936330E-02	-1.28508233601E+02
7.70921843687E+10	1.50699654469E-01	-7.66367866627E+01	3.54729867242E-05	-1.74436087290E+02	4.53343861754E-06	-1.59904938830E+02	7.12937771243E-02	-1.28967525235E+02
7.70981963928E+10	1.52115660276E-01	-7.56981934967E+01	5.81101894339E-05	-1.26278843304E+02	8.77416749205E-05	-9.69057555831E+01	7.07005295736E-02	-1.29664231697E+02
7.71042084168E+10	1.52461954468E-01	-7.59300332639E+01	8.70416706519E-05	1.66062357477E+02	6.81400772653E-05	1.75292440093E+02	6.98574430440E-02	-1.29727022506E+02
7.71102204409E+10	1.53010874019E-01	-7.64251882938E+01	9.36171978228E-05	-1.44093311778E+02	7.33525975534E-05	1.64908822916E+02	6.91826344520E-02	-1.30122451914E+02
7.71162324649E+10	1.51357082938E-01	-7.70955924061E+01	9.20565156178E-05	1.43582142942E+02	6.39115488609E-05	-1.59016993032E+02	6.88763501984E-02	-1.32964246990E+02
7.71222444890E+10	1.49150161924E-01	-7.75948943247E+01	9.49885745157E-05	1.47221796905E+02	1.10373305380E-04	1.69990409329E+02	6.82504226139E-02	-1.33351942336E+02
7.71282565130E+10	1.50348271394E-01	-7.70993280236E+01	7.72149559232E-05	1.70603429716E+02	7.05800223845E-05	1.26646748075E+02	6.63994387423E-02	-1.31052640850E+02
7.71342685371E+10	1.50123916711E-01	-7.66253177164E+01	6.13227592163E-05	1.46297990354E+02	9.95142992980E-05	-1.55296254714E+02	6.53693913906E-02	-1.31573891661E+02
7.71402805611E+10	1.54178032928E-01	-7.82433434494E+01	9.50984019536E-05	1.76282951592E+02	7.32104334122E-05	1.66217094875E+02	6.52155812834E-02	-1.32076247354E+02
7.71462925852E+10	1.48282956873E-01	-7.74086432194E+01	8.81746872829E-05	1.51304110606E+02	4.12841275534E-05	8.44990381241E+01	6.52469090050E-02	-1.35014844201E+02
7.71523046092E+10	1.48579596232E-01	-7.66881768044E+01	1.05817455760E-04	1.51378959402E+02	5.58614553913E-05	1.77385879048E+02	6.33450180699E-02	-1.32866245432E+02
7.71583166333E+10	1.52606204258E-01	-7.87939403334E+01	1.71173859799E-04	1.08395530436E+02	8.54704000140E-05	1.20560107539E+02	6.28805601175E-02	-1.33116573277E+02
7.71643286573E+10	1.50441447335E-01	-7.86215727776E+01	5.09979009503E-05	1.20983199990E+02	5.52653798752E-05	1.14667604684E+02	6.22090736773E-02	-1.33057628456E+02
7.71703406814E+10	1.48638055525E-01	-7.86928656147E+01	8.37896618900E-05	1.29895604815E+02	5.81606648044E-05	7.22934649305E+01	6.08261849336E-02	-1.33986285471E+02
7.71763527054E+10	1.47535231629E-01	-7.80600130711E+01	6.44795519701E-05	6.35165697273E+01	1.11533753753E-04	9.47686582576E+01	6.11618741693E-02	-1.35387685801E+02
7.71823647295E+10	1.47924786529E-01	-7.77387178318E+01	9.81261480291E-05	1.00246984098E+02	9.68805001036E-05	6.41800033374E+01	5.89222476012E-02	-1.32120226698E+02
7.71883767535E+10	1.47787278266E-01	-7.81471949991E+01	7.74656752968E-05	1.12912936937E+02	1.18062965428E-04	1.49372208911E+02	5.90415586560E-02	-1.36082555670E+02
7.71943887776E+10	1.47767760807E-01	-7.98188613468E+01	7.03556582732E-05	4.41470126645E+01	1.09617019808E-04	7.90424824791E+01	5.83309447902E-02	-1.36731821356E+02
7.72004008016E+10	1.46973791443E-01	-8.00773772128E+01	6.69124676251E-05	1.04625789912E+02	7.21556465146E-05	5.84336071716E+01	5.75949998483E-02	-1.36554220593E+02
7.72064128257E+10	1.46986394589E-01	-7.80157655139E+01	1.33526033619E-04	6.09075232756E+01	2.41927022790E-05	6.27410220829E+01	5.60080396979E-02	-1.34695416869E+02
7.72124248497E+10	1.47546171130E-01	-7.96536780924E+01	1.04013176025E-04	7.94899890958E+01	4.11467862146E-05	5.05231871852E+01	5.53183293702E-02	-1.37174739509E+02
7.72184368737E+10	1.49254191463E-01	-8.19033598343E+01	1.29087849479E-04	3.43137826328E+01	8.99746170288E-05	3.82603918787E+01	5.44221447347E-02	-1.37121182242E+02
7.72244488978E+10	1.49345454720E-01	-8.11860592404E+01	5.27853307373E-05	2.29051137120E+01	6.32159203606E-05	3.50454950324E+01	5.40927317871E-02	-1.36832697957E+02
7.72304609218E+10	1.48289761154E-01	-8.08251965162E+01	5.30084239052E-05	2.66225857996E+01	5.03941754824E-05	7.38194041838E+01	5.33662867790E-02	-1.38545636145E+02
7.72364729459E+10	1.48257363526E-01	-8.10067279413E+01	4.21978749613E-05	9.22167061978E+00	3.32922742355E-05	-1.34016381432E+02	5.15874273973E-02	-1.35573018445E+02
7.72424849699E+10	1.48565117411E-01	-8.13036143729E+01	1.38290365944E-05	1.73568906325E+02	9.50421131150E-05	1.55009900780E+02	5.19850832730E-02	-1.38539338801E+02
7.72484969940E+10	1.47546696961E-01	-8.10441867712E+01	2.65973184934E-05	-1.32540687184E+02	9.64197205342E-05	7.38459964004E+01	5.09837670593E-02	-1.38918114449E+02
7.72545090180E+10	1.46799124456E-01	-8.06871858635E+01	3.49007396681E-05	9.68298094604E+00	8.12237995627E-05	1.07914870067E+02	4.99378215758E-02	-1.38653424022E+02
7.72605210421E+10	1.45423281995E-01	-8.11375764202E+01	9.91913885389E-05	7.04217875021E+01	3.57274398080E-05	8.48830293075E+01	4.93513863352E-02	-1.40680884755E+02
7.72665330661E+10	1.48177753629E-01	-8.25629130369E+01	6.24214640286E-05	3.99477160368E+01	1.66465056122E-04	4.40133170472E+01	4.90104552724E-02	-1.41406517459E+02
7.72725450902E+10	1.47124842302E-01	-8.28582314674E+01	5.34912939265E-05	3.95830688266E+00	1.34405876919E-04	5.00036446570E+01	4.80564682102E-02	-1.40707204335E+02
7.72785571142E+10	1.47837810310E-01	-8.25398625237E+01	8.36947597177E-05	-1.50169428862E+01	1.59687707637E-04	1.86357866029E+01	4.72531406462E-02	-1.41406153235E+02
7.72845691383E+10	1.45837558165E-01	-8.33059738266E+01	4.64586767853E-05	-5.19800873269E+00	6.01640712020E-05	2.04032583587E+01	4.56895834542E-02	-1.40161460495E+02
7.72905811623E+10	1.44152275837E-01	-8.14442080900E+01	6.75424217744E-05	-3.94542213883E+01	1.10537585023E-04	2.50652467809E+01	4.61656907876E-02	-1.43855191169E+02
7.72965931864E+10	1.43706266129E-01	-8.09433057855E+01	9.73437966971E-05	-9.11373547686E+01	9.80254410391E-05	3.48176440352E+01	4.48411306791E-02	-1.43609668017E+02
7.73026052104E+10	1.44335188996E-01	-8.16395049604E+01	3.64554657816E-05	-6.71332524901E+01	7.33623214157E-05	-2.34319263086E+01	4.37686381678E-02	-1.42584849407E+02
7.73086172345E+10	1.44830524526E-01	-8.22136335731E+01	1.45089971518E-05	-6.09783726949E+01	6.91776084279E-05	2.53397837417E+01	4.20664741035E-02	-1.41369441834E+02
7.73146292585E+10	1.45390815130E-01	-8.28757803092E+01	1.69381199193E-05	1.66529802619E+02	7.58429162151E-05	-1.60876897890E+01	4.17478558109E-02	-1.43170698169E+02
7.73206412826E+10	1.45990565620E-01	-8.16167097353E+01	3.08201994651E-05	-1.40831177730E+02	5.29552966124E-05	4.22369169797E+01	4.08390454113E-02	-1.43377302428E+02
7.73266533066E+10	1.43476256272E-01	-8.30240811538E+01	7.68689050120E-05	-5.00326920811E+01	1.19568414623E-04	-3.82354623935E+01	4.06565142938E-02	-1.45134636382E+02
7.73326653307E+10	1.45321811638E-01	-8.35933304966E+01	2.91453872234E-05	1.55906050422E+01	8.88103953333E-05	-8.44622378544E-02	3.92017479067E-02	-1.43471294993E+02
7.73386773547E+10	1.45562846525E-01	-8.34954415041E+01	9.61559755281E-05	1.23185381864E+00	1.57333116964E-04	-2.16607761155E+01	3.77885350991E-02	-1.43127635238E+02
7.73446893788E+10	1.44187286791E-01	-8.48616023265E+01	1.08007032157E-04	-4.24847294303E+01	1.82664684582E-04	-4.10000750423E+01	3.78725329720E-02	-1.45503664457E+02
7.73507014028E+10	1.45572800428E-01	-8.58192580831E+01	7.53801837004E-05	-3.71200227098E+01	1.79105803211E-04	-7.71510105755E+01	3.68040862554E-02	-1.43747301223E+02
7.73567134269E+10	1.41966148126E-01	-8.48100338558E+01	5.15709642447E-05	-1.00341727045E+02	1.29267599410E-04	-8.22336396516E+01	3.64325220538E-02	-1.46425551542E+02
7.73627254509E+10	1.41716614038E-01	-8.34784239750E+01	2.95783421786E-05	-1.64543074678E+02	8.65901871831E-05	-1.16373002368E+02	3.46090584420E-02	-1.43876666968E+02
7.73687374749E+10	1.44884426602E-01	-8.37859467547E+01	1.75586718287E-05	-1.05246146802E+02	3.09081824798E-05	-2.23323026333E+01	3.48174799771E-02	-1.48210348257E+02
7.73747494990E+10	1.44119429883E-01	-8.53025048698E+01	2.37358945362E-05	-3.62150417495E+01	1.15529951181E-04	-9.17310661592E+01	3.45954427573E-02	-1.49924448935E+02
7.73807615230E+10	1.41273764056E-01	-8.46768078490E+01	8.70409545116E-05	-1.54378983583E+01	8.51870266464E-05	-9.90978073267E+01	3.32304835009E-02	-1.48137075840E+02
7.73867735471E+10	1.41994916024E-01	-8.40996723772E+01	7.52325363289E-05	-5.96786753322E+01	9.07323735383E-05	-9.18812849968E+01	3.18513475236E-02	-1.47501424937E+02
7.73927855711E+10	1.42481474513E-01	-8.30602065653E+01	8.71400272796E-05	-5.19890128788E+01	8.33425389843E-05	-8.23733879897E+01	3.07910647614E-02	-1.48787144124E+02
7.73987975952E+10	1.41918882693E-01	-8.58887093764E+01	1.04039185753E-04	-5.16305401102E+01	8.60780179353E-05	-1.41824081485E+02	3.00763230888E-02	-1.50141083822E+02
7.74048096192E+10	1.41667541686E-01	-8.33262634040E+01	5.18091809128E-05	-3.73381543887E+01	6.61281586599E-05	-9.39930594129E+01	3.02985091313E-02	-1.51732243318E+02
7.74108216433E+10	1.41697687603E-01	-8.46769823831E+01	3.12179181090E-05	-9.10401645394E+01	6.94467343234E-05	-1.13770256479E+02	2.83293616561E-02	-1.49080004944E+02
7.74168336673E+10	1.41123004618E-01	-8.53126261475E+01	1.07563064909E-04	-9.51767660248E+01	9.54647841579E-05	-1.19310405449E+02	2.69255286035E-02	-1.48470914032E+02
7.74228456914E+10	1.41312518474E-01	-8.68187880697E+01	1.25970758628E-04	-1.35697132971E+02	6.23813861219E-05	-1.06790465635E+02	2.67120484058E-02	-1.48692967176E+02
7.74288577154E+10	1.42303176566E-01	-8.76991791185E+01	9.51100827072E-05	1.78418766006E+02	6.50612502627E-05	-1.39761440358E+02	2.67596229332E-02	-1.52773124480E+02
7.74348697395E+10	1.40639981743E-01	-8.59702032732E+01	1.08330088363E-04	-1.24613131178E+02	7.29835568426E-05	-1.63618386649E+02	2.49951508885E-02	-1.50502592692E+02
7.74408817635E+10	1.40661951162E-01	-8.57401672747E+01	4.17702093005E-05	-8.08837233533E+01	7.74165205709E-05	-1.34592102940E+02	2.39866304648E-02	-1.51045124490E+02
7.74468937876E+10	1.39939882862E-01	-8.59185521959E+01	7.86719875064E-05	-1.10310422254E+02	5.68455579285E-05	-1.16324103215E+02	2.34612783175E-02	-1.52221068600E+02
7.74529058116E+10	1.39621493989E-01	-8.58839261228E+01	6.02913761013E-05	-1.03115705766E+02	8.44405421601E-05	-1.54121970033E+02	2.31979691689E-02	-1.53589278862E+02
7.74589178357E+10	1.38607545051E-01	-8.64720159694E+01	1.79576767507E-04	-1.38810387089E+02	5.21773672340E-05	-8.15842889356E+01	2.17029819762E-02	-1.52376396795E+02
7.74649298597E+10	1.38851337067E-01	-8.77743332356E+01	1.14949367026E-04	-1.64792616934E+02	3.17604566170E-05	1.63510925562E+02	2.05264356868E-02	-1.52784307372E+02
7.74709418838E+10	1.41377693017E-01	-8.74894011817E+01	5.88411675221E-05	1.51642852892E+02	5.54251953770E-05	-1.50336160053E+02	2.07550842532E-02	-1.55480895397E+02
7.74769539078E+10	1.43333273505E-01	-8.82106377486E+01	7.65471433291E-05	1.42066462871E+02	7.49342651261E-05	-1.55425828530E+02	1.95750322297E-02	-1.55421780113E+02
7.74829659319E+10	1.39102617996E-01	-8.57829351804E+01	4.28437411738E-05	-9.56586252482E+01	3.48679733444E-05	1.64936053743E+02	1.77362686053E-02	-1.52864987085E+02
7.74889779559E+10	1.39143927321E-01	-8.74439858189E+01	5.29439614378E-05	-1.43441062675E+02	2.95682342865E-05	-5.15049525940E+01	1.79551199196E-02	-1.56047104326E+02
7.74949899800E+10	1.38283955524E-01	-8.65031359502E+01	8.66649683453E-05	-1.70169255816E+02	7.27853350807E-05	-1.51852056244E+02	1.69406202883E-02	-1.56837279571E+02
7.75010020040E+10	1.36931863706E-01	-8.71530383372E+01	1.04996875540E-04	1.70098942726E+02	1.18637521460E-04	-1.75654094180E+02	1.58513014195E-02	-1.55212891685E+02
7.75070140281E+10	1.40585503943E-01	-8.81922645847E+01	1.14838865442E-04	1.64097325194E+02	8.50423891910E-05	1.72965580520E+02	1.49730274957E-02	-1.55704343064E+02
7.75130260521E+10	1.40320831113E-01	-8.91486936510E+01	1.28103718040E-04	1.48284944712E+02	9.95978269210E-05	1.53503425043E+02	1.46743976561E-02	-1.58779162408E+02
7.75190380762E+10	1.38317357370E-01	-8.82573863322E+01	7.79690937876E-05	1.42344518322E+02	4.08978375925E-05	1.12324138921E+02	1.29206195745E-02	-1.56381752878E+02
7.75250501002E+10	1.40203603283E-01	-8.70377004318E+01	7.60484582305E-05	-1.73320299058E+02	4.38522134614E-05	2.42208752931E+01	1.28427888184E-02	-1.58777677033E+02
7.75310621242E+10	1.37557808354E-01	-8.91883886352E+01	1.17132907155E-04	1.12115085423E+02	2.19324729113E-05	1.07262467735E+02	1.20597004640E-02	-1.59557921442E+02
7.75370741483E+10	1.37173848044E-01	-8.91325741091E+01	5.62820897071E-05	1.18789435679E+02	3.15393978718E-05	-1.33229766523E+02	1.14152866277E-02	-1.59662827718E+02
7.75430861723E+10	1.38909940491E-01	-8.86331350277E+01	8.00257900670E-05	9.62201262308E+01	3.44178755185E-05	-1.60340178636E+02	1.01160625153E-02	-1.59382205885E+02
7.75490981964E+10	1.39362875435E-01	-8.81073394382E+01	7.05593638948E-05	9.74870537553E+01	2.90591589289E-05	1.57684061440E+02	9.08725153684E-03	-1.61043693837E+02
7.75551102204E+10	1.38267848349E-01	-8.84062582771E+01	8.78624758334E-05	5.83276145674E+01	5.23196370978E-05	-1.26448703782E+02	8.72848217368E-03	-1.62336845070E+02
7.75611222445E+10	1.37604318817E-01	-8.83656223628E+01	9.97668536478E-05	1.03894653919E+02	1.10545515130E-04	1.60295592544E+02	8.27981444556E-03	-1.63304133370E+02
7.75671342685E+10	1.38171752016E-01	-9.08709706364E+01	6.06581829208E-05	6.91883972433E+01	8.47390912338E-05	1.53610158427E+02	7.08224214843E-03	-1.63226463318E+02
7.75731462926E+10	1.35324494924E-01	-8.94012927159E+01	8.09749080759E-05	8.25624019045E+01	3.85928778238E-05	1.56523614492E+02	5.69033081225E-03	-1.61695939839E+02
7.75791583166E+10	1.35523063761E-01	-8.89869371773E+01	8.00790330908E-05	1.38663516152E+02	1.11100021845E-04	1.53863450647E+02	5.46830572419E-03	-1.62254026902E+02
7.75851703407E+10	1.36012618320E-01	-8.96187419746E+01	8.92977599364E-05	5.44644007482E+01	1.67655135837E-05	1.48196646855E+02	4.10051454208E-03	-1.65421757799E+02
7.75911823647E+10	1.37298253617E-01	-9.05168549439E+01	1.04063807919E-04	1.14733987113E+02	7.75923165534E-05	1.18364081075E+02	3.54802383904E-03	-1.66416388516E+02
7.75971943888E+10	1.34620945348E-01	-8.87391015211E+01	1.35812944697E-04	7.25059603884E+01	7.16033544486E-05	1.38217372500E+02	2.91217347887E-03	-1.71430790255E+02
7.76032064128E+10	1.34156815527E-01	-8.84638794680E+01	1.01946641927E-04	5.46463676072E+01	2.99630585222E-05	1.11465036512E+02	2.73739225913E-03	-1.74120152855E+02
7.76092184369E+10	1.35909958723E-01	-9.09107765879E+01	1.56591476895E-04	5.08824849897E+01	2.97679099229E-05	1.67338789818E+02	2.05568865510E-03	-1.78127243420E+02
7.76152304609E+10	1.38138749876E-01	-9.17019450285E+01	9.60141521607E-05	3.83519996629E+01	7.51799875887E-05	5.34691421100E+01	8.79738922256E-04	9.90889614298E+01
7.76212424850E+10	1.34977085195E-01	-9.06491882895E+01	9.71133791942E-05	-3.87279338778E+00	7.24430840508E-05	7.88405764023E+01	6.98394354699E-04	7.49987529066E+01
7.76272545090E+10	1.35312079404E-01	-9.15194174283E+01	1.39117077860E-04	-2.10477198600E+00	4.45298659633E-05	1.72882284661E+02	1.51663851160E-03	4.08279950742E+01
7.76332665331E+10	1.36791865883E-01	-9.20086285507E+01	4.10714985540E-05	3.89209511133E-01	7.21217312084E-05	9.59861310802E+01	2.05505416183E-03	3.07973126359E+01
7.76392785571E+10	1.34616520201E-01	-8.97610095459E+01	6.79192482598E-05	-1.87846971354E+01	1.32317488303E-04	1.74480312210E+02	2.46001857490E-03	2.58257079671E+01
7.76452905812E+10	1.35155429965E-01	-9.17918377026E+01	5.69267986418E-05	2.93087041545E+01	3.50086757939E-05	6.09644394138E+01	4.04138214343E-03	2.97565697682E+01
7.76513026052E+10	1.35059865272E-01	-9.33716913855E+01	9.13234849516E-05	3.01030064590E+01	8.76289901809E-05	9.68673049991E+01	4.81287210983E-03	2.79311526039E+01
7.76573146293E+10	1.36137278667E-01	-9.04145212876E+01	7.87051962096E-05	2.03237592388E+01	4.72093898730E-05	5.39166806883E+01	5.40661633016E-03	2.60706023849E+01
7.76633266533E+10	1.35198459698E-01	-9.24702896861E+01	8.18707175806E-05	3.08296443104E+01	4.45242014657E-05	1.59470292234E+01	5.94858692939E-03	2.06368876628E+01
7.76693386774E+10	1.35311491040E-01	-9.30699112701E+01	1.25640988048E-04	8.59252311377E+00	3.48888131873E-05	-1.28167419791E+01	7.02864087638E-03	2.20854067270E+01
7.76753507014E+10	1.33629692869E-01	-9.24706705933E+01	1.78321527057E-04	-1.89481185033E+01	4.65741298836E-05	2.55444673758E+01	7.61698288424E-03	2.09503209355E+01
7.76813627255E+10	1.32910614286E-01	-9.02794154039E+01	1.60174590232E-04	-5.12529736594E+01	2.32041407325E-05	-1.01592022487E+01	8.54393978817E-03	2.17544042503E+01
7.76873747495E+10	1.36929211149E-01	-9.27664982972E+01	1.29958307633E-04	-7.83274726195E+01	3.89991676082E-05	-7.87983728134E+01	9.34953528530E-03	1.91289617326E+01
7.76933867735E+10	1.34029834623E-01	-9.35080987809E+01	1.11269565518E-04	-1.01159076857E+02	4.65160012098E-05	1.01701144316E+02	9.91654650333E-03	1.66183866647E+01
7.76993987976E+10	1.35537998310E-01	-9.43019850919E+01	6.10739628224E-05	-9.72085735829E+01	7.89482758560E-05	5.82645687482E+01	1.06735160962E-02	1.67784866670E+01
7.77054108216E+10	1.32857735069E-01	-9.10010193476E+01	3.53531408240E-05	-1.29959371574E+02	2.96835383219E-05	8.60548971909E+01	1.16666988974E-02	1.83315909006E+01
7.77114228457E+10	1.35420491902E-01	-9.46419295370E+01	6.36537605162E-05	-1.15410932070E+02	3.90268506236E-05	8.22039340651E+01	1.22821817293E-02	1.56350511085E+01
7.77174348697E+10	1.32921566372E-01	-9.39699027201E+01	6.22575549028E-05	-6.63792460981E+01	6.90075407703E-05	1.31586669675E+01	1.32532112535E-02	1.56828230459E+01
7.77234468938E+10	1.30738336964E-01	-9.19234228302E+01	3.83644601570E-05	1.20360670929E+02	4.78090289795E-05	4.36437105777E+01	1.39901566961E-02	1.44788289369E+01
7.77294589178E+10	1.34961273750E-01	-9.54038308591E+01	1.98525254549E-05	8.04254246440E+01	6.16014697806E-05	1.31153366187E+01	1.50680707564E-02	1.66331371060E+01
7.77354709419E+10	1.31057772842E-01	-9.27887754522E+01	2.89115504562E-05	-2.82612178306E+01	3.88029362172E-05	-7.17579303411E+00	1.56367877818E-02	1.21439327832E+01
7.77414829659E+10	1.31435231820E-01	-9.28045675472E+01	4.87228519909E-05	-1.74274570790E+02	6.34878048505E-05	9.91883947623E+00	1.63506896813E-02	1.41105948400E+01
7.77474949900E+10	1.32661744304E-01	-9.48660337711E+01	6.10890496659E-05	-1.47484788344E+02	5.64845591478E-05	7.68245246471E+01	1.70740776464E-02	1.33546054394E+01
7.77535070140E+10	1.32872431141E-01	-9.50683482361E+01	2.24257276630E-05	-1.04295751607E+02	2.58623434754E-05	4.25093519522E+01	1.79402560677E-02	1.05879987018E+01
7.77595190381E+10	1.32932392771E-01	-9.58775949279E+01	3.36524829346E-05	-7.14610802859E+01	3.51729814372E-05	1.06224074932E+02	1.87681441577E-02	1.09624226403E+01
7.77655310621E+10	1.29852049733E-01	-9.31866980281E+01	1.25102977555E-05	-6.51662474887E+01	3.45964819462E-05	-1.09199698114E+02	1.95708211853E-02	1.18167099409E+01
7.77715430862E+10	1.30912630198E-01	-9.29700148069E+01	5.39734742050E-05	1.07284008972E+02	7.39029791815E-05	-2.32507187545E+01	2.04359851849E-02	1.30059873931E+01
7.77775551102E+10	1.33625880000E-01	-9.56448672123E+01	2.64027403762E-05	-8.39045718305E+01	4.71304781862E-05	-2.35091070182E+01	2.12899979948E-02	1.07316776057E+01
7.77835671343E+10	1.33724026117E-01	-9.69485035739E+01	3.27305229103E-05	1.15426482299E+02	3.26631133740E-05	-8.53985086958E+01	2.23059146943E-02	8.89987866169E+00
7.77895791583E+10	1.32135747441E-01	-9.58459532431E+01	2.46289084277E-05	-8.11952163641E+01	4.14516466597E-05	-3.11346714228E+01	2.29330114889E-02	1.05961973939E+01
7.77955911824E+10	1.33465756676E-01	-9.64757844636E+01	3.75616461890E-05	1.00908023669E+02	4.62305121939E-05	1.17302690871E+02	2.33478310120E-02	1.01200862466E+01
7.78016032064E+10	1.30250584904E-01	-9.42966092609E+01	3.05487275117E-05	2.91685010249E+01	1.29214830511E-04	-9.06365639976E+00	2.41158918257E-02	8.67210598695E+00
7.78076152305E+10	1.30185244398E-01	-9.48913629054E+01	6.07245739909E-05	8.17679208190E+01	1.10821350262E-04	-5.99293816623E+01	2.52236979902E-02	7.87024616821E+00
7.78136272545E+10	1.33387828747E-01	-9.72916121205E+01	2.20604926880E-05	9.00039628708E-01	1.16675943485E-04	-8.49260922166E+01	2.64385147547E-02	6.02264254162E+00
7.78196392786E+10	1.32272166228E-01	-9.65035050432E+01	2.45287500207E-05	2.70750807171E+01	6.76857325826E-05	-8.05912014221E+01	2.67898970487E-02	7.40435973684E+00
7.78256513026E+10	1.30873243216E-01	-9.44420166144E+01	2.28046651335E-05	-5.08343491434E+01	9.72570266985E-05	-8.40485265172E+01	2.70988063277E-02	9.27288023233E+00
7.78316633267E+10	1.29919290363E-01	-9.68491632760E+01	5.50487535255E-05	1.35230548323E+01	4.32543306829E-05	-1.16599453912E+02	2.83197700734E-02	5.15575407814E+00
7.78376753507E+10	1.30567091144E-01	-9.61634479863E+01	6.73115081001E-05	-4.05907748661E+00	1.68443380419E-05	-7.78270832337E+01	2.91475085190E-02	5.20299912895E+00
7.78436873747E+10	1.30817938337E-01	-9.57821299438E+01	7.62627055510E-05	-5.23138620825E+01	7.55418373424E-05	-9.58093087711E+01	2.95416080185E-02	6.77149641913E+00
7.78496993988E+10	1.31303193761E-01	-9.59279932259E+01	4.24914703440E-05	-1.29798420522E+02	9.55916758007E-05	-1.43378964993E+02	3.02591875602E-02	6.45490739348E+00
7.78557114228E+10	1.29153630416E-01	-9.69794433164E+01	5.83959676706E-05	-1.50776286203E+02	2.62208065035E-05	-1.20883446801E+02	3.12568025995E-02	3.94264726665E+00
7.78617234469E+10	1.30122880410E-01	-9.75205701488E+01	4.33025055433E-05	-1.77635498389E+02	6.41916791085E-05	1.48295514151E+02	3.22768489400E-02	2.99126338648E+00
7.78677354709E+10	1.31065426445E-01	-9.72554428511E+01	4.34163833471E-05	2.08668750537E+01	5.23827125823E-05	6.78696776537E+01	3.28570297726E-02	2.72790334678E+00
7.78737474950E+10	1.28932053347E-01	-9.46501689012E+01	5.15543255947E-05	-2.88928973749E+01	2.88393879806E-05	1.75964637667E+02	3.35609454775E-02	3.19567702923E+00
7.78797595190E+10	1.29691573805E-01	-9.65896764570E+01	8.61687954106E-05	-3.40805884074E+01	3.23041109189E-06	4.50845616374E+01	3.40633464542E-02	4.77497067369E+00
7.78857715431E+10	1.27904230883E-01	-9.69757853302E+01	5.16216728214E-05	-9.35449828102E+01	4.87405022989E-05	-1.31461857683E+01	3.49423854973E-02	4.24555255778E+00
7.78917835671E+10	1.30134045895E-01	-9.76035547425E+01	8.99269899999E-05	-9.92097851667E+01	4.61930825518E-05	1.68351434976E+02	3.55201323905E-02	4.28326558233E+00
7.78977955912E+10	1.30186667418E-01	-9.82257671875E+01	1.13365704470E-04	-1.05850547264E+02	2.66018040224E-05	-1.46338976620E+02	3.67478887107E-02	2.89518740235E+00
7.79038076152E+10	1.30227791124E-01	-9.96168345814E+01	7.75471134072E-05	-1.52539706752E+02	7.22935011560E-05	-1.58220767277E+02	3.74160609760E-02	1.29734368991E+00
7.79098196393E+10	1.29528741845E-01	-9.77082257639E+01	1.10850514063E-04	-1.21816591856E+02	1.78631994344E-05	-1.59659398966E+02	3.76073991838E-02	6.67242822847E-01
7.79158316633E+10	1.27956239684E-01	-9.65963124404E+01	5.49621980814E-05	1.66802095971E+02	3.99760873374E-05	-1.52686415199E+02	3.81306857772E-02	2.75048981638E+00
7.79218436874E+10	1.28999649633E-01	-9.83281085757E+01	1.02681549387E-04	-1.71184494075E+02	1.33767341758E-05	1.31180098315E+02	3.91121819569E-02	3.08457596612E+00
7.79278557114E+10	1.30301753633E-01	-1.00037615859E+02	1.07719041383E-04	-1.77855955143E+02	2.89623111806E-05	6.26742206358E+01	4.02054795916E-02	2.69888235147E+00
7.79338677355E+10	1.32499797694E-01	-1.00505004443E+02	8.00901607670E-05	1.66007662172E+02	5.94514700288E-05	9.77127941227E+01	4.08719010653E-02	5.36834946567E-01
7.79398797595E+10	1.28688047008E-01	-9.81277671491E+01	9.75986118487E-05	1.29288904655E+02	2.48745597307E-05	-8.74604625462E+01	4.17840288465E-02	3.44751889303E-02
7.79458917836E+10	1.27916279238E-01	-9.72500708276E+01	9.72006724155E-05	1.18702460437E+02	3.45637395978E-05	2.97291515877E+01	4.26886990468E-02	4.97689546249E-01
7.79519038076E+10	1.27458968805E-01	-9.87509548961E+01	1.56409044721E-05	1.67237646931E+02	5.10081285891E-05	-2.19689868025E+00	4.27698869537E-02	8.32685104214E-01
7.79579158317E+10	1.29192486914E-01	-9.88971709477E+01	5.28877001072E-05	-1.62826925527E+02	7.48155839001E-05	-8.26369794125E+01	4.46014616248E-02	-1.38042798547E+00
7.79639278557E+10	1.30903401416E-01	-1.00250190735E+02	1.02753815878E-04	1.70511323726E+02	6.32262652764E-05	-4.83147669496E+01	4.40779581037E-02	9.04126018663E-01
7.79699398798E+10	1.29490213438E-01	-1.01249112786E+02	2.31820211804E-05	1.52427479415E+02	4.58704590667E-05	-1.25179616947E+02	4.58122554935E-02	-2.01408688168E+00
7.79759519038E+10	1.28194699186E-01	-1.00078259046E+02	7.71339416062E-05	1.45147062467E+02	7.92651050929E-05	-1.21477924427E+02	4.66564959682E-02	-2.39651920826E+00
7.79819639279E+10	1.29395742471E-01	-1.00017455638E+02	1.47485336172E-04	1.55820838770E+02	2.07294199902E-05	-1.60769165304E+02	4.68355066238E-02	-3.38294805771E-01
7.79879759519E+10	1.26960579452E-01	-9.87562157724E+01	1.03944649767E-04	1.01017825334E+02	1.21600865965E-05	-5.89516341029E+01	4.83799433958E-02	-2.91910693102E+00
7.79939879760E+10	1.29689362903E-01	-1.00980060928E+02	8.79470022876E-05	3.96135922049E+01	1.29942498363E-05	-1.23060826238E+02	4.85598469808E-02	-3.40264107614E+00
7.80000000000E+10	1.29284869914E-01	-1.02273594547E+02	1.11648288105E-04	7.75053636024E+01	3.06485403144E-05	-9.96286088722E+01	4.83090590658E-02	-2.24967097115E+00
