# Hz S MA R 50
! CMT, C4420, 21421029, 25.1.2/3
! Date: 8/7/2025 1:34:06 PM
! Data: Format (Calibration Info)
! Freq	S33:Mag/Ang(F2)	S43:Mag/Ang(F2)	S34:Mag/Ang(F2)	S44:Mag/Ang(F2)
7.50000000000E+10	1.97930321606E-01	-1.26580222787E+01	3.03243781420E-05	1.72857318668E+02	2.73558251268E-05	-6.01852922923E+01	2.71600340638E-01	-2.85827174655E+01
7.50060120240E+10	1.99729026335E-01	-1.43020037069E+01	2.81367536593E-05	3.03373586315E+01	1.77723331559E-05	-2.28917591068E+01	2.71528697280E-01	-2.92467045327E+01
7.50120240481E+10	2.02474250227E-01	-1.54040066136E+01	7.42448863205E-06	-4.42002075129E+01	4.10793288584E-05	-4.25138889114E+01	2.73134102793E-01	-3.02380559155E+01
7.50180360721E+10	2.01239198157E-01	-1.62190011820E+01	5.68885240900E-05	-1.01562947153E+01	6.23177883963E-05	-1.24076004745E+02	2.68960070556E-01	-2.91623475024E+01
7.50240480962E+10	2.00852016912E-01	-1.62246270758E+01	1.45274041817E-05	-2.78090178530E+01	9.60542195531E-05	-2.46369161051E+01	2.68731739352E-01	-2.99036955436E+01
7.50300601202E+10	1.99491157350E-01	-1.47134945972E+01	6.81994639564E-05	7.05523673224E+01	3.46496191003E-05	9.63548305587E+01	2.68678296906E-01	-2.98538856444E+01
7.50360721443E+10	1.99988471338E-01	-1.41329235795E+01	1.07863636919E-04	-1.31478840218E+01	3.69500457299E-05	1.66759780711E+02	2.68496800863E-01	-3.02014432266E+01
7.50420841683E+10	1.99680278353E-01	-1.43820271313E+01	6.11334805219E-05	-8.80312675495E+01	1.11288734825E-04	-8.00691176245E+01	2.69041571282E-01	-3.08586853779E+01
7.50480961924E+10	1.99095633524E-01	-1.66852588442E+01	5.67488891134E-05	-8.72233826495E+00	6.91301695277E-05	-1.54833598457E+02	2.59979116952E-01	-2.91665521328E+01
7.50541082164E+10	1.97138247856E-01	-1.64496801194E+01	2.36543483531E-05	-7.61061529186E+00	5.73385435114E-05	-2.49975132353E+01	2.67250073728E-01	-3.14416972314E+01
7.50601202405E+10	2.00501355343E-01	-1.59706302609E+01	7.59165047794E-05	-6.80431668341E+01	6.51694583307E-05	-8.41435450729E+01	2.68252066518E-01	-3.14454081147E+01
7.50661322645E+10	2.02203676881E-01	-1.70119644765E+01	4.63959784038E-05	-7.93471541205E+01	1.15760304399E-04	-1.61708840080E+02	2.67050755198E-01	-3.19071722350E+01
7.50721442886E+10	1.99039254178E-01	-1.70291771500E+01	9.01342086328E-05	-1.29674682365E+02	1.04906570378E-04	-7.92463514972E+01	2.64205114550E-01	-3.11063255950E+01
7.50781563126E+10	1.99982761463E-01	-1.81159265832E+01	5.34178191388E-05	1.62735493965E+02	1.99427263304E-05	-1.28798246670E+02	2.64580689402E-01	-3.14979284870E+01
7.50841683367E+10	1.95388126367E-01	-1.61568233688E+01	3.50642051222E-05	1.65227267596E+02	2.67729113112E-05	-1.36250778055E+02	2.64400009471E-01	-3.07356960700E+01
7.50901803607E+10	1.97703008640E-01	-1.59985055122E+01	2.66255954317E-05	7.99758710934E+00	8.02559393169E-05	-9.83373516219E+01	2.70108970254E-01	-3.26972268938E+01
7.50961923848E+10	2.00361574779E-01	-1.76309653457E+01	4.89640539148E-05	-8.89834288085E+01	3.75870967040E-05	-1.09235333792E+02	2.67879417332E-01	-3.41520827430E+01
7.51022044088E+10	1.96512760567E-01	-1.63836116809E+01	3.98024886249E-05	-1.70448842819E+02	1.04014532488E-04	-1.28345235895E+02	2.62179033912E-01	-3.14701376579E+01
7.51082164329E+10	1.94246244498E-01	-1.62235580052E+01	8.41476088183E-05	-1.45091571822E+02	5.33454715436E-05	1.14112921456E+02	2.64645369594E-01	-3.28345332800E+01
7.51142284569E+10	1.93970580944E-01	-1.59862949070E+01	1.58245334278E-05	1.42259436159E+02	9.88098112101E-05	1.08021999039E+02	2.67610793069E-01	-3.47938232170E+01
7.51202404810E+10	1.98360296959E-01	-1.94208597945E+01	3.49960455405E-05	-1.01448736852E+02	2.78543559979E-05	9.21911607278E+00	2.67726001184E-01	-3.48545470104E+01
7.51262525050E+10	1.96580712706E-01	-1.93954805330E+01	4.19503722092E-05	9.17401871498E+01	2.09281904687E-05	4.10394291824E+01	2.63001708914E-01	-3.46824238966E+01
7.51322645291E+10	1.96665906423E-01	-1.86779076135E+01	2.74936262029E-05	1.12563298539E+01	3.05914584375E-05	-1.67701262387E+02	2.62135456106E-01	-3.31594714710E+01
7.51382765531E+10	1.95118736175E-01	-1.75082044440E+01	2.64036479383E-05	-1.22849176258E+02	6.28964357090E-05	-3.50459767395E+01	2.62464592801E-01	-3.46935369364E+01
7.51442885772E+10	1.94046909703E-01	-1.73993368344E+01	1.22450942485E-05	-9.42646482845E+01	6.11566736762E-05	-6.00355655505E+00	2.64136486725E-01	-3.42459100518E+01
7.51503006012E+10	1.93372873116E-01	-1.74394899770E+01	2.84197918256E-05	1.07288996302E+02	6.98816493567E-05	-8.70251652922E+01	2.60556169610E-01	-3.46715714524E+01
7.51563126253E+10	1.92118490137E-01	-1.83483036332E+01	5.12156407015E-05	1.25766508423E+02	3.55119042523E-05	6.74940319924E+01	2.62207118246E-01	-3.50261155725E+01
7.51623246493E+10	1.97730252242E-01	-2.11915046777E+01	4.73625587621E-05	-1.39311580284E+02	4.32897041430E-05	1.69922540260E+02	2.60085924797E-01	-3.42827065625E+01
7.51683366733E+10	1.93549709299E-01	-2.00753794294E+01	3.47141849381E-05	6.64456201867E+01	5.47912865940E-05	9.37792531993E+01	2.65086657134E-01	-3.55842534562E+01
7.51743486974E+10	1.97897423159E-01	-2.07806185562E+01	6.24583222666E-05	-1.68149507008E+01	2.01062485613E-05	1.20397095185E+01	2.65411375357E-01	-3.69115340799E+01
7.51803607214E+10	1.94766714199E-01	-1.96037552260E+01	6.83641943285E-05	9.04687677887E+01	6.30539969237E-05	-1.30213222027E+01	2.63721187740E-01	-3.74183103976E+01
7.51863727455E+10	1.95905707741E-01	-2.03006135225E+01	4.70736194549E-05	4.78589362244E+01	7.16049821480E-05	2.97128259806E+01	2.62848879285E-01	-3.68367785043E+01
7.51923847695E+10	1.92240234285E-01	-2.02088087606E+01	1.17712414604E-04	-2.41090501641E+01	6.55290770370E-05	-1.71476711324E+01	2.64634876267E-01	-3.69719217452E+01
7.51983967936E+10	1.92168584763E-01	-1.87823629928E+01	3.03636459139E-05	1.49604925999E+02	8.57981458018E-05	-8.45271991055E+00	2.61258580748E-01	-3.62244110946E+01
7.52044088176E+10	1.95975636732E-01	-2.01243412604E+01	2.44431134860E-05	6.24729653588E+00	5.66138565246E-05	-1.36384578559E+02	2.63432569104E-01	-3.77176335111E+01
7.52104208417E+10	1.93530354455E-01	-2.02201914074E+01	5.78915416795E-05	1.12468028986E+02	3.20167537504E-05	-1.13850055215E+02	2.62348345087E-01	-3.82989983036E+01
7.52164328657E+10	1.94843508388E-01	-2.11670652321E+01	8.16221195891E-05	1.12907539648E+02	7.34674066111E-05	1.40436601516E+02	2.61348387301E-01	-3.79031844529E+01
7.52224448898E+10	1.91000492210E-01	-1.89942936397E+01	4.75862909966E-05	1.11371573405E+02	4.16853115604E-05	1.50480122384E+02	2.58909215501E-01	-3.74044464297E+01
7.52284569138E+10	1.95250378807E-01	-1.95310226797E+01	4.41573561235E-05	5.77436518016E+01	5.87483230916E-05	-4.12763279885E+01	2.59694201646E-01	-3.85701610221E+01
7.52344689379E+10	1.93374903752E-01	-2.17114408854E+01	3.37140537489E-05	-7.03707891924E+00	6.27185888644E-05	1.54672602017E+02	2.63364377652E-01	-3.98923266438E+01
7.52404809619E+10	1.97036008850E-01	-2.24917810853E+01	7.88899636193E-05	-1.21817609907E+02	9.08443610500E-05	-3.45798666863E+01	2.61124945433E-01	-3.88010137714E+01
7.52464929860E+10	1.94796192093E-01	-2.22838116193E+01	5.08863206527E-05	4.67211527220E+01	6.50079167985E-05	-1.57265116063E+02	2.57965763483E-01	-3.81109924751E+01
7.52525050100E+10	1.89121239187E-01	-1.99379410851E+01	1.52175729044E-05	-2.88428376882E+01	8.87718656405E-05	-9.84685203380E+01	2.61066415490E-01	-4.04105274625E+01
7.52585170341E+10	1.89389379730E-01	-1.97580706742E+01	1.55045157137E-05	1.50357510602E+01	3.55312115538E-05	1.72683856230E+02	2.62832083586E-01	-4.07349594079E+01
7.52645290581E+10	1.94251395291E-01	-2.28289519227E+01	1.70239732311E-05	5.90632026612E+01	6.65537448174E-05	-1.03584863725E+02	2.63860633840E-01	-4.10258895517E+01
7.52705410822E+10	1.90732105389E-01	-2.11706313528E+01	3.62754818909E-05	-9.89912204476E+01	3.18134056601E-05	-1.58552344088E+02	2.60466472081E-01	-4.10871092853E+01
7.52765531062E+10	1.91316962949E-01	-2.26949195918E+01	8.08682595791E-05	1.61010773794E+02	7.15817969620E-05	-1.77527762335E+02	2.58540642962E-01	-4.11524729661E+01
7.52825651303E+10	1.89448929592E-01	-2.25686574226E+01	1.86597673690E-05	5.12254155580E+01	3.79909819366E-05	1.51691367180E+02	2.56511576361E-01	-4.06645341837E+01
7.52885771543E+10	1.92007712125E-01	-2.31428303910E+01	2.43595615234E-05	-4.57060715160E+01	2.28154201351E-05	1.22586944984E+02	2.59403693098E-01	-4.13074957110E+01
7.52945891784E+10	1.91665817069E-01	-2.10239626054E+01	4.93114138844E-05	-1.47488136738E+02	2.84379514126E-05	-8.87029914767E+01	2.59949911437E-01	-4.14541616081E+01
7.53006012024E+10	1.93086955191E-01	-2.34953386456E+01	2.27552123283E-05	-7.07939923254E+01	6.56901278063E-05	-1.36048115824E+02	2.58555323357E-01	-4.17169059163E+01
7.53066132265E+10	1.90496296936E-01	-2.34954010260E+01	4.87110129211E-05	-1.47535913104E+02	4.76222859595E-05	-5.21663842757E+01	2.54969481488E-01	-4.09688280899E+01
7.53126252505E+10	1.88568856201E-01	-2.23401707018E+01	2.99327356633E-05	-1.55002142881E+02	5.56992121735E-05	-1.48103306660E+02	2.53058858963E-01	-4.15519535537E+01
7.53186372745E+10	1.91880517848E-01	-2.31487667532E+01	7.99694513045E-05	1.68269320713E+02	5.41751269394E-05	-1.28621158392E+02	2.58844755041E-01	-4.34918206336E+01
7.53246492986E+10	1.92587515621E-01	-2.44326913703E+01	4.50151041872E-05	1.43467017153E+02	7.13580210765E-05	-1.70762347025E+02	2.60352701592E-01	-4.32638570073E+01
7.53306613226E+10	1.91097421112E-01	-2.37210954574E+01	4.03043283835E-05	1.05566839770E+02	3.00248999980E-05	1.27766033092E+02	2.59898022069E-01	-4.32007866259E+01
7.53366733467E+10	1.86664620964E-01	-2.18611759817E+01	6.36629798617E-05	6.20846089382E+01	5.97396223385E-05	2.01396673078E+01	2.57425483735E-01	-4.45895093980E+01
7.53426853707E+10	1.88679620427E-01	-2.29886695071E+01	2.88740131606E-05	-5.08930268052E+01	1.38010520998E-05	-5.31639301460E+01	2.57453143732E-01	-4.40956884776E+01
7.53486973948E+10	1.92135358453E-01	-2.36735407099E+01	5.33895022590E-05	-6.33896097156E+01	9.28969098873E-05	-1.15172245096E+02	2.54301576644E-01	-4.32374366082E+01
7.53547094188E+10	1.90997714098E-01	-2.45671811091E+01	4.28039173118E-05	-1.41303171479E+02	3.28085373915E-05	1.72176437305E+02	2.55495025630E-01	-4.39873143016E+01
7.53607214429E+10	1.90587055304E-01	-2.49937341062E+01	4.47986083655E-05	-1.25797433196E+02	8.76667191798E-05	-1.65059653642E+02	2.58604591900E-01	-4.57417145188E+01
7.53667334669E+10	1.91311456476E-01	-2.58934200315E+01	7.75763193760E-05	1.02136999113E+02	4.91521535913E-05	1.21411233575E+02	2.55519804157E-01	-4.55093912073E+01
7.53727454910E+10	1.89486968670E-01	-2.38294818086E+01	8.50393645558E-05	9.61963597155E+01	6.75979663096E-05	-1.74625385065E+02	2.53699164973E-01	-4.45525691096E+01
7.53787575150E+10	1.90114263950E-01	-2.65333064722E+01	1.89372063731E-05	3.18158555435E+01	4.19007428356E-05	1.40410645818E+02	2.52691412359E-01	-4.46776941686E+01
7.53847695391E+10	1.87692270056E-01	-2.36097288734E+01	5.39881567704E-05	8.17520915558E+01	4.59614040782E-05	8.09215434241E+01	2.52872058547E-01	-4.49004837572E+01
7.53907815631E+10	1.87704045840E-01	-2.41287943989E+01	3.98320789785E-05	8.92936220324E+01	1.43897645802E-05	4.42976309027E+01	2.54265534221E-01	-4.64554850506E+01
7.53967935872E+10	1.88532886938E-01	-2.42923698175E+01	3.78819646810E-05	-3.66456154085E+01	3.86183144427E-05	-9.00226053905E+01	2.56875730246E-01	-4.64839234368E+01
7.54028056112E+10	1.90386246651E-01	-2.66351106814E+01	1.14240053079E-05	-1.03599002611E+02	3.86243894974E-05	-6.42607801273E+01	2.55692488435E-01	-4.64676422423E+01
7.54088176353E+10	1.87409320179E-01	-2.53552710953E+01	7.92584939071E-05	1.65719379191E+02	4.37736595235E-05	-6.24871461654E+01	2.54214377389E-01	-4.70217049905E+01
7.54148296593E+10	1.88103443123E-01	-2.46406659272E+01	8.61666501150E-05	-5.34031647164E+01	5.93540000073E-05	6.37756762682E+01	2.47939459098E-01	-4.61530839153E+01
7.54208416834E+10	1.92397196395E-01	-2.62335872436E+01	3.59223285859E-05	1.43403718639E+02	4.82537376307E-05	-1.35356040097E+02	2.52766465911E-01	-4.69295360224E+01
7.54268537074E+10	1.91756948593E-01	-2.75435292739E+01	3.06668870289E-05	6.15362534269E+01	5.12633458873E-05	1.69644011972E+02	2.57579391360E-01	-4.88791783337E+01
7.54328657315E+10	1.87337885273E-01	-2.65271444504E+01	5.90150326367E-05	5.16892001344E+01	5.40373761200E-05	1.46013873434E+02	2.50161050285E-01	-4.68939823198E+01
7.54388777555E+10	1.85251162948E-01	-2.51413984229E+01	3.15601495929E-05	-1.13356144931E+00	8.20875559135E-05	4.26344214687E+01	2.48847135923E-01	-4.76689288823E+01
7.54448897796E+10	1.85411967072E-01	-2.68234243559E+01	2.27556410728E-05	1.39603756610E+02	1.10742636144E-04	1.11293919903E+02	2.51087799033E-01	-4.83793695264E+01
7.54509018036E+10	1.92078380792E-01	-2.84942798151E+01	6.58770226982E-05	-8.40055908783E+00	1.50068237453E-05	-9.69041480725E+00	2.51803142120E-01	-4.90437087728E+01
7.54569138277E+10	1.88412031936E-01	-2.74816112153E+01	3.99739118334E-05	-3.78111677947E+01	8.73197965984E-05	-1.01480909931E+02	2.52682882819E-01	-5.05803943948E+01
7.54629258517E+10	1.89547143544E-01	-2.76608920616E+01	2.30700233473E-05	9.24637771507E+01	6.21908268837E-05	6.79742658889E+00	2.52874566815E-01	-4.99187614913E+01
7.54689378758E+10	1.87820183128E-01	-2.84493345810E+01	3.67013954024E-05	1.26682150293E+02	6.99704618136E-05	-1.52566259980E+02	2.50038092872E-01	-4.85029207097E+01
7.54749498998E+10	1.85103535031E-01	-2.50969884734E+01	4.38232278703E-05	1.46996395538E+02	5.21044136252E-05	6.19327197387E+01	2.50306207397E-01	-4.96008737940E+01
7.54809619238E+10	1.89064007502E-01	-2.79492445018E+01	6.21729986062E-05	1.23995149648E+02	1.01359170966E-04	5.16046087649E+01	2.49222704294E-01	-4.93536919759E+01
7.54869739479E+10	1.90800499880E-01	-2.89255963641E+01	4.00485945598E-05	-1.68437404251E+02	4.04089968950E-05	-1.59216262539E+02	2.49251905059E-01	-5.05777170223E+01
7.54929859719E+10	1.88756925374E-01	-2.87499175392E+01	4.46905860541E-05	-3.82257329104E+01	4.08458571806E-05	-4.22368438122E+01	2.52085957739E-01	-5.14825950301E+01
7.54989979960E+10	1.83442954047E-01	-2.68270632287E+01	9.30567820315E-06	8.58423665132E+01	4.02457578330E-05	-6.98796025806E+01	2.48701833920E-01	-5.00242391583E+01
7.55050100200E+10	1.90270421027E-01	-3.07320597249E+01	6.60337765084E-05	1.63810617062E+02	3.75270270357E-05	-7.34221858129E+01	2.52370225396E-01	-5.20357839544E+01
7.55110220441E+10	1.90887761203E-01	-2.99125510803E+01	5.32481959751E-05	-1.01453414230E+02	3.61230011908E-05	3.49011010150E+01	2.51454311094E-01	-5.32591363331E+01
7.55170340681E+10	1.86623826030E-01	-2.90321116087E+01	6.02793251115E-05	1.48757211259E+02	3.68373300084E-05	-3.27278592815E-01	2.50545134569E-01	-5.24036719113E+01
7.55230460922E+10	1.86626204221E-01	-2.96415798631E+01	3.40753069735E-05	1.49535508620E+02	6.20417548692E-05	-1.71194975884E+02	2.47862708330E-01	-5.14749735330E+01
7.55290581162E+10	1.85786025247E-01	-2.98175559563E+01	5.29841866787E-05	9.10658480773E+01	4.51429712904E-05	7.67999695542E+01	2.47136734561E-01	-5.17287070923E+01
7.55350701403E+10	1.89116845318E-01	-3.12592219467E+01	6.61835619180E-05	1.73951818826E+02	7.38089164530E-05	1.51833078911E+02	2.46243575817E-01	-5.30085267824E+01
7.55410821643E+10	1.88025959177E-01	-3.08699779513E+01	2.34534888652E-05	3.46913852626E+01	4.22870344423E-05	-1.12703750763E+01	2.47597057675E-01	-5.27516545360E+01
7.55470941884E+10	1.88185078804E-01	-3.02461808011E+01	3.62801348778E-05	9.28062971284E+01	8.49126797284E-05	1.45953879683E+01	2.47649164461E-01	-5.35460100894E+01
7.55531062124E+10	1.82428815772E-01	-2.71638690152E+01	3.26804732540E-05	-1.16710641209E+02	4.52932962467E-05	-6.63167981683E+01	2.47632936900E-01	-5.33802238004E+01
7.55591182365E+10	1.83457301774E-01	-3.04101967302E+01	7.30390092742E-05	-1.03393276860E+01	4.87991440673E-05	-8.13844395054E+01	2.46350774568E-01	-5.49353307009E+01
7.55651302605E+10	1.86670631983E-01	-3.17706147805E+01	9.68555067330E-05	-6.19683050565E+01	3.20519867960E-05	-7.18501038600E+01	2.46752383308E-01	-5.48880858754E+01
7.55711422846E+10	1.88047117771E-01	-3.11338523057E+01	1.97286448092E-05	-1.56697868448E+02	4.48126243181E-05	-1.20408532713E+02	2.46908786502E-01	-5.36002031047E+01
7.55771543086E+10	1.84083948880E-01	-2.96106544169E+01	5.16947973979E-05	1.75263242645E+02	3.48190311936E-05	1.54223261641E+02	2.47735120464E-01	-5.58197196397E+01
7.55831663327E+10	1.83212286743E-01	-3.14438643692E+01	5.89991888651E-05	1.15983784246E+02	8.60167500276E-05	1.76092093729E+02	2.45041057717E-01	-5.57919670501E+01
7.55891783567E+10	1.85909294136E-01	-3.16365337576E+01	3.34389444915E-05	8.29186960951E+01	5.26456165505E-05	7.18661648244E+01	2.45313727385E-01	-5.58823905718E+01
7.55951903808E+10	1.87621059433E-01	-3.35931495657E+01	7.53407512670E-05	2.85209157083E+00	3.03538061558E-05	-1.20035568050E+02	2.46396862228E-01	-5.52998490656E+01
7.56012024048E+10	1.89093633338E-01	-3.26704695995E+01	1.28979668607E-04	-1.92237439845E+01	1.00496575876E-04	-7.54028705752E+01	2.45460705476E-01	-5.61592548780E+01
7.56072144289E+10	1.84683464273E-01	-3.13406739245E+01	4.31552162370E-05	6.73405261394E+00	3.93935872877E-05	-7.16575732078E+01	2.43289945865E-01	-5.73907813576E+01
7.56132264529E+10	1.84622144745E-01	-3.17750820345E+01	2.35289883185E-05	-5.02092214923E+01	2.52993279986E-05	6.68206593485E+00	2.44364053042E-01	-5.63950180249E+01
7.56192384770E+10	1.83545008496E-01	-3.29230074707E+01	9.39923101109E-05	-5.93796475794E+01	7.80639403314E-05	-1.14140474039E+02	2.43662329830E-01	-5.65592311966E+01
7.56252505010E+10	1.85342696486E-01	-3.34679368798E+01	5.14596723770E-05	-1.17610099975E+02	4.77609042420E-05	-1.27498630762E+02	2.44825281494E-01	-5.73414273943E+01
7.56312625251E+10	1.88670405367E-01	-3.42873829954E+01	9.23886438391E-05	1.53183302257E+02	5.58908700820E-05	-1.40378277941E+02	2.43067155773E-01	-5.83962475675E+01
7.56372745491E+10	1.82245370005E-01	-3.12532001905E+01	4.90777262492E-05	-1.64108584986E+02	7.51347420393E-05	1.71053027282E+02	2.40624420848E-01	-5.60409696208E+01
7.56432865731E+10	1.82605127992E-01	-3.33407986459E+01	4.65016305466E-05	1.24982151618E+02	4.44389854204E-05	-1.51979334981E+02	2.44854847462E-01	-5.85528934280E+01
7.56492985972E+10	1.82154778641E-01	-3.25011803810E+01	2.17860722165E-05	-4.59645219542E+01	5.32880788717E-05	-1.46344134712E+02	2.43827239590E-01	-5.99714734941E+01
7.56553106212E+10	1.87642418294E-01	-3.52624961643E+01	9.32774730885E-05	1.33925309656E+02	4.39892419693E-05	1.05811600461E+02	2.41649307208E-01	-5.86809755237E+01
7.56613226453E+10	1.87051985635E-01	-3.39815151588E+01	8.10820269761E-05	1.22392292062E+02	6.30218356551E-05	6.05418732997E+01	2.40421091821E-01	-5.83219588312E+01
7.56673346693E+10	1.83404078379E-01	-3.33181199805E+01	8.04997465027E-05	1.22727432558E+02	4.90119753631E-05	-1.97849741158E+00	2.42427608724E-01	-5.92307961394E+01
7.56733466934E+10	1.82021246694E-01	-3.33812216299E+01	4.20238708988E-05	1.45560139375E+02	1.05741331495E-05	6.70649855924E+01	2.41260032861E-01	-6.03938534781E+01
7.56793587174E+10	1.82381790533E-01	-3.41738939681E+01	4.40441607393E-05	4.74014961260E+01	5.08521075633E-05	-1.07287114311E+02	2.37041113950E-01	-5.88003434445E+01
7.56853707415E+10	1.82770603555E-01	-3.44168681096E+01	3.68738170786E-05	-7.79840737359E+01	6.35993637682E-05	1.58810545709E+02	2.42483519304E-01	-6.07474554993E+01
7.56913827655E+10	1.86271543974E-01	-3.65824771284E+01	1.39201680758E-05	1.74344397882E+02	8.49737236083E-05	-9.30454089467E+01	2.39466831495E-01	-6.07227479811E+01
7.56973947896E+10	1.86305878359E-01	-3.65361214595E+01	5.39145316594E-05	-1.36588609559E+02	6.33810881634E-05	1.60969857007E+02	2.38268654097E-01	-6.14369168117E+01
7.57034068136E+10	1.86268932563E-01	-3.52769672036E+01	8.87836177054E-06	7.17954285577E+01	2.97412888004E-05	-1.22123050909E+02	2.35249902444E-01	-5.97155287910E+01
7.57094188377E+10	1.81931093667E-01	-3.53832419046E+01	3.44713231053E-05	1.27715429774E+02	4.64488203716E-05	-1.57482553485E+02	2.36968327604E-01	-6.10446134704E+01
7.57154308617E+10	1.82357130672E-01	-3.53931598121E+01	2.59066254822E-05	5.26829872537E+01	7.52497962696E-05	1.39924916374E+02	2.37757350280E-01	-6.04979240752E+01
7.57214428858E+10	1.83977901725E-01	-3.51445976139E+01	3.54727408450E-05	9.94914761397E+01	1.87296055642E-05	1.48199461036E+02	2.40328173870E-01	-6.17503827259E+01
7.57274549098E+10	1.87143171440E-01	-3.71193311763E+01	6.54845864763E-05	1.22215257207E+02	5.26262212614E-05	1.36617981347E+02	2.36927957856E-01	-6.16558941248E+01
7.57334669339E+10	1.82545348594E-01	-3.63257375402E+01	4.52187674878E-05	8.55019638377E+01	4.75745085687E-05	1.57113309872E+02	2.39001203325E-01	-6.26831033963E+01
7.57394789579E+10	1.80241059536E-01	-3.55488376894E+01	3.07785265750E-05	1.64818813878E+02	8.44455240759E-05	8.73071389048E+01	2.37877477746E-01	-6.32357521364E+01
7.57454909820E+10	1.83039927547E-01	-3.68248345510E+01	3.45760276657E-05	5.36362668613E+01	3.65574787267E-05	5.40108200678E+01	2.35072403690E-01	-6.33705772392E+01
7.57515030060E+10	1.86659339459E-01	-3.77707527444E+01	5.19174537791E-05	6.10658728901E+01	4.43512553570E-05	9.52021949719E+01	2.40560691838E-01	-6.51437338020E+01
7.57575150301E+10	1.81823978285E-01	-3.56844820375E+01	4.04246499978E-05	-1.29013092415E+01	4.12814023975E-05	8.90209156548E+01	2.37213989222E-01	-6.52370900952E+01
7.57635270541E+10	1.80715113644E-01	-3.68689625633E+01	2.92080722942E-05	3.16724655416E+01	4.63260546957E-05	-4.53476664857E+01	2.32237277928E-01	-6.36511036310E+01
7.57695390782E+10	1.82380298700E-01	-3.78171963159E+01	2.62626424293E-05	-1.68058683778E+02	6.14156387429E-05	2.03844016273E+01	2.37719726795E-01	-6.42733771797E+01
7.57755511022E+10	1.84855652483E-01	-3.96067101053E+01	2.38102475821E-05	-1.58476652816E+02	5.73141660429E-05	3.92417214699E+01	2.35488669034E-01	-6.43394976952E+01
7.57815631263E+10	1.82296209655E-01	-3.83219341090E+01	4.62000253472E-05	1.22617743138E+02	3.79704024638E-05	-5.01148460235E+01	2.32163013277E-01	-6.32939262989E+01
7.57875751503E+10	1.79831956567E-01	-3.74797678439E+01	1.03483237761E-04	9.54243868975E+01	6.93068087182E-05	4.77544867153E+01	2.33726803134E-01	-6.66761456398E+01
7.57935871743E+10	1.83770478947E-01	-3.83536724859E+01	2.97384713553E-05	-6.43807564187E+01	6.98194191154E-05	4.39903096425E+01	2.34924224132E-01	-6.63406549008E+01
7.57995991984E+10	1.78471178043E-01	-3.83850752486E+01	6.38701669042E-05	3.80719318304E+01	4.60579356307E-05	-1.10986747306E+01	2.33125822327E-01	-6.51184514341E+01
7.58056112224E+10	1.81963548725E-01	-3.86268742319E+01	7.76007815077E-05	2.59674803000E+01	1.12122457339E-04	3.24445425567E+01	2.33175325744E-01	-6.64499998628E+01
7.58116232465E+10	1.83982897953E-01	-3.89556529928E+01	9.40579450696E-05	-2.43389870901E+01	9.24739504633E-05	9.99091895162E+00	2.31552183718E-01	-6.69883606197E+01
7.58176352705E+10	1.80871681912E-01	-3.91798958390E+01	6.83293777338E-05	1.59173619189E+01	1.88921628868E-05	1.39612816496E+02	2.31225222087E-01	-6.76167268010E+01
7.58236472946E+10	1.81406088705E-01	-3.98457390161E+01	4.64875596584E-05	-8.19011267507E+00	9.07208296101E-05	-1.98710945999E+01	2.31854290602E-01	-6.72585553273E+01
7.58296593186E+10	1.80560545121E-01	-3.96206042683E+01	4.82126800266E-05	1.66056945256E+02	4.66808150204E-05	-4.21462171504E+01	2.33938588951E-01	-6.87977687142E+01
7.58356713427E+10	1.79830949708E-01	-3.90794647381E+01	3.16783723777E-05	-1.22904904611E+02	2.96095979401E-05	-9.10481436009E+01	2.29739933679E-01	-6.73157555673E+01
7.58416833667E+10	1.80051866123E-01	-3.97892586433E+01	1.37991962520E-05	1.66862270869E+02	4.59033482730E-05	-1.05094139792E+02	2.27990087280E-01	-6.75303765297E+01
7.58476953908E+10	1.78331719384E-01	-3.99453806091E+01	3.80941798363E-05	6.96161919430E+01	3.74092990123E-05	-1.68137537594E+02	2.27207261656E-01	-6.85011114427E+01
7.58537074148E+10	1.80943803651E-01	-4.00742014808E+01	9.15374538040E-05	-4.35076504034E+01	4.77647951167E-05	1.95737518710E+01	2.31454176430E-01	-6.93982512425E+01
7.58597194389E+10	1.82365897879E-01	-4.10237998923E+01	4.38706247930E-05	4.59393789437E+01	2.34436020136E-05	4.50311994947E+01	2.28201296515E-01	-6.97318413332E+01
7.58657314629E+10	1.79972589950E-01	-4.05476055873E+01	6.22334662958E-05	6.76286598039E+01	1.25269222284E-04	-7.99958830345E+01	2.28276778706E-01	-6.84799256622E+01
7.58717434870E+10	1.77642320516E-01	-4.13905236091E+01	2.14437173312E-05	6.35639663099E+01	6.50276242791E-05	-2.56116959549E+01	2.29226330930E-01	-6.99911450195E+01
7.58777555110E+10	1.78011642409E-01	-3.98814462673E+01	2.09101855101E-05	1.53467121124E+02	5.60405900855E-05	-5.18123000579E+01	2.29670631085E-01	-7.01640188423E+01
7.58837675351E+10	1.76528813834E-01	-4.12403028740E+01	3.20538129739E-05	-2.93178369517E+01	4.95813043945E-05	-6.78216140914E+01	2.26143523020E-01	-7.00067830358E+01
7.58897795591E+10	1.77729353423E-01	-4.05782892300E+01	7.54158233978E-05	-9.01353284965E+01	6.25083616661E-05	-7.39128497349E+01	2.24732251799E-01	-6.93875458053E+01
7.58957915832E+10	1.78797344122E-01	-4.21218109767E+01	8.14859010074E-05	-8.07477997405E+01	5.41267036367E-05	-1.09836038604E+02	2.24430993330E-01	-7.10688936620E+01
7.59018036072E+10	1.79176190704E-01	-4.17721348448E+01	9.20632355742E-05	-7.37826011073E+01	2.52537144903E-06	-8.28088854150E+01	2.27133339587E-01	-7.27565897867E+01
7.59078156313E+10	1.77996641269E-01	-4.13740372610E+01	5.09826467818E-05	-1.38196597339E+02	5.34772890383E-05	1.77337415870E+02	2.26243943404E-01	-7.13555134670E+01
7.59138276553E+10	1.77791458718E-01	-4.30279302521E+01	7.57061815060E-05	-7.79229106849E+01	4.87272742204E-05	-1.34626261849E+02	2.25355884815E-01	-7.23953474285E+01
7.59198396794E+10	1.80995051187E-01	-4.28557369564E+01	1.17589708668E-05	-7.65621515731E+00	2.18157961206E-05	9.63539199464E+00	2.24212060588E-01	-7.20589834695E+01
7.59258517034E+10	1.79434782334E-01	-4.27415353533E+01	7.67073066833E-05	-1.41323137380E+02	4.96542887422E-05	-7.61365665077E+01	2.25811500694E-01	-7.30508860940E+01
7.59318637275E+10	1.76199939607E-01	-4.07229933177E+01	7.49658132138E-05	-1.17165072355E+02	5.20097176806E-05	1.62589618143E+02	2.25609497003E-01	-7.29376492371E+01
7.59378757515E+10	1.75924788777E-01	-4.29183365533E+01	1.00717418839E-04	1.73330049806E+02	8.11589620835E-05	1.23457147198E+02	2.22974419285E-01	-7.29879856807E+01
7.59438877756E+10	1.78401177135E-01	-4.21945226631E+01	6.23567366692E-05	-1.56488443425E+02	2.72016210556E-05	9.77989750100E+01	2.23677252734E-01	-7.34056189133E+01
7.59498997996E+10	1.79529152337E-01	-4.35967187211E+01	6.33490627332E-05	1.66243556783E+02	2.58122145840E-05	-1.79951628127E+02	2.23592396651E-01	-7.49309168160E+01
7.59559118236E+10	1.79012415681E-01	-4.41028333852E+01	6.25525274931E-05	-1.09496163718E+02	3.96097695261E-05	-1.34168769062E+02	2.21663038224E-01	-7.42146562020E+01
7.59619238477E+10	1.76505394745E-01	-4.35592592078E+01	4.92860384204E-05	8.53440270731E+01	5.94659695448E-05	1.77636792047E+02	2.18721558329E-01	-7.31481361805E+01
7.59679358717E+10	1.77520021636E-01	-4.43747433821E+01	7.00107179403E-05	-1.73329762611E+02	4.29387111239E-05	-1.62707803551E+02	2.20374617554E-01	-7.53092764921E+01
7.59739478958E+10	1.79682014899E-01	-4.46789802322E+01	9.09565084938E-05	1.61833413072E+02	6.40876481677E-05	1.60191413346E+02	2.18560032339E-01	-7.40532556726E+01
7.59799599198E+10	1.79754125062E-01	-4.53888838072E+01	1.15095828200E-04	1.26188465270E+02	5.88230429742E-05	9.83967038950E+01	2.21119934598E-01	-7.53635570461E+01
7.59859719439E+10	1.74313970237E-01	-4.46142323295E+01	2.41948853577E-05	6.71653804742E+01	4.83067952037E-05	6.61803057106E+01	2.19254114059E-01	-7.57422462631E+01
7.59919839679E+10	1.77661119648E-01	-4.50322556083E+01	4.79546930606E-05	7.24475925799E+01	6.08116280816E-05	8.11764217180E+01	2.21852413083E-01	-7.73776396552E+01
7.59979959920E+10	1.78168443824E-01	-4.43325412210E+01	5.88384695362E-05	1.42221588937E+02	5.84907950011E-05	1.26980158053E+02	2.16945486184E-01	-7.67946533586E+01
7.60040080160E+10	1.76402156421E-01	-4.53015174483E+01	9.31600396704E-05	1.74980286225E+02	6.05146128340E-05	-3.02582329846E+01	2.18656106294E-01	-7.63510884529E+01
7.60100200401E+10	1.77459102433E-01	-4.69371095443E+01	6.97295909626E-05	-1.21827303395E+01	7.28527403893E-05	1.60083113914E+01	2.17478111045E-01	-7.74952786008E+01
7.60160320641E+10	1.74463899459E-01	-4.44180025628E+01	3.32268144407E-05	1.01921394758E+02	6.31273073619E-05	2.56320795473E+01	2.17717716654E-01	-7.67501949007E+01
7.60220440882E+10	1.74807006910E-01	-4.54966146704E+01	9.14697922391E-06	-4.37904910297E+01	4.57852109464E-05	1.90025294045E+01	2.15787258321E-01	-7.65655432465E+01
7.60280561122E+10	1.76018434794E-01	-4.61674810552E+01	2.32886684162E-05	1.28871595307E+02	1.23169929614E-04	6.97812790680E+01	2.14628253490E-01	-7.83448078654E+01
7.60340681363E+10	1.74836097372E-01	-4.49488679356E+01	2.60144186956E-05	-4.86860884391E+00	4.19264766016E-05	9.95058849110E+01	2.15307979255E-01	-7.93318330089E+01
7.60400801603E+10	1.74276796358E-01	-4.48040104641E+01	8.83703592364E-06	1.52182972589E+02	5.59564932316E-05	-3.79949687318E+01	2.18227360104E-01	-8.09576692212E+01
7.60460921844E+10	1.73379924281E-01	-4.43020201302E+01	6.86760541252E-05	1.43217460447E+02	6.20265295655E-06	1.26449273849E+02	2.15825252070E-01	-7.94062285618E+01
7.60521042084E+10	1.72535080971E-01	-4.66914838397E+01	5.68899298835E-05	4.92121732591E+01	4.16072567612E-05	-1.35628244016E+02	2.13824028420E-01	-7.87896614792E+01
7.60581162325E+10	1.73156352422E-01	-4.64447972541E+01	4.50030547814E-05	6.34170861078E+01	3.45367101058E-05	7.22160877403E+01	2.14074588265E-01	-7.92891037788E+01
7.60641282565E+10	1.74806399089E-01	-4.63860284157E+01	2.44312046527E-05	-1.14041995719E+02	8.33717772723E-05	2.77973792548E+00	2.14754771186E-01	-8.16478804569E+01
7.60701402806E+10	1.72199345372E-01	-4.58725304170E+01	5.07654964206E-05	3.83574383245E+01	3.48747235929E-05	-3.95917282867E+01	2.12556563025E-01	-8.04103637446E+01
7.60761523046E+10	1.73509149212E-01	-4.84725697294E+01	6.73199634435E-05	-1.26037658758E+02	5.66866191772E-05	-8.27636611629E+01	2.09210593197E-01	-7.86673613849E+01
7.60821643287E+10	1.74740347874E-01	-4.69435828562E+01	3.66616845635E-05	-1.06402352051E+02	3.93896396310E-05	5.06539970932E+01	2.10630803833E-01	-8.04180269422E+01
7.60881763527E+10	1.73816347692E-01	-4.68574638051E+01	6.97434183771E-05	5.31704736360E+01	2.80635517501E-05	8.73142677120E+01	2.14369908842E-01	-8.32091565052E+01
7.60941883768E+10	1.71106971776E-01	-4.72480212632E+01	3.63472668445E-05	7.41949468722E+01	4.20662618816E-05	9.57615803485E+01	2.07484854235E-01	-8.00926136732E+01
7.61002004008E+10	1.72126149285E-01	-4.68940973533E+01	2.95724676010E-05	2.41618645068E+01	5.82659251743E-05	5.40917550820E+00	2.08351762444E-01	-8.12851806661E+01
7.61062124248E+10	1.74469426731E-01	-4.78169281336E+01	5.47528132145E-05	1.03802660147E+02	7.03668878097E-05	-2.94249222374E+01	2.07505580176E-01	-8.10576828378E+01
7.61122244489E+10	1.71360846385E-01	-4.84787759317E+01	2.59149203526E-05	-1.13714842887E+01	3.63043323321E-05	-2.68909739858E+01	2.06076767772E-01	-8.14349936955E+01
7.61182364729E+10	1.74923243253E-01	-4.96830209817E+01	5.94908405081E-05	6.75969304752E+00	4.40520612601E-05	1.58815980600E+01	2.08830851889E-01	-8.36036936635E+01
7.61242484970E+10	1.70323859530E-01	-4.86020172822E+01	4.99572430676E-05	1.20875505377E+02	1.95769034670E-05	1.38963232183E+02	2.09329953901E-01	-8.41337331471E+01
7.61302605210E+10	1.71312252173E-01	-4.86181437745E+01	4.19775231493E-05	9.72928431475E+01	3.06584671840E-05	7.88735273068E+01	2.06514770617E-01	-8.27768239709E+01
7.61362725451E+10	1.70700004534E-01	-4.96990276437E+01	5.31939869748E-05	2.81228855543E+01	7.21882924834E-05	2.92858127998E+01	2.03381410388E-01	-8.23983480845E+01
7.61422845691E+10	1.72957867274E-01	-5.00655167171E+01	3.31437475597E-05	-1.59214018350E+02	5.55202114871E-05	-6.61732804980E+01	2.04784681916E-01	-8.37791236277E+01
7.61482965932E+10	1.68814011560E-01	-4.90732346755E+01	5.23937200223E-05	-3.82908131730E+01	4.18547743702E-05	-3.46443417625E+01	2.08254248379E-01	-8.55018130364E+01
7.61543086172E+10	1.72799196173E-01	-4.87886663717E+01	1.20124894064E-04	-8.96590182829E+01	4.34227163959E-05	-1.67545729292E+02	2.03422521095E-01	-8.30812215335E+01
7.61603206413E+10	1.69888084875E-01	-4.79658063548E+01	8.76118932539E-05	1.75354200616E+02	1.43779391020E-05	5.88899937425E-01	2.05730562439E-01	-8.49281612103E+01
7.61663326653E+10	1.69769757428E-01	-4.88273869448E+01	2.31410583250E-05	4.67738304284E+01	3.93770799114E-05	-6.61026912505E+00	2.04706779206E-01	-8.53824279106E+01
7.61723446894E+10	1.72021766029E-01	-5.04891187864E+01	6.49352256419E-05	-1.26834929176E+02	9.52495375563E-05	-1.67513517749E+02	2.05615777124E-01	-8.65594040536E+01
7.61783567134E+10	1.72287309097E-01	-5.06282030919E+01	2.32893665282E-05	9.45411104805E+01	5.98404023059E-05	2.24528988791E+01	2.01839799090E-01	-8.50083100968E+01
7.61843687375E+10	1.69652207030E-01	-4.96715442517E+01	2.63032055789E-05	1.04950515783E+02	1.55523261626E-05	-1.24175156303E+02	2.01684000183E-01	-8.61460497576E+01
7.61903807615E+10	1.70285334619E-01	-4.96620161578E+01	5.19801058175E-05	-1.26939336584E+02	2.14038866696E-05	1.07929360405E+02	2.01662387031E-01	-8.65987271488E+01
7.61963927856E+10	1.71265457243E-01	-4.92938943425E+01	1.12813381703E-05	-4.72019747324E+01	3.65855152559E-05	-1.52594032529E+02	1.98084825412E-01	-8.48579714550E+01
7.62024048096E+10	1.68474300880E-01	-5.20148230852E+01	5.32601521480E-05	8.84374699586E+01	3.12473416832E-05	1.53719828809E+02	2.01990393015E-01	-8.69980478975E+01
7.62084168337E+10	1.68499303718E-01	-5.13866809456E+01	5.47123895524E-05	-8.75520671214E+01	6.98625722204E-05	1.75068194636E+02	2.00671097127E-01	-8.73568923453E+01
7.62144288577E+10	1.69262758624E-01	-5.11530404629E+01	4.49139716018E-05	-4.92281738089E+01	4.75873675865E-05	8.79431104078E+01	2.00522991217E-01	-8.73295179893E+01
7.62204408818E+10	1.69897143618E-01	-5.12378200264E+01	7.63363529122E-05	-2.42724449298E+01	9.60327748332E-06	-1.37342691691E+02	1.99124310695E-01	-8.76201283058E+01
7.62264529058E+10	1.69886882210E-01	-5.16532005874E+01	7.34217824435E-05	-5.53915722506E+01	6.44929416824E-05	-5.22671187557E+01	1.98751840023E-01	-8.81655963651E+01
7.62324649299E+10	1.68213471334E-01	-5.07720206498E+01	3.92665939991E-05	-1.67171118693E+02	5.36932849837E-05	-1.77931428121E+02	1.96425585668E-01	-8.70802667629E+01
7.62384769539E+10	1.67982515791E-01	-4.98729738520E+01	9.51121420204E-05	-9.92628557571E+01	1.08835864515E-04	-1.14427478331E+02	1.95948444450E-01	-8.81046878916E+01
7.62444889780E+10	1.66817901878E-01	-4.92556595362E+01	1.70169519241E-05	1.65925668114E+02	7.74952511459E-05	-1.43922007234E+02	1.96526622424E-01	-8.87490088465E+01
7.62505010020E+10	1.69262191047E-01	-5.05999276355E+01	7.25014411745E-05	1.61600207677E+02	2.91592913309E-05	-1.08522369619E+02	1.98718142682E-01	-9.00632619069E+01
7.62565130261E+10	1.68883124734E-01	-5.20982958703E+01	8.70509785299E-05	-1.30365145712E+02	5.68528240537E-05	-7.84546466714E+01	1.97626402112E-01	-9.02650617885E+01
7.62625250501E+10	1.68476832491E-01	-5.29036296904E+01	1.17047584232E-04	1.76436320824E+02	3.00953267279E-05	-1.74206410194E+02	1.97129699006E-01	-8.96215590899E+01
7.62685370741E+10	1.68267769746E-01	-5.21356315570E+01	3.50744945189E-06	3.51281290028E+01	5.38855144980E-05	1.52251569200E+02	1.93053549370E-01	-8.88492032529E+01
7.62745490982E+10	1.67180214063E-01	-5.15121724944E+01	4.13493647527E-05	3.79603211359E+01	8.54715130662E-05	6.20249684303E+01	1.97703951740E-01	-9.10261695003E+01
7.62805611222E+10	1.69754586951E-01	-5.34456987070E+01	4.82811840222E-05	2.67705347389E+01	3.49282188869E-05	7.99335739775E+01	1.92725531532E-01	-8.99244450897E+01
7.62865731463E+10	1.68776534013E-01	-5.28834644191E+01	2.45809744491E-05	-6.89163426710E+01	5.87036323652E-05	-7.52378410990E+01	1.93806388091E-01	-9.10257081655E+01
7.62925851703E+10	1.67459268190E-01	-5.39605696116E+01	5.89316767071E-05	7.39215718932E+01	3.55774567987E-05	-6.01785528563E+01	1.93923770914E-01	-9.12517106981E+01
7.62985971944E+10	1.67182951188E-01	-5.03152335155E+01	6.69495999872E-05	-5.29199714958E+01	4.25346620745E-05	-1.39944065294E+02	1.93063812986E-01	-9.12736708565E+01
7.63046092184E+10	1.66794267447E-01	-5.39597135123E+01	4.09169406031E-05	-2.89706257764E+01	4.48128108631E-05	-1.01803064046E+02	1.90923937821E-01	-9.05835847217E+01
7.63106212425E+10	1.67454975765E-01	-5.46089620644E+01	1.02452612528E-05	-5.91680267912E+01	7.89802704899E-05	1.62359382103E+02	1.94103493676E-01	-9.29561338699E+01
7.63166332665E+10	1.65490311300E-01	-5.44274243151E+01	7.25327461975E-05	-1.28876041910E+02	2.63597889752E-05	-3.53445840405E+01	1.92257512639E-01	-9.27823824649E+01
7.63226452906E+10	1.68505910101E-01	-5.34605224726E+01	1.53061971187E-05	-1.73614239419E+02	4.77688253755E-05	1.08478045946E+02	1.89334597285E-01	-9.17254571741E+01
7.63286573146E+10	1.64722565764E-01	-5.25105226526E+01	3.60197681330E-05	-1.18092578049E+02	1.99568600516E-05	1.07454205150E+02	1.89668358846E-01	-9.20818506305E+01
7.63346693387E+10	1.64471245318E-01	-5.32441291527E+01	8.13920502276E-06	-1.25389198901E+02	1.59607419988E-05	-1.46589057755E+02	1.93112336070E-01	-9.40936532178E+01
7.63406813627E+10	1.64657582841E-01	-5.25943408535E+01	6.46975771640E-05	-1.17028320485E+02	3.64191286487E-05	6.73921819266E+01	1.87693167386E-01	-9.29957680868E+01
7.63466933868E+10	1.68408050432E-01	-5.47273276662E+01	4.79742832860E-05	5.93102009287E+01	1.22571252962E-04	1.90717277235E+01	1.89767363533E-01	-9.42343962843E+01
7.63527054108E+10	1.65513923587E-01	-5.46359401294E+01	6.23858831743E-05	1.37543025860E+02	3.28422236817E-05	1.33121519783E+02	1.88783952151E-01	-9.36269530329E+01
7.63587174349E+10	1.64715010574E-01	-5.47749575679E+01	8.81789569232E-05	2.57057748779E+01	3.50131044291E-05	-9.52474645405E+01	1.88696316612E-01	-9.38026595672E+01
7.63647294589E+10	1.66258513159E-01	-5.49356476392E+01	3.21708529407E-05	-5.25682051031E+01	5.02704466548E-05	7.65824711349E+01	1.86692635843E-01	-9.37216336648E+01
7.63707414830E+10	1.65305438987E-01	-5.32733815778E+01	5.41858317847E-05	1.01108385849E+02	4.10799058376E-05	-1.71818636206E+02	1.87857401632E-01	-9.55910329291E+01
7.63767535070E+10	1.66297887991E-01	-5.55557240918E+01	1.28168442957E-05	-1.07045564292E+02	2.31925132615E-05	-2.35456588042E+01	1.89225009942E-01	-9.62159352531E+01
7.63827655311E+10	1.65811440831E-01	-5.67767612618E+01	7.15539618551E-05	5.63971319995E+01	6.26844322263E-05	5.46058485937E+01	1.88537934052E-01	-9.64287967381E+01
7.63887775551E+10	1.65999900488E-01	-5.57234595747E+01	6.99442267037E-06	-1.71107900806E+02	8.15901633098E-05	3.21981471442E+01	1.87580418529E-01	-9.62645063320E+01
7.63947895792E+10	1.65719216181E-01	-5.58035771036E+01	3.50571063310E-05	-1.66938802891E+02	3.81934548186E-05	-2.88848653624E+01	1.84603138107E-01	-9.50325365513E+01
7.64008016032E+10	1.61696427723E-01	-5.43760269563E+01	4.92690529048E-05	-1.09372346881E+02	2.00016416202E-05	1.01601374811E+02	1.84109614326E-01	-9.61550962986E+01
7.64068136273E+10	1.67316601619E-01	-5.65440517402E+01	7.15973723913E-05	-1.53756346859E+02	5.47439597191E-05	6.91382038625E+01	1.84695747558E-01	-9.72068632784E+01
7.64128256513E+10	1.66633692194E-01	-5.82026166333E+01	1.60660185847E-05	1.13391532534E+02	3.79844909637E-05	-1.14827483678E+02	1.87049144747E-01	-9.91337120169E+01
7.64188376754E+10	1.64545748490E-01	-5.67328963007E+01	6.97687760220E-05	1.06421533291E+02	1.10434981248E-04	1.17450496911E+02	1.82948104169E-01	-9.64308682830E+01
7.64248496994E+10	1.62935157196E-01	-5.49825563540E+01	3.55303479222E-05	5.92811139244E+01	3.67614577090E-05	8.27100557690E+00	1.83734930466E-01	-9.86659137690E+01
7.64308617234E+10	1.64538460190E-01	-5.56692784139E+01	7.16616942395E-05	3.35377031866E+01	5.84973196126E-05	3.82894745797E+01	1.83199373549E-01	-9.85981006403E+01
7.64368737475E+10	1.64592744262E-01	-5.61627134177E+01	4.29442802756E-05	3.83783495910E+01	6.27023509421E-05	2.11834291744E+01	1.85331102953E-01	-9.96281208280E+01
7.64428857715E+10	1.64444769483E-01	-5.61323504363E+01	1.73383983702E-05	1.48555186178E+02	9.74496866017E-05	-4.33347353992E+01	1.82784265087E-01	-9.86016826572E+01
7.64488977956E+10	1.63870653487E-01	-5.71826504968E+01	6.94052048265E-05	-1.11934821758E+02	4.40205163586E-05	-9.57626191078E+01	1.81183939630E-01	-9.81182668159E+01
7.64549098196E+10	1.63278748811E-01	-5.77497737120E+01	4.64546527412E-05	-9.52236860752E+01	8.66017893212E-05	-5.20715589546E+01	1.81354095810E-01	-9.87788422759E+01
7.64609218437E+10	1.61762446724E-01	-5.61955730350E+01	2.63822264384E-05	-2.71217533364E+01	1.34643629545E-05	-4.51719326972E+01	1.82301548388E-01	-1.00365603134E+02
7.64669338677E+10	1.62674749845E-01	-5.62774811953E+01	5.60546393499E-05	1.95059131864E+01	7.19703126938E-05	-5.20090767033E+01	1.83315606383E-01	-1.02269686033E+02
7.64729458918E+10	1.65121567025E-01	-5.77426549382E+01	1.14110667013E-04	-6.39852274890E+01	1.13578895525E-04	-3.02970035715E+01	1.80960503811E-01	-1.00634740197E+02
7.64789579158E+10	1.65347398537E-01	-5.71699452751E+01	3.14949791262E-05	-4.90701127353E+01	7.43373061388E-06	-7.09505482690E+00	1.79059326936E-01	-1.00166992671E+02
7.64849699399E+10	1.64674518512E-01	-5.64759740718E+01	2.35448751647E-05	-5.65404556925E+01	4.37085265564E-05	-8.13846968289E+00	1.79886203200E-01	-1.01079703684E+02
7.64909819639E+10	1.63652509767E-01	-5.77541086613E+01	2.46094551349E-05	-3.54487205431E+01	3.68044332409E-05	1.45114508036E+02	1.80535151898E-01	-1.02796458281E+02
7.64969939880E+10	1.62758816243E-01	-5.70877208556E+01	5.61702229620E-05	-5.34458630077E+01	3.60292798814E-05	-5.59715864018E+01	1.77839115061E-01	-1.01944498495E+02
7.65030060120E+10	1.63792910453E-01	-6.03171631112E+01	3.20751111586E-05	1.69719110018E+02	8.18419925268E-05	-1.58466921804E+01	1.77136723461E-01	-1.02137140258E+02
7.65090180361E+10	1.63736860976E-01	-5.76928533584E+01	2.13868975616E-05	-1.01512194106E+02	6.69581184186E-05	-1.09237353186E+02	1.76616583384E-01	-1.02368163576E+02
7.65150300601E+10	1.62914720295E-01	-5.80316685554E+01	3.86652000594E-05	-1.07292380450E+02	4.21378052902E-05	-1.53394144133E+02	1.76964613792E-01	-1.03694885778E+02
7.65210420842E+10	1.61769738727E-01	-5.92406630311E+01	8.06193429833E-05	-1.18633656841E+02	5.24849725102E-05	1.09745428143E+02	1.76841145684E-01	-1.03603656709E+02
7.65270541082E+10	1.61003959007E-01	-5.83619428078E+01	9.47182131033E-06	-9.73084040652E+01	7.87808919032E-05	1.46215483601E+02	1.77279144226E-01	-1.04428494240E+02
7.65330661323E+10	1.63399724644E-01	-5.95161194501E+01	5.21359739542E-05	-9.85905853284E+01	3.50713969118E-05	-1.02074600262E+02	1.77233014410E-01	-1.05212956998E+02
7.65390781563E+10	1.62623432288E-01	-5.88983220267E+01	1.76439453676E-05	-1.31848274957E+02	8.13485704428E-05	3.03965825578E+01	1.74490158325E-01	-1.04871209665E+02
7.65450901804E+10	1.64561840625E-01	-5.93739789630E+01	7.34565837148E-05	-6.44054401884E+01	1.07386429568E-04	1.62831204483E+02	1.73110069935E-01	-1.04616494780E+02
7.65511022044E+10	1.62443413395E-01	-5.88747288464E+01	4.39386539587E-05	-1.11158537545E+02	4.45953496260E-05	2.09260800468E+01	1.72825990754E-01	-1.05207406073E+02
7.65571142285E+10	1.62192047760E-01	-6.00455845964E+01	5.91526794571E-05	1.64305371654E+02	5.53792072792E-05	-9.49835581293E+01	1.73678082872E-01	-1.06162153458E+02
7.65631262525E+10	1.64375639988E-01	-6.19613828317E+01	4.57481002416E-05	1.43982130053E+02	4.05332107532E-05	-1.44866572172E+02	1.74577829141E-01	-1.07463741636E+02
7.65691382766E+10	1.62981656542E-01	-6.10639787136E+01	6.71657157071E-05	6.82858219730E+01	5.71592911902E-05	-1.31648244432E+02	1.71675923494E-01	-1.07422221880E+02
7.65751503006E+10	1.61836499624E-01	-5.99726085496E+01	2.77708002636E-05	-1.66097122705E+02	6.61519732217E-05	-1.13905855898E+02	1.70735211383E-01	-1.06206834161E+02
7.65811623246E+10	1.62029579409E-01	-6.07668429617E+01	3.61244305052E-05	1.74470196990E+01	6.93414073459E-05	-1.25058901763E+02	1.70099576247E-01	-1.07055501326E+02
7.65871743487E+10	1.61737920885E-01	-6.11113840780E+01	4.08465871170E-05	-1.26766932093E+02	5.99683094962E-05	-7.17580337938E+01	1.72049894294E-01	-1.09746760843E+02
7.65931863727E+10	1.60875147969E-01	-6.04879152063E+01	6.98220601866E-05	-1.53257053701E+02	2.58776385932E-05	1.03423583455E+02	1.70378924265E-01	-1.09110908536E+02
7.65991983968E+10	1.62552797958E-01	-6.21791801211E+01	5.97662509214E-05	8.88998023495E+01	1.00346551327E-04	-8.60286410055E+01	1.68528876492E-01	-1.07969590309E+02
7.66052104208E+10	1.61171270604E-01	-6.15415967649E+01	5.98810376499E-05	-1.34732667963E+02	6.33442023250E-05	1.49885069535E+02	1.67039126680E-01	-1.08450008267E+02
7.66112224449E+10	1.58755803368E-01	-6.09294354262E+01	2.39663529710E-05	-1.05641926070E+02	5.39538227278E-05	4.44299250951E+01	1.68514476647E-01	-1.10229275174E+02
7.66172344689E+10	1.60866274191E-01	-6.15704614274E+01	8.95528767936E-05	7.86687849932E+01	8.54409601416E-05	1.31623587503E+02	1.68641966870E-01	-1.11112481810E+02
7.66232464930E+10	1.61596776155E-01	-6.21838722232E+01	7.75649671138E-05	1.79326325242E+02	2.53870959939E-05	-5.96564933191E+01	1.67825691188E-01	-1.11510492209E+02
7.66292585170E+10	1.61882903456E-01	-6.26570159980E+01	4.69306675684E-05	1.41376630223E+02	9.22457759841E-05	7.89236949144E+01	1.65422540821E-01	-1.10454793665E+02
7.66352705411E+10	1.61760660835E-01	-6.31988264520E+01	5.60429624105E-05	1.77260125829E+02	1.45776482465E-05	3.72843066687E+01	1.63778438473E-01	-1.10285598648E+02
7.66412825651E+10	1.62239491467E-01	-6.40428714862E+01	2.83238044450E-05	1.42699225895E+02	6.63723274312E-05	-8.96926500085E+01	1.63803654517E-01	-1.11675568731E+02
7.66472945892E+10	1.61623631368E-01	-6.38974983703E+01	7.48220382877E-05	1.32550986702E+02	3.70397619537E-05	1.24575182751E+02	1.63775924490E-01	-1.11836374721E+02
7.66533066132E+10	1.60858732020E-01	-6.25956020714E+01	3.51506136319E-05	7.65007909377E+01	5.71251619522E-05	2.32174007968E+01	1.64443271565E-01	-1.12959655423E+02
7.66593186373E+10	1.58441232254E-01	-6.26851199243E+01	8.03225048829E-05	3.36705762967E+01	7.84934576240E-05	-4.76893971498E+01	1.62269609168E-01	-1.12984973313E+02
7.66653306613E+10	1.60317260995E-01	-6.28685211394E+01	6.78239329837E-05	-1.18958914209E+02	8.53476277993E-05	6.13801695562E+01	1.62287813273E-01	-1.13912544728E+02
7.66713426854E+10	1.62543524310E-01	-6.47955674609E+01	9.40627592457E-06	-2.97608812772E+01	2.72474942602E-05	1.59158702911E+01	1.60320152985E-01	-1.13807138017E+02
7.66773547094E+10	1.62381663309E-01	-6.43605143836E+01	3.06293150419E-05	-1.26091876938E+02	2.91257288845E-05	-4.50203151235E+01	1.59597516327E-01	-1.15215912397E+02
7.66833667335E+10	1.60525017227E-01	-6.38542587252E+01	1.97390944884E-05	1.62392780848E+02	4.39219227973E-05	9.21840991658E+01	1.61111191510E-01	-1.15250700160E+02
7.66893787575E+10	1.60227986440E-01	-6.52236116574E+01	3.06029927409E-05	5.31524309324E+01	6.08164854985E-05	1.26570673682E+02	1.58395457111E-01	-1.13729618903E+02
7.66953907816E+10	1.59133550505E-01	-6.31820423313E+01	3.93080056192E-05	1.07578152027E+02	5.51791815337E-05	6.60929900003E+01	1.58371342970E-01	-1.15054902041E+02
7.67014028056E+10	1.61805056203E-01	-6.47425736974E+01	3.10414426804E-05	1.76607503845E+02	3.62202216998E-05	-4.89500583865E+00	1.58238626916E-01	-1.16523894315E+02
7.67074148297E+10	1.59198541851E-01	-6.36407112261E+01	8.32975711638E-05	7.43783859492E+01	8.71926758632E-05	3.53072153837E+01	1.57446644317E-01	-1.16898590064E+02
7.67134268537E+10	1.57722833693E-01	-6.34668340668E+01	6.73682287863E-05	3.95970349339E+01	6.15989508214E-05	2.89248941131E+01	1.55133740442E-01	-1.16168343831E+02
7.67194388778E+10	1.61892382545E-01	-6.64234278584E+01	6.44704772639E-05	-1.38373146332E+01	5.15309074315E-05	-7.08809364195E+01	1.53834005155E-01	-1.15592465530E+02
7.67254509018E+10	1.61117516944E-01	-6.60180831044E+01	5.24371055735E-05	-3.68359658746E+01	6.70025720253E-05	-2.47131027961E+01	1.54621906879E-01	-1.17091864855E+02
7.67314629259E+10	1.58071726432E-01	-6.46080856915E+01	1.31074676290E-05	5.68957885550E+01	3.50821156145E-05	-4.44118494295E+01	1.55087269866E-01	-1.18396766313E+02
7.67374749499E+10	1.59766699828E-01	-6.45601987294E+01	5.86459616877E-05	-5.85742175688E+01	2.93678024799E-05	5.02286573743E+01	1.52152975698E-01	-1.17684293063E+02
7.67434869739E+10	1.61178413080E-01	-6.54655610279E+01	2.17395630009E-05	-1.67600450580E+02	5.00180889373E-05	-8.79440226473E+01	1.50452358460E-01	-1.16950261139E+02
7.67494989980E+10	1.59320853242E-01	-6.55327339939E+01	3.69759669887E-05	-3.89953298506E+01	1.45978298733E-05	-7.84532400554E+01	1.51406612313E-01	-1.19467075029E+02
7.67555110220E+10	1.58196108211E-01	-6.68675571332E+01	5.28661279178E-05	1.13493526001E+02	8.07671979598E-05	-1.44817469079E+02	1.50454944198E-01	-1.18174469937E+02
7.67615230461E+10	1.59465342332E-01	-6.72043267110E+01	6.90146611467E-05	1.57079468571E+02	2.73471487917E-05	-5.81474904814E+01	1.50098122799E-01	-1.20329097291E+02
7.67675350701E+10	1.59744552247E-01	-6.76159946386E+01	1.54780749859E-05	1.61707068677E+02	7.58580342615E-05	2.82438795674E+01	1.48169272611E-01	-1.20162709547E+02
7.67735470942E+10	1.59739646039E-01	-6.72489155283E+01	3.06191737162E-05	8.24847061672E+01	3.64683345288E-05	1.32662068032E+02	1.47374348426E-01	-1.19341015558E+02
7.67795591182E+10	1.58801613143E-01	-6.61232854004E+01	1.97186264270E-05	-1.29386097260E+02	4.04813146821E-05	4.17429244429E+01	1.46864774168E-01	-1.19750934351E+02
7.67855711423E+10	1.58710047453E-01	-6.60264526573E+01	2.09342121315E-05	-1.50824213186E+02	8.40417753463E-05	5.59263693603E+01	1.46138416868E-01	-1.21137883367E+02
7.67915831663E+10	1.57813858482E-01	-6.82363425160E+01	2.07125422270E-05	-1.79856997027E+02	4.77552623895E-05	2.38795437227E+00	1.47085391434E-01	-1.23046869259E+02
7.67975951904E+10	1.59156080092E-01	-6.79022800543E+01	4.34504629119E-06	-6.71381412087E+01	3.35827720625E-05	-1.29512762655E+02	1.44754337246E-01	-1.21687828785E+02
7.68036072144E+10	1.56598642200E-01	-6.86628748299E+01	8.28695986241E-06	-1.53416778398E+02	5.61221784254E-05	1.34543528915E+02	1.44124562623E-01	-1.22166292254E+02
7.68096192385E+10	1.56921860715E-01	-6.73264043846E+01	3.66647713552E-05	1.76424672858E+02	3.05177720862E-05	1.31111787572E+02	1.43396740601E-01	-1.22101866942E+02
7.68156312625E+10	1.56963261468E-01	-6.76424887947E+01	3.21742044517E-05	-6.06786406669E+01	3.16030945626E-05	-1.60006190160E+02	1.42834522981E-01	-1.23847738151E+02
7.68216432866E+10	1.56331048659E-01	-6.80381241057E+01	8.09359241328E-05	-4.35864380308E+01	2.41992217774E-05	-1.05829243745E+02	1.41165333324E-01	-1.23939989749E+02
7.68276553106E+10	1.55586039691E-01	-6.81685779704E+01	5.57474736382E-05	-1.76924024232E+02	7.62803109467E-05	-1.04400255861E+02	1.39859006107E-01	-1.22068815718E+02
7.68336673347E+10	1.55786844139E-01	-6.79691592364E+01	1.79443960735E-05	1.67476590145E+02	4.95082776752E-05	1.17449146949E+01	1.40735128683E-01	-1.24202694418E+02
7.68396793587E+10	1.56279662858E-01	-6.73300944928E+01	4.00014060099E-05	6.50657179085E+01	2.70324120125E-05	-1.23324969815E+02	1.38751785789E-01	-1.23761362164E+02
7.68456913828E+10	1.57610988666E-01	-6.87874031788E+01	1.77360768866E-05	1.74232544634E+02	4.03360639000E-05	-8.00670447839E+01	1.39103794182E-01	-1.25251866054E+02
7.68517034068E+10	1.55276927550E-01	-6.73279923634E+01	3.74552393188E-05	-1.59760046138E+02	4.38525144644E-05	-1.41731158266E+02	1.38042347538E-01	-1.25793777728E+02
7.68577154309E+10	1.54495473693E-01	-6.95582032807E+01	4.50398091028E-05	5.07689757921E+01	4.04184710754E-05	-1.60194156192E+02	1.37952397913E-01	-1.25958980256E+02
7.68637274549E+10	1.56538956753E-01	-6.89621089707E+01	6.83758279035E-05	1.73540009790E+02	1.07024815921E-04	1.75443872538E+02	1.36281295583E-01	-1.24975675128E+02
7.68697394790E+10	1.53643819459E-01	-6.75736837462E+01	2.34367894608E-05	7.95101152894E+00	7.57961103703E-06	-1.36397994885E+02	1.35946431758E-01	-1.25855581340E+02
7.68757515030E+10	1.56196900736E-01	-6.93072097993E+01	2.15618938981E-05	-1.58959474539E+02	6.37090701671E-05	-1.63775416019E+02	1.34216159314E-01	-1.26134095092E+02
7.68817635271E+10	1.59106288769E-01	-7.07676420473E+01	5.13693906317E-05	-7.71572262217E+01	1.73649397457E-05	-1.60072867917E+02	1.32746878781E-01	-1.27934266738E+02
7.68877755511E+10	1.55413168410E-01	-6.97702653447E+01	6.84467215210E-05	4.55960843483E+01	5.77262024934E-05	1.45150986853E+01	1.32736239875E-01	-1.28167156725E+02
7.68937875752E+10	1.57537271920E-01	-7.04471739338E+01	1.66577392316E-05	3.86258888338E+01	2.75293935001E-05	9.17291109055E+01	1.31769689517E-01	-1.26943421253E+02
7.68997995992E+10	1.53678471100E-01	-6.92436360833E+01	2.30465884854E-05	4.19233002719E+00	3.08994257585E-05	1.44245402114E+02	1.31400800029E-01	-1.28246450950E+02
7.69058116232E+10	1.55953976956E-01	-7.05510976745E+01	6.78130540462E-05	-8.65722252320E-01	3.05330768884E-05	1.61175118074E+02	1.30681014583E-01	-1.29352468921E+02
7.69118236473E+10	1.53946629851E-01	-7.05362862205E+01	1.08706831066E-05	1.66282813856E+02	6.40567433742E-05	-8.07511547729E+01	1.29606970060E-01	-1.28660211953E+02
7.69178356713E+10	1.56456417781E-01	-7.11589236076E+01	3.96002461348E-05	1.28438043650E+02	9.64506894237E-05	-1.37371255867E+02	1.27994961669E-01	-1.28627958012E+02
7.69238476954E+10	1.56359720211E-01	-7.17793210466E+01	1.08877483639E-04	-9.56639331506E+01	1.18555535475E-04	-1.16716214220E+02	1.28601400608E-01	-1.30142067390E+02
7.69298597194E+10	1.59651113822E-01	-7.31457460006E+01	1.26192319822E-04	-1.15990984228E+02	3.84215274618E-05	-1.58872256595E+02	1.28046783831E-01	-1.31647815477E+02
7.69358717435E+10	1.55447844376E-01	-7.28670000695E+01	1.06677593040E-04	1.68011930693E+02	3.79824002264E-05	-1.14540953909E+02	1.26643039341E-01	-1.29817637975E+02
7.69418837675E+10	1.54613841383E-01	-7.23700310095E+01	4.87032698300E-05	1.03066615125E+02	6.16390906452E-05	1.38328659474E+02	1.25598826997E-01	-1.31865209524E+02
7.69478957916E+10	1.55563242319E-01	-7.14796402381E+01	5.42960906903E-05	1.19764874126E+02	4.82956347863E-05	6.68092616160E+01	1.23577197735E-01	-1.30343774619E+02
7.69539078156E+10	1.53889475645E-01	-7.10286071747E+01	5.34464036374E-05	4.55094536030E+01	3.45218978964E-05	-3.42239995248E+01	1.24620327084E-01	-1.31676002850E+02
7.69599198397E+10	1.54536230252E-01	-7.28534004877E+01	1.73824124090E-05	7.49911459371E+01	5.98588992739E-05	-1.65799191672E+02	1.23891479861E-01	-1.31895001099E+02
7.69659318637E+10	1.55493198655E-01	-7.27182908172E+01	7.76697163289E-05	1.00525812392E+02	1.45334906011E-05	5.03636433537E+01	1.21874168735E-01	-1.32707324281E+02
7.69719438878E+10	1.53247155217E-01	-7.28068430503E+01	7.27433940390E-05	1.27413265280E+02	4.53793528611E-05	4.41700086934E+01	1.21704859414E-01	-1.33379880987E+02
7.69779559118E+10	1.53093508429E-01	-7.24090872603E+01	1.10792858283E-05	-6.43590955377E+01	7.09389678556E-06	4.51088495830E+01	1.19462411396E-01	-1.32913267138E+02
7.69839679359E+10	1.53728057099E-01	-7.35437643946E+01	2.63553369220E-05	-6.38384169508E+01	7.84033440109E-05	-1.32416494876E+02	1.18262339533E-01	-1.32881793234E+02
7.69899799599E+10	1.52282662302E-01	-7.21597726187E+01	1.92160370064E-05	-1.55571701167E+02	4.18888122954E-05	-1.71646871082E+02	1.18368350290E-01	-1.34647363356E+02
7.69959919840E+10	1.51465652034E-01	-7.23322372454E+01	4.86323340502E-05	5.11877651541E+01	4.70866661901E-05	8.73731854170E+01	1.18039661530E-01	-1.35843506748E+02
7.70020040080E+10	1.52910635810E-01	-7.38423340893E+01	5.48544416419E-05	-1.49664641812E+02	4.44484710192E-05	3.69225480426E+01	1.16632117796E-01	-1.34306864555E+02
7.70080160321E+10	1.55068056289E-01	-7.52770986422E+01	6.81705501624E-05	4.82397392200E+01	1.01174184388E-04	6.69534792771E+01	1.15770549846E-01	-1.35304309275E+02
7.70140280561E+10	1.54150430780E-01	-7.36740208561E+01	1.08032261564E-04	8.52456569444E+01	3.28465250332E-05	3.65028424539E+01	1.15347187777E-01	-1.36342344100E+02
7.70200400802E+10	1.52911497342E-01	-7.36159487218E+01	1.75572988926E-05	-2.12180513708E+01	7.19598790288E-05	4.80390454577E+01	1.14400444694E-01	-1.36151153207E+02
7.70260521042E+10	1.52727887557E-01	-7.57506210256E+01	9.46379141103E-05	4.19271663301E+00	5.89703311125E-05	1.65949593410E+01	1.11611973947E-01	-1.34983219872E+02
7.70320641283E+10	1.52956027138E-01	-7.59114141461E+01	2.56551282331E-05	1.44607015489E+02	3.01063582891E-05	1.26892799825E+02	1.11699856734E-01	-1.37252348461E+02
7.70380761523E+10	1.52644908657E-01	-7.43173002085E+01	6.97664345252E-05	8.28172199804E+01	6.80168881713E-05	1.35705967688E+02	1.12950579016E-01	-1.38939392516E+02
7.70440881764E+10	1.51713835598E-01	-7.60657658913E+01	6.72742251401E-05	4.49458370061E+01	8.42934299479E-05	-2.98142401540E+01	1.11586003543E-01	-1.39142339859E+02
7.70501002004E+10	1.52149649517E-01	-7.51309184729E+01	1.18977558155E-05	9.75510763967E+01	4.76234539098E-05	8.64211067759E+01	1.09980780608E-01	-1.38784933556E+02
7.70561122244E+10	1.52918332625E-01	-7.48155751387E+01	9.11809652480E-05	5.67921149006E+01	7.14007689035E-05	1.61273579281E+01	1.07915654136E-01	-1.36895393464E+02
7.70621242485E+10	1.54025342339E-01	-7.68982476198E+01	8.21381960314E-05	6.28542082808E+00	9.05768062323E-05	-2.56838827824E+01	1.07470331887E-01	-1.39314891907E+02
7.70681362725E+10	1.51285872637E-01	-7.62134596366E+01	4.87759351509E-05	-1.03378775027E+02	7.35111893008E-05	-6.51293055165E+01	1.08119354732E-01	-1.40829549765E+02
7.70741482966E+10	1.50040015233E-01	-7.47152945859E+01	3.61496879871E-05	-1.79948270946E+02	6.13079443034E-05	-7.95950998067E+01	1.07646732634E-01	-1.41026257740E+02
7.70801603206E+10	1.51260834770E-01	-7.56232762847E+01	7.98560175488E-05	-1.75638813700E+02	4.88106470034E-05	-9.00060624893E+01	1.05914510423E-01	-1.40070519716E+02
7.70861723447E+10	1.50445471666E-01	-7.70024696381E+01	3.80930753473E-05	-1.20012479255E+02	2.86450440299E-05	1.52195950893E+02	1.05118565807E-01	-1.41224607735E+02
7.70921843687E+10	1.50094302737E-01	-7.69193429241E+01	3.06167808300E-05	1.17397355324E+02	2.69599466481E-05	3.24622862141E+01	1.04080179778E-01	-1.41146617468E+02
7.70981963928E+10	1.52611357625E-01	-7.68205917522E+01	2.22301560193E-05	7.67623388095E+01	5.47395213379E-05	1.07826800719E+01	1.02802990504E-01	-1.41090309081E+02
7.71042084168E+10	1.51875258829E-01	-7.61769370564E+01	3.42934228816E-05	7.38092604340E+01	3.53505798973E-05	-2.84596089605E+01	1.01812231586E-01	-1.41450711183E+02
7.71102204409E+10	1.52926081576E-01	-7.76110205411E+01	5.56752853609E-05	1.24099446523E+01	1.25408549777E-04	-3.06135631467E+01	1.01195841767E-01	-1.42129479331E+02
7.71162324649E+10	1.50029900370E-01	-7.65059055946E+01	1.01012550457E-05	-2.10839731615E+01	1.30561851716E-05	-1.48527367471E+02	1.01299122359E-01	-1.44533777082E+02
7.71222444890E+10	1.48397697152E-01	-7.78508559018E+01	4.61301283389E-05	-1.75493910290E+02	7.43301744551E-05	1.06736144654E+02	1.00039768353E-01	-1.44079963084E+02
7.71282565130E+10	1.48526367773E-01	-7.65769459115E+01	4.45451699742E-05	-1.65842372620E+02	4.14217155289E-05	7.57653038797E+01	9.78172245790E-02	-1.42345322364E+02
7.71342685371E+10	1.48658795904E-01	-7.65680786557E+01	2.19829204444E-05	-1.13039155203E+02	7.49015314507E-05	1.60984207652E+01	9.77708345979E-02	-1.44992608098E+02
7.71402805611E+10	1.53748136163E-01	-7.99442547065E+01	1.79311118248E-05	-1.59051415091E+02	8.19605093963E-05	-1.77041201672E+02	9.58428282682E-02	-1.42738854050E+02
7.71462925852E+10	1.48204081099E-01	-7.94251361153E+01	3.48974932218E-05	-8.60869074624E+01	4.48165927484E-05	-7.02492694205E+01	9.64734301856E-02	-1.45019917155E+02
7.71523046092E+10	1.48640271318E-01	-7.86619043356E+01	4.86112563886E-05	-1.69104308599E+02	5.20637533626E-05	-4.52265513565E+01	9.51786529916E-02	-1.46090926422E+02
7.71583166333E+10	1.51394517361E-01	-7.93080011730E+01	2.15733918862E-05	-1.40118844076E+02	2.32139698354E-05	1.26353252695E+02	9.45614258845E-02	-1.45547361311E+02
7.71643286573E+10	1.48482695636E-01	-7.75322551796E+01	9.79557371567E-06	2.12158008320E+01	2.66837258878E-05	7.52346368250E+01	9.28541710749E-02	-1.44498257907E+02
7.71703406814E+10	1.48509280069E-01	-8.02549231694E+01	2.13075810977E-05	-6.88128369809E+01	3.60651581277E-05	-7.12693672571E+01	9.11209166986E-02	-1.45408042144E+02
7.71763527054E+10	1.47019533613E-01	-7.88473862860E+01	6.28254418553E-05	2.79683570119E+00	5.86016428065E-05	-1.34906265844E+02	9.23856712839E-02	-1.47042385867E+02
7.71823647295E+10	1.47095593687E-01	-7.81460416393E+01	5.43250044004E-05	-1.38627699210E+02	4.63640339998E-05	-5.65027621816E+01	9.01179029843E-02	-1.45879505688E+02
7.71883767535E+10	1.46978347669E-01	-7.84558228535E+01	4.80417258103E-05	1.34808856273E+02	5.82411150594E-05	-1.32671973112E+02	8.91237788064E-02	-1.46567753279E+02
7.71943887776E+10	1.45868855852E-01	-7.85141521794E+01	3.99987119595E-05	1.61875612279E+02	8.69987225714E-05	3.60139024184E+00	8.84427248516E-02	-1.47016885909E+02
7.72004008016E+10	1.46610566900E-01	-8.03928879161E+01	2.33505572329E-05	6.48982141526E+01	5.18665393287E-05	-6.80512959328E+01	8.83139349294E-02	-1.48491059688E+02
7.72064128257E+10	1.46768116235E-01	-7.97609604930E+01	2.13771236861E-05	-7.13512037719E+01	5.68966914873E-05	1.65251084317E+02	8.71448744537E-02	-1.48895644942E+02
7.72124248497E+10	1.46728749061E-01	-8.00437952558E+01	4.29086952163E-05	-4.86148532506E+01	1.25410568986E-04	-6.04739239228E+01	8.50358385344E-02	-1.48434790540E+02
7.72184368737E+10	1.47626716566E-01	-8.08740007009E+01	6.73913189490E-05	-1.17959359574E+02	9.43110492215E-05	-1.02916487090E+02	8.46646155882E-02	-1.49139867450E+02
7.72244488978E+10	1.48426465933E-01	-8.15183488333E+01	6.52633779197E-05	-1.21753439585E+02	5.37762035408E-05	-1.16203493994E+02	8.42769102682E-02	-1.48759930288E+02
7.72304609218E+10	1.47267131514E-01	-8.08726223979E+01	2.55290741339E-05	4.27800354487E+01	2.78606502743E-05	-1.58730123255E+02	8.29229304564E-02	-1.48924165353E+02
7.72364729459E+10	1.47174410873E-01	-8.11232648490E+01	9.50409299145E-05	1.10641942228E+02	9.38890819730E-05	-1.74678107052E+02	8.23766000482E-02	-1.50142434971E+02
7.72424849699E+10	1.46731040552E-01	-8.03671129247E+01	9.62419182295E-05	-1.53914180897E+01	7.16222097205E-05	-1.85099641919E+01	8.14108017821E-02	-1.49693035116E+02
7.72484969940E+10	1.47341916632E-01	-8.29417804437E+01	5.81271436617E-05	4.28543537127E+01	3.72941483585E-05	1.26566856750E+01	8.01070391705E-02	-1.49624200465E+02
7.72545090180E+10	1.46235381342E-01	-8.22673739376E+01	3.10669978133E-05	9.10635300151E+00	4.16082297918E-05	-1.09697865535E+02	7.99221484647E-02	-1.50985705298E+02
7.72605210421E+10	1.44443758523E-01	-8.13137135154E+01	3.90918822975E-05	-4.03535455683E+01	8.19246127415E-05	-1.02736017285E+02	7.89390322364E-02	-1.52177615666E+02
7.72665330661E+10	1.47232129109E-01	-8.23654926331E+01	5.23629302738E-05	-5.91114286795E+01	5.71605966710E-05	-1.77717744973E+02	7.85884064350E-02	-1.52555630161E+02
7.72725450902E+10	1.45722662703E-01	-8.12610728165E+01	7.44278419951E-05	-1.47991951378E+02	9.06123247638E-05	-8.99101957590E+01	7.79166776232E-02	-1.52561573200E+02
7.72785571142E+10	1.47868024797E-01	-8.35026740367E+01	1.08546484764E-05	-1.70460422857E+02	2.47422511026E-05	-1.73585483472E+02	7.71153936603E-02	-1.52771525776E+02
7.72845691383E+10	1.45060466632E-01	-8.30667276682E+01	5.68990737619E-05	1.15293858933E+02	3.26056023558E-05	7.88518143772E+01	7.49889026612E-02	-1.52328528562E+02
7.72905811623E+10	1.43973925545E-01	-8.18441342102E+01	1.11960934272E-04	-7.73451588505E+01	2.13162569864E-05	-1.34476171471E+02	7.49295539036E-02	-1.53459285470E+02
7.72965931864E+10	1.43499489730E-01	-8.17861665697E+01	5.64554502450E-05	-6.31052313711E+01	6.59422249291E-05	-8.42201971152E+01	7.41236291727E-02	-1.54467146900E+02
7.73026052104E+10	1.42957405109E-01	-7.93745446564E+01	7.08993680379E-05	1.38639237730E+02	9.77249764677E-05	1.57248237037E+02	7.25831109407E-02	-1.53727178894E+02
7.73086172345E+10	1.44515667632E-01	-8.32860003571E+01	2.54460083610E-05	-1.54055754860E+02	3.14263155336E-05	4.76370510805E+01	6.99893505061E-02	-1.51915935959E+02
7.73146292585E+10	1.44805217724E-01	-8.33752321738E+01	5.66869391678E-05	1.99725463958E+01	3.72628151421E-05	1.23868418232E+02	7.05789963774E-02	-1.54016966533E+02
7.73206412826E+10	1.45482111261E-01	-8.29771799699E+01	4.51315461372E-05	1.69398447688E+01	1.82052089914E-05	-1.62864797180E+02	7.04512748318E-02	-1.55877777357E+02
7.73266533066E+10	1.42619289161E-01	-8.32826352639E+01	5.41716938281E-05	-1.64216892025E+02	2.38158084242E-05	7.39657570592E+01	6.96425365790E-02	-1.55916385248E+02
7.73326653307E+10	1.44310301864E-01	-8.38897203693E+01	2.90727174416E-05	-9.72754733255E+01	2.25117707815E-05	-6.49742158618E+01	6.81430116177E-02	-1.54197974014E+02
7.73386773547E+10	1.44644752325E-01	-8.43766567734E+01	1.09930470279E-05	1.35292219624E+02	4.46514978430E-05	8.67993984494E+01	6.62910689552E-02	-1.54802355013E+02
7.73446893788E+10	1.43399200046E-01	-8.56880624218E+01	7.79182163317E-05	1.56188713612E+02	5.53707860854E-05	1.22056249127E+02	6.62339749221E-02	-1.55526705925E+02
7.73507014028E+10	1.44890134152E-01	-8.62878919670E+01	3.87048880602E-06	7.87671736645E+01	7.11709017016E-05	8.57630768014E+01	6.64649863717E-02	-1.56270189690E+02
7.73567134269E+10	1.41144339669E-01	-8.36977884325E+01	2.11592130754E-05	8.80324794292E+01	5.96225402688E-05	5.33715514430E+01	6.39154337262E-02	-1.54329651752E+02
7.73627254509E+10	1.40962804991E-01	-8.38342319078E+01	2.44793465718E-05	9.92244747611E+01	5.65559868443E-05	1.74409318090E+00	6.39619897563E-02	-1.57120019080E+02
7.73687374749E+10	1.44401136577E-01	-8.45433035311E+01	2.56815273916E-05	6.66476243417E+01	5.73987167958E-05	5.40337123565E+00	6.38266899265E-02	-1.58825335540E+02
7.73747494990E+10	1.43540899274E-01	-8.49093115405E+01	6.83880196023E-05	9.31808913947E-03	1.01965465534E-05	-1.16854997534E+02	6.33172749598E-02	-1.58767375383E+02
7.73807615230E+10	1.40917410098E-01	-8.53786175170E+01	4.00758919273E-05	1.42084033801E+02	4.03225201255E-05	1.52509554091E+02	6.10779223605E-02	-1.56647971231E+02
7.73867735471E+10	1.41806132347E-01	-8.49662843308E+01	9.23983074332E-05	1.31247538381E+02	3.94063491053E-05	1.17497200437E+02	6.07398960910E-02	-1.58478320225E+02
7.73927855711E+10	1.42251955567E-01	-8.44251164885E+01	7.79985379353E-05	1.75023815217E+02	3.80146017070E-05	6.32922846966E+01	5.83554323260E-02	-1.56920126666E+02
7.73987975952E+10	1.41349800671E-01	-8.60105349737E+01	5.44072830633E-05	7.06649655053E+01	4.50871963985E-05	-1.64315711108E+01	5.86733257082E-02	-1.59351660272E+02
7.74048096192E+10	1.41638536709E-01	-8.57192116811E+01	1.90042393276E-05	5.13795308765E+01	1.93832321132E-05	-9.65406235217E+01	5.86597137604E-02	-1.59444481399E+02
7.74108216433E+10	1.41282820031E-01	-8.52465165605E+01	3.64684922572E-05	-7.33275928656E+01	8.64648888513E-05	-1.36259533615E+02	5.68897809178E-02	-1.58344079566E+02
7.74168336673E+10	1.40222460468E-01	-8.52394586957E+01	8.64418303718E-05	1.46306704671E+02	5.35744321296E-05	1.75829260434E+02	5.58972518125E-02	-1.59180983326E+02
7.74228456914E+10	1.39840074984E-01	-8.57646941860E+01	7.03069585408E-05	1.51062372360E+02	7.38018062950E-05	9.72407387847E+01	5.56345416291E-02	-1.58870611852E+02
7.74288577154E+10	1.40431491895E-01	-8.58586530446E+01	2.70563180749E-05	8.67436623511E+01	3.32000913432E-05	3.90656784417E+01	5.52277070526E-02	-1.60209551320E+02
7.74348697395E+10	1.39141828197E-01	-8.47630102041E+01	4.98077514969E-05	7.83689576104E+01	7.90408585907E-05	2.43669842387E+01	5.45123246157E-02	-1.60907285797E+02
7.74408817635E+10	1.39576268622E-01	-8.56637688287E+01	8.41458823514E-05	2.30867937238E+01	3.58540859122E-05	-2.04379133701E+01	5.29344970909E-02	-1.60639541788E+02
7.74468937876E+10	1.39463741174E-01	-8.66021808469E+01	4.64189200519E-05	-1.72106286743E+01	4.53446299673E-05	8.86327786481E+01	5.15714116568E-02	-1.59254634412E+02
7.74529058116E+10	1.39095767686E-01	-8.72983245582E+01	4.47598093454E-05	-6.59715141841E+01	3.31188755569E-05	-1.06701428128E+02	5.19922555805E-02	-1.60197003643E+02
7.74589178357E+10	1.38480520474E-01	-8.72358246489E+01	7.28503068051E-05	5.12485809786E+01	5.85631601370E-05	6.73867480929E+01	5.06589559882E-02	-1.60218623396E+02
7.74649298597E+10	1.38429698143E-01	-8.71501334846E+01	8.92383982131E-05	1.27891775944E+02	1.38656258188E-05	1.60784869558E+02	4.96555225656E-02	-1.61294241492E+02
7.74709418838E+10	1.40828175093E-01	-8.71158794884E+01	7.80020450414E-06	2.17381350658E+00	2.65859612638E-05	1.31522891315E+02	5.01254264165E-02	-1.62346170647E+02
7.74769539078E+10	1.43069738541E-01	-8.73503080924E+01	1.27348972662E-04	7.21265910152E+00	3.65086834534E-05	2.43463950304E+01	4.88771826565E-02	-1.62357079214E+02
7.74829659319E+10	1.39127442163E-01	-8.65216419612E+01	5.52629091788E-05	-1.03161121933E+02	8.06232739728E-05	3.74373152785E+01	4.76383157021E-02	-1.62157306001E+02
7.74889779559E+10	1.39237480304E-01	-8.70926544264E+01	1.83411072996E-05	-1.01618307059E+02	6.24158015359E-05	-5.55751831717E+00	4.63435212941E-02	-1.61263183388E+02
7.74949899800E+10	1.38165226414E-01	-8.78223514947E+01	5.07033370583E-05	8.68724831948E+01	4.90339966586E-05	-2.21398010449E+01	4.64966395144E-02	-1.63778680238E+02
7.75010020040E+10	1.36686610825E-01	-8.88409005256E+01	4.26874627097E-05	2.18257731886E+00	9.66567942925E-06	1.65182402540E+02	4.60290948910E-02	-1.63450581984E+02
7.75070140281E+10	1.40257864344E-01	-8.87975554811E+01	6.90929460303E-05	1.79849782801E+01	7.21534412795E-05	8.55204450683E+00	4.40719517240E-02	-1.62400775261E+02
7.75130260521E+10	1.39103506298E-01	-8.66942087778E+01	4.31064271021E-05	-8.76406490682E+01	6.78078406494E-05	-8.09184769023E+01	4.41315382795E-02	-1.63891081344E+02
7.75190380762E+10	1.37389757140E-01	-8.61842023937E+01	2.01493805339E-05	1.44908270589E+02	4.29762164585E-05	1.32983324528E+02	4.37255046726E-02	-1.65215478069E+02
7.75250501002E+10	1.39932866614E-01	-8.78456725286E+01	7.52343305745E-05	7.75547541313E+01	6.41177471786E-05	1.02572380582E+02	4.26535073538E-02	-1.64576393950E+02
7.75310621242E+10	1.36758944231E-01	-8.74348879628E+01	1.81838070492E-05	-5.19367502484E+01	5.68910270183E-05	6.50877153660E+01	4.20169344616E-02	-1.63935091977E+02
7.75370741483E+10	1.37533494274E-01	-8.98081211473E+01	7.70002587906E-05	-5.35827778997E+01	9.85765511757E-05	4.09606230131E+00	4.14989930025E-02	-1.64101897714E+02
7.75430861723E+10	1.39120177839E-01	-8.67636242980E+01	6.02665808504E-05	-1.14608688490E+02	5.91702902795E-05	-9.94642374165E+00	4.01403162318E-02	-1.64063524411E+02
7.75490981964E+10	1.39683603488E-01	-8.76111124533E+01	3.23710380749E-05	-8.26974191037E+01	2.73561461866E-05	1.20352081159E+01	3.98793987191E-02	-1.65708150418E+02
7.75551102204E+10	1.39372599641E-01	-8.85697176945E+01	1.46924163466E-05	-1.74866650141E+02	5.18068320292E-05	-1.60688243291E+01	3.93445815608E-02	-1.66393116427E+02
7.75611222445E+10	1.38435634468E-01	-8.86213631780E+01	7.24187643280E-05	-3.55797103977E+01	8.51695774080E-05	-1.71271572376E+01	3.80839611432E-02	-1.65576989599E+02
7.75671342685E+10	1.38658565321E-01	-8.98415550743E+01	1.62360779133E-05	-5.96634631526E+01	3.19318249743E-05	2.71103218685E+01	3.70567739089E-02	-1.65625705314E+02
7.75731462926E+10	1.36354958139E-01	-9.07976510896E+01	9.75121719772E-05	6.93936925671E+01	1.21486267636E-04	-1.81063824704E+01	3.67286672738E-02	-1.65882278527E+02
7.75791583166E+10	1.36857684371E-01	-9.11123488513E+01	4.16883584164E-05	-1.44512560214E+02	3.77053060814E-05	-6.88820199552E+01	3.67088091672E-02	-1.66702905790E+02
7.75851703407E+10	1.36157443270E-01	-9.00285977180E+01	1.58410850229E-05	-1.10465716874E+02	4.34578299495E-05	-5.44312578538E+01	3.53739845077E-02	-1.67581527846E+02
7.75911823647E+10	1.37012188179E-01	-9.06237372014E+01	7.20208220078E-05	-5.16517904736E+01	7.39050687518E-05	-7.71070919016E+01	3.43586511098E-02	-1.66570254221E+02
7.75971943888E+10	1.34397871311E-01	-8.91286065556E+01	9.83614530685E-06	1.25658398305E+02	1.36512520102E-04	-6.96767649751E+01	3.35889491635E-02	-1.66661434099E+02
7.76032064128E+10	1.34549220625E-01	-8.96113701507E+01	3.82865725270E-05	-9.97926890169E+01	9.01547582198E-05	-9.03692477672E+01	3.34628452572E-02	-1.67774251244E+02
7.76092184369E+10	1.35468218323E-01	-8.98296409602E+01	1.98341300506E-05	-1.67141192362E+02	1.39351678536E-04	-1.08208455376E+02	3.29407748789E-02	-1.68395082620E+02
7.76152304609E+10	1.37927128489E-01	-9.07847257028E+01	6.87305990420E-05	-1.51620906831E+02	1.04682231175E-04	-1.04801259357E+02	3.22066093520E-02	-1.69241383864E+02
7.76212424850E+10	1.35433375116E-01	-9.17383298097E+01	3.04187945252E-05	4.38748434782E+01	2.14440262787E-05	-1.32234831881E+02	3.13124699756E-02	-1.69023555239E+02
7.76272545090E+10	1.35978875890E-01	-9.25743206792E+01	2.90623856702E-05	-1.49965089915E+02	3.12103513550E-05	1.56676845759E+02	3.00947621644E-02	-1.67848410527E+02
7.76332665331E+10	1.36808971789E-01	-9.17751254303E+01	1.56472954029E-05	1.13673269426E+02	4.67528251947E-05	1.43773874636E+02	2.96935094635E-02	-1.67408839474E+02
7.76392785571E+10	1.35650901960E-01	-9.09884614362E+01	9.10778869482E-05	-1.58394671011E+02	4.26453190392E-05	1.66809087833E+02	2.91399106844E-02	-1.69107586573E+02
7.76452905812E+10	1.35189773604E-01	-9.05936159151E+01	2.95505164497E-05	-7.38076006733E+01	5.62024535252E-05	-1.23507133813E+02	2.79405424085E-02	-1.70295348192E+02
7.76513026052E+10	1.34669207804E-01	-9.10200271809E+01	6.59345533177E-05	-6.65371281568E+01	6.06038249366E-05	-7.80582005606E+01	2.68773779995E-02	-1.69096705697E+02
7.76573146293E+10	1.37417101872E-01	-9.20659906201E+01	1.09410993501E-04	-1.24573851199E+02	5.97129048967E-05	-8.71411277342E+01	2.66757155934E-02	-1.68563795150E+02
7.76633266533E+10	1.35079730965E-01	-9.18796822942E+01	5.04871742560E-05	-9.10760023414E+01	4.51003704666E-05	-6.39651752437E+01	2.62819356442E-02	-1.69936225446E+02
7.76693386774E+10	1.34651202348E-01	-9.02958492894E+01	9.09390180368E-05	-1.45139115209E+02	9.42370067257E-05	-1.49914029966E+02	2.57330114338E-02	-1.70092436654E+02
7.76753507014E+10	1.33883873896E-01	-9.25881830777E+01	5.31230666866E-05	-1.77918824579E+02	1.43496575179E-04	1.60844417612E+02	2.48495297033E-02	-1.70559776906E+02
7.76813627255E+10	1.33125207959E-01	-8.99357186811E+01	1.22916036406E-04	1.64192470205E+02	1.27460932566E-04	1.39705606666E+02	2.36609727235E-02	-1.71222062212E+02
7.76873747495E+10	1.37460816201E-01	-9.28411382309E+01	4.23471943834E-05	1.53774187039E+02	5.73244564759E-05	1.41323037706E+02	2.31426504255E-02	-1.72034123894E+02
7.76933867735E+10	1.33927685442E-01	-9.30645473131E+01	2.39916893118E-05	8.32014239440E+01	5.04218233494E-05	9.20913586322E+01	2.26604005740E-02	-1.71736229525E+02
7.76993987976E+10	1.35981808008E-01	-9.36712376515E+01	5.90333029880E-05	8.23358795031E+01	1.80081888746E-05	-1.65220467256E+02	2.21226552362E-02	-1.70981550930E+02
7.77054108216E+10	1.34191161854E-01	-9.34472153391E+01	7.42406787207E-05	-1.58464113874E+02	5.85706589524E-05	1.35710122158E+02	2.11693370340E-02	-1.72137787207E+02
7.77114228457E+10	1.36396399409E-01	-9.51061231364E+01	9.01906919277E-05	-1.76986976007E+02	7.15849933506E-05	-1.76754255826E+02	2.03139765777E-02	-1.72131365522E+02
7.77174348697E+10	1.32194565708E-01	-9.07751441450E+01	1.79540883842E-05	5.08443553644E+01	6.64130646647E-05	1.50745569467E+02	1.97910153496E-02	-1.72817899240E+02
7.77234468938E+10	1.31705331788E-01	-9.16452122786E+01	3.59107274909E-05	1.70595823939E+02	6.12359803762E-05	1.55175016175E+02	1.88204914919E-02	-1.72262737261E+02
7.77294589178E+10	1.36163078727E-01	-9.51942583373E+01	7.75274477652E-05	1.53921937716E+02	7.82666730600E-05	1.48784484901E+02	1.79746061850E-02	-1.72956012149E+02
7.77354709419E+10	1.33086694619E-01	-9.44603971991E+01	6.76251631875E-05	1.49906975407E+02	3.44277045682E-05	1.04437198950E+01	1.72730261432E-02	-1.73067699312E+02
7.77414829659E+10	1.32359982207E-01	-9.20803681470E+01	4.12578666088E-05	1.51788483595E+02	4.07679358534E-05	-1.06151304270E+02	1.65498654046E-02	-1.74569496511E+02
7.77474949900E+10	1.33945158404E-01	-9.50133971046E+01	1.20976743744E-05	1.04939176211E+02	4.93752802769E-05	1.15699651670E+02	1.58676018728E-02	-1.72320241376E+02
7.77535070140E+10	1.32770936662E-01	-9.28365261228E+01	1.26599003535E-04	1.08297688864E+02	7.93234632359E-05	1.20653329936E+02	1.53688468941E-02	-1.72592618834E+02
7.77595190381E+10	1.34049996361E-01	-9.59190130182E+01	7.68410961326E-05	1.50756782629E+02	6.24185622446E-05	1.15909625524E+02	1.46996159994E-02	-1.73832025685E+02
7.77655310621E+10	1.31796633823E-01	-9.51910895136E+01	5.08617418104E-05	8.78151574137E+01	4.23377743099E-05	8.83114042610E+01	1.38954513021E-02	-1.75050639111E+02
7.77715430862E+10	1.32955405520E-01	-9.48086846368E+01	7.15629844618E-05	9.02224483765E+01	6.44769149990E-05	9.60973334457E+01	1.30136293762E-02	-1.76707332000E+02
7.77775551102E+10	1.34931888141E-01	-9.68512867393E+01	8.37889286437E-05	3.92117742875E+01	5.69527339473E-05	1.12570491068E+02	1.22675929949E-02	-1.72591862234E+02
7.77835671343E+10	1.34683773604E-01	-9.69872625785E+01	3.63343762493E-05	5.38922575905E+01	8.88282369415E-05	6.86765303621E+01	1.16064314085E-02	-1.74387519800E+02
7.77895791583E+10	1.31221313287E-01	-9.22518128290E+01	6.71849809454E-05	8.20855897769E+01	7.76001745491E-05	1.01391904737E+02	1.07989406769E-02	-1.74975786801E+02
7.77955911824E+10	1.33352263619E-01	-9.54639472830E+01	4.38279175272E-05	8.18471799172E+01	5.39358208417E-05	-2.46439049435E-01	1.02311202490E-02	-1.74988570113E+02
7.78016032064E+10	1.31357440685E-01	-9.47238958314E+01	3.53672979692E-05	-7.18316508749E+01	5.38698065677E-05	4.75490350251E+01	9.33265770337E-03	-1.74351297860E+02
7.78076152305E+10	1.32014063575E-01	-9.63073318232E+01	2.41071171458E-05	-3.08259994027E+01	4.88606409604E-05	8.00241940942E+01	8.47321322292E-03	-1.73444982125E+02
7.78136272545E+10	1.34344894627E-01	-9.76509080747E+01	4.03198928665E-05	-5.19344070194E+01	5.41048861643E-06	1.78044293500E+02	7.68533375760E-03	-1.66998819748E+02
7.78196392786E+10	1.32375838628E-01	-9.52680569764E+01	5.64029541554E-05	4.25544850618E+01	9.55296748981E-05	7.41698410223E+01	7.34758667879E-03	-1.73334179798E+02
7.78256513026E+10	1.32292990523E-01	-9.53638014481E+01	1.18970526379E-05	1.55766279485E+02	9.38328588288E-05	3.42664593401E+01	6.58780876507E-03	-1.74240984532E+02
7.78316633267E+10	1.30552181254E-01	-9.68583111600E+01	3.88856952938E-05	1.51908901549E+01	5.95213397862E-05	3.85299171143E+01	5.72893602480E-03	-1.66443543453E+02
7.78376753507E+10	1.30499562901E-01	-9.46663746103E+01	8.19038409650E-05	1.20120422302E+01	1.11880016400E-04	-5.95270566246E+00	5.20791983221E-03	-1.67020210769E+02
7.78436873747E+10	1.32187457359E-01	-9.70666015670E+01	3.15747900405E-05	7.60401661388E+01	1.07002633353E-04	-1.43291587921E+01	4.32048328157E-03	-1.60374533974E+02
7.78496993988E+10	1.33115248893E-01	-9.79463973047E+01	3.58947638347E-05	4.79225396414E+01	1.30149632445E-04	-1.73621342983E+01	3.96708564453E-03	-1.70461367977E+02
7.78557114228E+10	1.30274717313E-01	-9.80988117825E+01	2.35050466889E-05	-2.00281636067E+01	9.15174377299E-05	-3.66560770235E+01	3.14807776420E-03	-1.60535789652E+02
7.78617234469E+10	1.29545281191E-01	-9.66940639644E+01	2.84968336712E-05	-1.05379431142E+02	7.88866691451E-05	-5.69568878715E+01	2.56729989402E-03	-1.51075409553E+02
7.78677354709E+10	1.30004925703E-01	-9.66792714314E+01	2.47820486599E-05	7.66180017064E+01	2.24502697774E-05	-5.97304818811E+01	2.05335967239E-03	-1.29043103865E+02
7.78737474950E+10	1.29058250136E-01	-9.54150369956E+01	5.85668941734E-05	-4.64869907377E+01	5.49791238489E-05	-5.98662866995E+00	1.51964178268E-03	-1.33550810191E+02
7.78797595190E+10	1.30351177691E-01	-9.79209678419E+01	3.22761131051E-05	-8.35075895344E+01	4.60709899348E-05	3.42709690709E+00	8.62484253265E-04	-1.57049329378E+02
7.78857715431E+10	1.27855376037E-01	-9.74003189047E+01	5.74770922228E-05	2.20215848634E+01	5.49455220220E-05	2.03775610539E+00	1.72660828562E-03	-5.62509780888E+01
7.78917835671E+10	1.29846116801E-01	-9.74675816144E+01	8.00528759802E-05	-8.19893078900E+00	4.65500878811E-05	1.91033607333E+01	2.26538336180E-03	-4.63135707132E+01
7.78977955912E+10	1.31313330174E-01	-9.94594785318E+01	3.49029387464E-05	-2.88648004140E+01	9.35610203593E-05	-2.88336600065E+01	2.21837531821E-03	-3.76291928271E+01
7.79038076152E+10	1.30599137513E-01	-9.97382792698E+01	5.08048413639E-05	-1.04326448416E+00	1.02444536241E-04	-3.30646639565E+01	3.09238719504E-03	-3.26844521914E+01
7.79098196393E+10	1.28618581698E-01	-9.64702446796E+01	5.67115066631E-05	-6.56644337227E+01	3.92049425377E-05	2.93859485901E+00	3.86701423593E-03	-3.07134145284E+01
7.79158316633E+10	1.29509181618E-01	-9.77294098983E+01	2.60431634994E-05	-1.03676297970E+02	6.19596433136E-05	-1.60008477875E+01	3.99688900746E-03	-2.81399719554E+01
7.79218436874E+10	1.28650175297E-01	-9.78390843260E+01	4.67171945172E-05	-7.51179939638E+01	4.93968701242E-05	-8.62015491373E+01	4.47672992663E-03	-2.21845628038E+01
7.79278557114E+10	1.30154784105E-01	-9.99497746489E+01	2.07708724770E-05	-3.73174985853E+00	3.04259048502E-05	-6.09303614227E+01	6.35389969284E-03	-2.47993395235E+01
7.79338677355E+10	1.31102858804E-01	-9.88974098987E+01	9.38077350392E-05	-8.00247429298E+01	1.12599657926E-04	-8.79868604928E+01	5.53560296026E-03	-1.78505861865E+01
7.79398797595E+10	1.29330857216E-01	-9.88841504160E+01	1.36677909180E-04	-7.35747578497E+01	5.96398883425E-05	-9.40592812619E+01	6.46377345172E-03	-1.90598466290E+01
7.79458917836E+10	1.27917962077E-01	-9.75521434496E+01	8.06211768777E-05	-8.02455911634E+01	1.14096554635E-04	-1.01972877822E+02	8.23139595768E-03	-2.00434725525E+01
7.79519038076E+10	1.27144542492E-01	-9.88674433873E+01	3.02894358186E-05	-1.38365769450E+02	7.84981553404E-05	-9.45005043388E+01	7.97149541807E-03	-1.76770796986E+01
7.79579158317E+10	1.27535254506E-01	-9.77541855222E+01	5.20079517275E-05	1.28998489542E+02	7.21714251659E-05	-1.24240591053E+02	9.61940506473E-03	-2.11868128515E+01
7.79639278557E+10	1.28652770616E-01	-9.80649145274E+01	7.01305558049E-05	-1.13602195598E+02	7.04513194274E-05	-9.98401332935E+01	8.84816184809E-03	-1.48145898034E+01
7.79699398798E+10	1.26692903977E-01	-9.85019754697E+01	8.19986595624E-05	-1.52500729107E+02	5.85026763851E-05	-9.81148078667E+01	1.14146824683E-02	-2.12630849261E+01
7.79759519038E+10	1.27808342941E-01	-1.00085599410E+02	8.88421693152E-05	1.63690085413E+02	5.95728825828E-05	-1.69776505204E+02	1.04948918154E-02	-1.78801689696E+01
7.79819639279E+10	1.30382167323E-01	-1.00769446214E+02	4.34883456820E-05	1.39827675025E+02	2.42637998869E-05	-1.14827776183E+02	1.17941039938E-02	-1.89109692487E+01
7.79879759519E+10	1.27633184779E-01	-9.94407899172E+01	2.33323373354E-05	1.66493543255E-01	5.18971733504E-05	-6.85058238029E+01	1.30993079089E-02	-2.11036189862E+01
7.79939879760E+10	1.28728203314E-01	-9.98455844980E+01	6.02327847665E-05	-1.17003833248E+02	1.11828054958E-04	-1.27592390939E+02	1.29366369806E-02	-2.19041212497E+01
7.80000000000E+10	1.28127638322E-01	-1.00788138155E+02	5.43444774799E-05	-8.91301938400E+01	1.14327602945E-04	-1.46866213453E+02	1.23707211360E-02	-1.87889738967E+01
