# Hz S MA R 50
! CMT, C4420, 21421029, 25.1.2/3
! Date: 8/7/2025 1:30:45 PM
! Data: Format (Calibration Info)
! Freq	S33:Mag/Ang(F2)	S43:Mag/Ang(F2)	S34:Mag/Ang(F2)	S44:Mag/Ang(F2)
7.50000000000E+10	1.97772184592E-01	-1.26771603856E+01	9.81887913488E-05	-1.47418466438E+02	7.40895487466E-05	-1.75588013826E+02	2.71236142091E-01	-2.65448685516E+01
7.50060120240E+10	1.98428644173E-01	-1.26571152054E+01	7.07619288375E-05	1.44661357299E+02	1.35223694626E-04	1.37614029787E+02	2.71880692419E-01	-2.74380254026E+01
7.50120240481E+10	2.01458786551E-01	-1.41742086425E+01	4.42726972917E-05	1.48768527701E+02	2.98668451172E-05	-1.74560304288E+02	2.73664619606E-01	-2.82339086058E+01
7.50180360721E+10	2.00253384697E-01	-1.50829319828E+01	1.13217561282E-04	1.00331964774E+02	4.15346354321E-05	1.04528221123E+02	2.71704611711E-01	-2.80778422707E+01
7.50240480962E+10	2.00998501560E-01	-1.55063443311E+01	2.57890983173E-05	-7.92470820374E+01	5.09444255177E-05	-1.19705495419E+02	2.71463480363E-01	-2.87139183234E+01
7.50300601202E+10	1.98366970871E-01	-1.32560890244E+01	3.15306819725E-05	1.15261754449E+02	7.19729851584E-06	1.22070461623E+02	2.68815618774E-01	-2.74885138509E+01
7.50360721443E+10	2.00831377464E-01	-1.50455472915E+01	2.18998776106E-05	1.57669433577E+02	8.02961977810E-05	1.08262673745E+02	2.70285893591E-01	-2.85082005607E+01
7.50420841683E+10	2.00388214881E-01	-1.52396970992E+01	9.42193097768E-06	-1.02708368302E+02	3.70192590952E-05	1.56442528686E+02	2.71004365283E-01	-2.91828733186E+01
7.50480961924E+10	1.97981433166E-01	-1.58010638433E+01	5.89243734411E-05	-1.67284701290E+02	1.36771724469E-04	1.51353812404E+02	2.65935213383E-01	-2.91911477666E+01
7.50541082164E+10	1.97188153974E-01	-1.66710174767E+01	1.00223572024E-04	1.42188857900E+02	6.21309495362E-05	1.51163604019E+02	2.65099344115E-01	-2.79791410104E+01
7.50601202405E+10	2.00569801412E-01	-1.63873999312E+01	7.36155777968E-06	-1.53568393481E+02	5.39221961391E-05	1.30214428793E+02	2.72147901002E-01	-3.03747794859E+01
7.50661322645E+10	2.02167598628E-01	-1.73650858910E+01	1.70398467130E-05	-1.68712905562E+02	8.68591715139E-05	1.19432239731E+02	2.71317333583E-01	-3.12136007541E+01
7.50721442886E+10	1.98617837406E-01	-1.69055190283E+01	1.13070146925E-04	1.45450867474E+02	2.42028391890E-05	1.77768123014E+02	2.67130575392E-01	-2.97117683305E+01
7.50781563126E+10	1.98726952444E-01	-1.76080053085E+01	6.17521746463E-05	1.20749346408E+02	1.15217618493E-04	1.16719257459E+02	2.64813845034E-01	-2.89613065875E+01
7.50841683367E+10	1.95324002614E-01	-1.55329336680E+01	8.70451690842E-05	9.07201740503E+01	8.06442494583E-05	1.15653768709E+02	2.71839669586E-01	-3.11486115579E+01
7.50901803607E+10	1.98393844801E-01	-1.67792088077E+01	1.38936164917E-05	1.21615759714E+02	8.54358015119E-05	1.07343726531E+02	2.68953074003E-01	-2.97853179875E+01
7.50961923848E+10	2.00095305612E-01	-1.79138666320E+01	9.33261348455E-05	6.79917581867E+01	8.41452989732E-05	4.05008413413E+01	2.67664416194E-01	-3.15562192130E+01
7.51022044088E+10	1.95250518374E-01	-1.49762277816E+01	1.05902044576E-04	1.32903202431E+02	4.66971570172E-05	1.30421293651E+02	2.69663191416E-01	-3.17588386179E+01
7.51082164329E+10	1.94922189729E-01	-1.66984770836E+01	3.40752910295E-05	5.30568254941E+01	3.17801481696E-05	5.95021104663E+01	2.69825648950E-01	-3.21432266908E+01
7.51142284569E+10	1.95253429817E-01	-1.78423287743E+01	3.53562317968E-05	7.54982477449E+01	4.48857412672E-05	1.39862614017E+02	2.70456313355E-01	-3.32881445994E+01
7.51202404810E+10	1.98316225301E-01	-1.90349954980E+01	1.07700205606E-04	7.39311628422E+01	6.55759550907E-05	1.13252277361E+02	2.66823082389E-01	-3.18075128361E+01
7.51262525050E+10	1.96279129091E-01	-1.87542231746E+01	1.34851264249E-04	7.19106927134E+01	6.25548078342E-05	-1.57756055613E+02	2.65461084331E-01	-3.29935924480E+01
7.51322645291E+10	1.96611970355E-01	-1.80031113871E+01	1.28474437268E-04	6.30190090377E+01	7.85563758381E-05	7.54786836955E+01	2.67513259183E-01	-3.24226245929E+01
7.51382765531E+10	1.95214786231E-01	-1.72061125889E+01	9.38982328653E-05	5.84425124070E+00	9.16644756713E-05	5.39676247395E+01	2.66158572182E-01	-3.34531351294E+01
7.51442885772E+10	1.94269849929E-01	-1.71933250576E+01	1.11278627780E-04	3.36924196130E+01	4.15245326022E-05	7.31591263056E+00	2.67974054710E-01	-3.29370907117E+01
7.51503006012E+10	1.93225927342E-01	-1.75230030615E+01	5.14267167344E-05	4.04795374468E+01	4.89374538974E-05	3.56400331769E+00	2.67450027772E-01	-3.45577371263E+01
7.51563126253E+10	1.92129486998E-01	-1.88684659917E+01	8.66489514131E-05	4.42915368888E+01	9.13818159044E-05	-8.60320004396E-01	2.63819339653E-01	-3.30620829366E+01
7.51623246493E+10	1.97341515924E-01	-2.07203753016E+01	1.84272976707E-05	-1.69127816940E+01	1.00991647279E-04	5.93411558459E+00	2.64207410860E-01	-3.31903364614E+01
7.51683366733E+10	1.93455504061E-01	-1.98471195829E+01	6.21233493063E-05	7.47403343924E+01	9.59708964001E-05	-2.51601633608E+01	2.69704074019E-01	-3.47830998263E+01
7.51743486974E+10	1.98144664741E-01	-2.12794995980E+01	3.14294315291E-05	-7.29965351476E+00	2.68074854744E-05	4.12147447306E+01	2.65579212689E-01	-3.43456694714E+01
7.51803607214E+10	1.93053178429E-01	-1.80429584177E+01	3.69103128875E-05	3.76480346479E+01	5.87969450836E-05	7.23927129523E+01	2.64437734039E-01	-3.51054705920E+01
7.51863727455E+10	1.95345526271E-01	-1.91900265477E+01	2.26061232126E-05	4.88015997458E+00	1.51378571200E-04	1.98955274261E+01	2.66217778691E-01	-3.53099824775E+01
7.51923847695E+10	1.92300027794E-01	-1.98395741428E+01	7.33827968187E-05	-4.10588583126E+01	1.84062720032E-05	1.89248506872E+01	2.65824592822E-01	-3.46824450163E+01
7.51983967936E+10	1.91502540523E-01	-1.78377746797E+01	7.12036017060E-05	-5.39956135992E+01	2.51450245872E-05	4.06434331480E+01	2.68924811976E-01	-3.63270381618E+01
7.52044088176E+10	1.96463874993E-01	-2.04270054399E+01	2.83555040574E-05	6.00247846104E+01	3.40163810505E-05	-1.00202237712E+01	2.67523564143E-01	-3.67363764580E+01
7.52104208417E+10	1.94408299299E-01	-2.09085671544E+01	4.30197246637E-05	6.85783536264E+01	2.12180469145E-05	2.29279476534E+01	2.63245683628E-01	-3.60244454033E+01
7.52164328657E+10	1.96364154083E-01	-2.22480454826E+01	4.04627445103E-05	2.26435118591E+01	5.48479892093E-05	6.93836150364E+01	2.66609444133E-01	-3.72413880080E+01
7.52224448898E+10	1.92826632368E-01	-2.04121373491E+01	7.58347295367E-05	1.40733365481E+02	5.38251524935E-05	7.49799620394E+01	2.62594020072E-01	-3.63475041486E+01
7.52284569138E+10	1.96007266356E-01	-2.02183506036E+01	6.58437493183E-05	1.56343787053E+01	1.77486137920E-04	5.46924715478E+01	2.62608766041E-01	-3.72623028972E+01
7.52344689379E+10	1.92876447359E-01	-2.11715088736E+01	6.74248429770E-05	8.15234989835E+01	6.88269793608E-05	-2.09740037076E+00	2.69099882906E-01	-3.95391550778E+01
7.52404809619E+10	1.93664747563E-01	-1.92988494655E+01	9.00954583582E-05	-1.71357368037E+01	1.17884918806E-04	1.29637680853E+01	2.61892917139E-01	-3.67315442698E+01
7.52464929860E+10	1.95251952030E-01	-2.27563814640E+01	1.05089690620E-05	1.58033217927E+02	5.98307756140E-05	-2.94031151649E+01	2.64378858741E-01	-3.80524120914E+01
7.52525050100E+10	1.92488926782E-01	-2.34852035231E+01	6.05887360530E-05	3.42382163344E+01	1.22603605484E-05	-3.88267441911E+00	2.67083950045E-01	-4.00746258089E+01
7.52585170341E+10	1.91560708053E-01	-2.20813659437E+01	6.30290768516E-05	1.12319801497E+01	7.95808664143E-05	1.18126698740E+01	2.65568140435E-01	-3.93224761311E+01
7.52645290581E+10	1.94399527976E-01	-2.26882002665E+01	5.45444744510E-05	3.37259345257E+00	5.68151242531E-05	-4.77222839614E+01	2.63736432097E-01	-3.86970260679E+01
7.52705410822E+10	1.92817491081E-01	-2.27091171972E+01	8.34232021845E-05	-8.39899374710E+01	2.60505442203E-05	-1.26216647942E+02	2.61106662921E-01	-3.89133960123E+01
7.52765531062E+10	1.90029633872E-01	-2.11542720732E+01	7.59923875931E-05	-2.82514784408E+01	3.66629257565E-05	-1.69697431405E+02	2.62251832706E-01	-4.02435696803E+01
7.52825651303E+10	1.89052577640E-01	-2.18542978158E+01	2.14981291585E-05	1.58520030634E+02	5.49437469113E-05	4.21814986603E+01	2.62704264927E-01	-4.07306773565E+01
7.52885771543E+10	1.91516752458E-01	-2.24204040420E+01	1.03672137363E-04	-1.73611460410E+01	1.13105505908E-04	-7.95780927088E+00	2.66875134642E-01	-4.17156156758E+01
7.52945891784E+10	1.94135422828E-01	-2.30430754202E+01	2.58629447300E-05	2.59694405977E+00	4.96750830040E-05	-9.87421565476E+01	2.65807492230E-01	-4.12683927383E+01
7.53006012024E+10	1.93181883379E-01	-2.36245588601E+01	5.61740155124E-05	-1.52334480092E+01	8.67429120951E-05	-1.07832589896E+01	2.59810586731E-01	-3.99523013277E+01
7.53066132265E+10	1.90297907793E-01	-2.36332140415E+01	1.02457470359E-04	-5.30106702055E+01	2.66964771118E-05	-2.12886719866E+01	2.59659287007E-01	-4.05840369468E+01
7.53126252505E+10	1.89225864307E-01	-2.32701794297E+01	2.58975630457E-05	-2.02503198117E+00	9.80731607285E-05	-6.09039001068E+01	2.58623702784E-01	-4.15643827845E+01
7.53186372745E+10	1.91541683163E-01	-2.30216247737E+01	4.22214952994E-05	-1.19940892840E+02	1.11001438613E-04	-6.19142020222E+01	2.63167245726E-01	-4.29354147216E+01
7.53246492986E+10	1.91469648139E-01	-2.33486650478E+01	1.85001332051E-05	-4.85958711288E+01	9.02254791250E-05	-1.45415213248E+02	2.62615129894E-01	-4.21398049965E+01
7.53306613226E+10	1.91091438619E-01	-2.33071360639E+01	4.79532136826E-05	-9.44855270616E+01	7.14799016317E-05	-2.60017350074E+01	2.61753812270E-01	-4.17896872457E+01
7.53366733467E+10	1.89927085807E-01	-2.52465412541E+01	2.79046354141E-05	-5.52778262032E+01	7.26974210219E-05	-2.34150296070E+01	2.58840641045E-01	-4.31071840740E+01
7.53426853707E+10	1.89261245901E-01	-2.39628066595E+01	6.90978487727E-05	-9.76762322871E+01	8.80759488649E-05	-9.19025897315E+01	2.59299284458E-01	-4.27821613552E+01
7.53486973948E+10	1.93634913176E-01	-2.46890480038E+01	4.15478758776E-05	-1.05412099970E+02	8.50430774769E-05	-1.39769986841E+02	2.59821602437E-01	-4.36085574282E+01
7.53547094188E+10	1.89458091285E-01	-2.32120598302E+01	6.15165889573E-05	-1.40574011494E+02	8.42092678944E-05	-1.72866855438E+02	2.61444650384E-01	-4.43214242357E+01
7.53607214429E+10	1.88884343312E-01	-2.34214143294E+01	5.35952034507E-05	-1.03276494092E+02	1.15443080518E-04	-1.10760987825E+02	2.58936642248E-01	-4.40942541796E+01
7.53667334669E+10	1.89378332453E-01	-2.42900461040E+01	6.96758630152E-05	-1.12267608839E+02	3.34797295745E-05	1.36615025482E+02	2.55867020642E-01	-4.37683857671E+01
7.53727454910E+10	1.90783345050E-01	-2.48095533780E+01	1.18374320864E-04	-1.57392710293E+02	8.83093491507E-05	1.67600462489E+02	2.57420030388E-01	-4.42351350761E+01
7.53787575150E+10	1.89149640157E-01	-2.56800317753E+01	5.82142809883E-05	-5.56088730393E+01	1.11959299265E-04	-9.05031615867E+01	2.58695139416E-01	-4.53451758639E+01
7.53847695391E+10	1.89701794023E-01	-2.54666508965E+01	4.81102663158E-05	-1.17968096461E+02	1.05640196017E-04	-1.10359503186E+02	2.59134938413E-01	-4.55657603993E+01
7.53907815631E+10	1.86794278600E-01	-2.31285829664E+01	6.42035903654E-05	-1.60477578159E+02	5.27179720793E-05	-7.75929016070E+01	2.55742683269E-01	-4.51901144242E+01
7.53967935872E+10	1.88519775414E-01	-2.45512516327E+01	1.01879471762E-04	-1.42728217001E+02	1.20484537972E-04	-1.43047933777E+02	2.59886744777E-01	-4.59976850610E+01
7.54028056112E+10	1.90473672243E-01	-2.65143785365E+01	7.58724112851E-05	-1.54545129293E+02	6.38711261845E-05	-1.57459413232E+02	2.55696636665E-01	-4.47443967931E+01
7.54088176353E+10	1.86485638161E-01	-2.50640588108E+01	1.21666704354E-04	1.70406792950E+02	7.05731119380E-05	-1.60561738600E+02	2.54762348345E-01	-4.55875040237E+01
7.54148296593E+10	1.88364237333E-01	-2.51076605894E+01	1.11621098141E-04	1.50436873247E+02	5.07360406916E-05	1.70187404899E+02	2.52787562904E-01	-4.66717396653E+01
7.54208416834E+10	1.93452922297E-01	-2.74186889309E+01	4.86890973949E-05	1.79424514739E+02	5.37213432077E-05	-1.74589024292E+02	2.54917277299E-01	-4.62980290374E+01
7.54268537074E+10	1.91237292276E-01	-2.74663285368E+01	6.56099449819E-05	1.42947246471E+02	8.18158859247E-05	-1.54228382141E+02	2.56443221249E-01	-4.68267751097E+01
7.54328657315E+10	1.88773122822E-01	-2.75227837634E+01	3.10036417830E-05	-1.60712850867E+02	4.64954920169E-05	7.04613807058E+01	2.55516920085E-01	-4.77868795611E+01
7.54388777555E+10	1.88321706236E-01	-2.74358958814E+01	9.46898505570E-05	-1.74042504696E+02	3.27910545160E-05	-1.64295419388E+02	2.49885942216E-01	-4.66472854020E+01
7.54448897796E+10	1.86352786622E-01	-2.75594125608E+01	6.54347622224E-05	-1.79141086286E+02	8.77810342268E-05	1.33280726348E+02	2.54988666180E-01	-4.89503082955E+01
7.54509018036E+10	1.90323798454E-01	-2.73841606250E+01	6.99620426561E-05	1.60858261370E+02	1.18141896493E-04	1.49073448514E+02	2.51821446132E-01	-4.77195953958E+01
7.54569138277E+10	1.86381036918E-01	-2.58557688414E+01	7.71801325546E-05	1.32158102709E+02	7.69465353316E-05	-1.64102589784E+02	2.52730444515E-01	-4.91645323472E+01
7.54629258517E+10	1.88816764148E-01	-2.71112947606E+01	4.05328873246E-05	8.27466226877E+01	3.95557445631E-05	1.24961024003E+02	2.54760122220E-01	-4.95685845985E+01
7.54689378758E+10	1.89258115268E-01	-2.95267807750E+01	3.62761279650E-05	8.16049912601E+01	3.37053368865E-05	-1.61423744617E+02	2.53718971236E-01	-4.93182366537E+01
7.54749498998E+10	1.86778742350E-01	-2.64430952402E+01	7.22142728124E-05	1.26928839478E+02	6.92840456903E-05	1.43927551009E+02	2.50386182664E-01	-4.81470527387E+01
7.54809619238E+10	1.88286739911E-01	-2.77531985389E+01	2.84074801452E-05	6.87332973361E+01	5.87150571424E-05	6.04081395727E+01	2.52975966252E-01	-5.02982493801E+01
7.54869739479E+10	1.89370877020E-01	-2.79504764076E+01	6.13468200241E-05	1.33136962780E+02	3.10831422122E-05	1.31739295288E+02	2.53092620768E-01	-5.15984418730E+01
7.54929859719E+10	1.85504490980E-01	-2.63956822339E+01	7.25568659290E-05	1.57981178314E+02	9.39949123779E-05	1.46027805726E+02	2.54435136762E-01	-5.16491813693E+01
7.54989979960E+10	1.86101251690E-01	-2.85938540997E+01	3.81667088359E-05	1.68298406943E+02	1.68438234385E-05	1.07202408988E+02	2.50995343952E-01	-5.04140979881E+01
7.55050100200E+10	1.89739500101E-01	-3.05885126357E+01	4.04699888680E-05	1.79714532332E+02	1.12311761121E-04	1.05246810698E+02	2.52009883581E-01	-5.09121487607E+01
7.55110220441E+10	1.90156927548E-01	-2.94278647542E+01	5.34742853496E-05	8.34356085906E+01	8.83667802100E-05	1.41638842682E+02	2.49711513031E-01	-5.10036537630E+01
7.55170340681E+10	1.86468113345E-01	-2.86749850852E+01	5.86151761408E-05	1.43974767773E+02	1.01793316983E-04	1.44758637188E+02	2.50900098072E-01	-5.17551145878E+01
7.55230460922E+10	1.86881862147E-01	-2.94593058390E+01	2.39706591859E-05	1.07580072319E+02	7.45046553794E-05	1.37034017345E+02	2.49279777031E-01	-5.13676364438E+01
7.55290581162E+10	1.86536309746E-01	-2.99430920709E+01	2.65899733520E-05	2.60535639851E+01	7.55401454969E-05	4.69918414564E+01	2.47971516127E-01	-5.14757643862E+01
7.55350701403E+10	1.89457451486E-01	-3.12412755595E+01	6.47843070358E-05	1.20302703965E+02	7.83722164508E-05	7.75465051434E+01	2.47193633582E-01	-5.26473051308E+01
7.55410821643E+10	1.87448572265E-01	-3.03814125017E+01	4.33116334787E-05	7.59733839687E+01	3.06546970669E-05	4.76844507054E+01	2.48450033167E-01	-5.24640637435E+01
7.55470941884E+10	1.87221914410E-01	-2.94350648810E+01	1.37469099085E-05	1.30396997167E+02	4.86451481048E-05	-2.32269979388E+00	2.48117055570E-01	-5.31380520062E+01
7.55531062124E+10	1.85938428555E-01	-2.93781920918E+01	4.08995666195E-05	6.65121459979E+01	8.43591107129E-06	2.77622554367E+01	2.48306092911E-01	-5.31925312626E+01
7.55591182365E+10	1.84597841050E-01	-3.06827310305E+01	1.34823581296E-05	7.89038607540E+01	3.96334414922E-05	1.13040218568E+00	2.47411773938E-01	-5.48893271548E+01
7.55651302605E+10	1.85108209914E-01	-3.07280564910E+01	1.04772386624E-04	1.00023141175E+02	5.63757631191E-05	1.27787498596E+02	2.47323624793E-01	-5.46375912784E+01
7.55711422846E+10	1.89223062431E-01	-3.15069980819E+01	2.83606418736E-05	9.24795671646E+01	6.69028124313E-05	1.79315290009E+01	2.49682292400E-01	-5.51232629792E+01
7.55771543086E+10	1.86799611609E-01	-3.14202469405E+01	5.34542380685E-05	6.01490391052E+01	5.83809454202E-05	5.72274328561E+01	2.46442433724E-01	-5.42257743856E+01
7.55831663327E+10	1.85095992863E-01	-3.25580021018E+01	3.54645885553E-05	1.13147770422E+02	5.93969244972E-05	1.30068517429E+02	2.42985713360E-01	-5.38046837998E+01
7.55891783567E+10	1.87534478909E-01	-3.26316857630E+01	7.55716377310E-05	9.76848026807E+01	4.48061905833E-05	7.73398118770E+01	2.45938424590E-01	-5.60578936726E+01
7.55951903808E+10	1.84610449406E-01	-3.12627964705E+01	5.93026122087E-05	5.30183782977E+01	9.14848955422E-05	3.83210984436E+01	2.47651960786E-01	-5.55830312213E+01
7.56012024048E+10	1.91861913648E-01	-3.41516159461E+01	2.89578409848E-05	1.26504449695E+02	3.54826734352E-05	1.16804334365E+02	2.44238906009E-01	-5.48062912207E+01
7.56072144289E+10	1.86557237794E-01	-3.25064231373E+01	1.07712331326E-05	6.47989051998E+01	1.09259803008E-04	7.96360592785E+01	2.43299794426E-01	-5.69776615930E+01
7.56132264529E+10	1.83117402221E-01	-3.06201316590E+01	4.31473928453E-05	1.21394634217E+02	8.04285122506E-05	7.24885359962E+01	2.46172114315E-01	-5.77757338023E+01
7.56192384770E+10	1.84123024457E-01	-3.31564115441E+01	6.17472414699E-05	4.14313540047E+01	2.65316276119E-05	4.57550200341E+01	2.42591520436E-01	-5.55224465172E+01
7.56252505010E+10	1.85947341537E-01	-3.37564647024E+01	2.22091081298E-05	1.07561085823E+02	2.91662794535E-05	5.64029050400E+01	2.44601747628E-01	-5.71860396634E+01
7.56312625251E+10	1.88546320083E-01	-3.44451267494E+01	2.13134365424E-05	-1.55446293883E+02	6.65315301810E-05	4.62094736732E+01	2.42300686754E-01	-5.78674069207E+01
7.56372745491E+10	1.83157690919E-01	-3.18434937580E+01	7.71418288689E-05	6.68601342057E+01	3.17928077545E-05	9.54756476211E+01	2.42111383213E-01	-5.73721496944E+01
7.56432865731E+10	1.81515668875E-01	-3.25382417455E+01	6.81857866121E-05	1.06016193083E+02	1.04789393113E-04	-4.24243659886E+00	2.43739939809E-01	-5.74498625683E+01
7.56492985972E+10	1.84556440476E-01	-3.42510962104E+01	3.34111802728E-05	5.92599968511E+01	3.04094557938E-05	2.51065341656E+01	2.41837081543E-01	-5.83918391097E+01
7.56553106212E+10	1.87457999204E-01	-3.50916185546E+01	1.28495285547E-04	6.55773929969E+01	1.75362047070E-05	-1.52007108600E+02	2.41880291208E-01	-5.91318909354E+01
7.56613226453E+10	1.84829564431E-01	-3.27275125755E+01	3.42842066708E-05	5.86731913360E+01	4.40624928546E-05	1.55756603651E+02	2.39411115504E-01	-5.76271149243E+01
7.56673346693E+10	1.83200677409E-01	-3.28333491232E+01	6.49647436629E-05	7.61491483710E+01	4.13326317682E-05	7.31448948338E+01	2.41805925509E-01	-5.87903221234E+01
7.56733466934E+10	1.83251034670E-01	-3.42765922539E+01	1.33996169276E-04	4.64025631633E+01	1.32062865541E-04	2.51247604014E+01	2.40561704019E-01	-5.99183677970E+01
7.56793587174E+10	1.83499259698E-01	-3.48953622556E+01	9.23388189953E-05	1.62278072123E+01	1.69558219729E-04	2.52983339985E+01	2.38117649639E-01	-6.02731461644E+01
7.56853707415E+10	1.84245212099E-01	-3.55414956529E+01	1.36874104464E-04	-4.03007194304E+01	1.01110008596E-04	1.41234950746E+01	2.42150255915E-01	-6.04851326419E+01
7.56913827655E+10	1.85928445335E-01	-3.64625380543E+01	4.30907098571E-05	-6.04710526093E+01	9.94101048470E-05	-8.15653431826E+01	2.36631912208E-01	-5.84809675672E+01
7.56973947896E+10	1.85219155866E-01	-3.58467275989E+01	5.04905299241E-05	5.94253422650E+01	5.74473064103E-05	-1.60675306542E+01	2.36829255812E-01	-6.04646582350E+01
7.57034068136E+10	1.85675913351E-01	-3.49537204233E+01	7.73861111617E-05	-2.46660060845E+01	2.43084963747E-05	6.90800426536E+01	2.36002973101E-01	-6.12175552588E+01
7.57094188377E+10	1.82059122352E-01	-3.55116449065E+01	8.05551232285E-05	-4.67921363798E+01	8.55519312237E-05	9.26989910554E+00	2.37088619173E-01	-6.16922867797E+01
7.57154308617E+10	1.82132848267E-01	-3.53189354724E+01	6.87007163765E-05	3.21281129351E+01	2.05355797071E-05	-7.73264371155E+00	2.37004382547E-01	-6.05781138167E+01
7.57214428858E+10	1.85003268795E-01	-3.56588056808E+01	7.34118262987E-05	-5.75997394748E+01	6.77155970239E-05	-4.59801018588E+01	2.38486241501E-01	-6.06579701725E+01
7.57274549098E+10	1.86975243453E-01	-3.70929012166E+01	1.52642230819E-04	-2.84560597705E+01	1.01341067387E-04	-3.55001224562E+01	2.35268565896E-01	-6.12557724797E+01
7.57334669339E+10	1.82425583273E-01	-3.62410834442E+01	3.64129444209E-05	-7.81488105503E+01	7.64577952770E-05	-5.23617958360E+01	2.38687776171E-01	-6.33343482877E+01
7.57394789579E+10	1.82301292481E-01	-3.73098772810E+01	3.59617394122E-05	-5.97016938235E+01	7.29197139364E-05	-4.27765760450E+01	2.37648944995E-01	-6.35899281995E+01
7.57454909820E+10	1.83159014927E-01	-3.68097208788E+01	8.32730508716E-05	-6.02168538744E+01	5.23944143650E-05	-3.16681088654E+01	2.34556201168E-01	-6.32336604130E+01
7.57515030060E+10	1.83852335822E-01	-3.61007916254E+01	8.65976824060E-05	-2.72389200374E+01	1.07887183353E-04	-7.21686036746E+01	2.37130625161E-01	-6.23624247963E+01
7.57575150301E+10	1.83961438583E-01	-3.76315367003E+01	7.84304203988E-05	-6.32079853119E+01	7.28326406536E-05	-9.83445472926E+01	2.35513611908E-01	-6.43111215364E+01
7.57635270541E+10	1.81199734743E-01	-3.76072570811E+01	5.20841727698E-06	-1.45123008485E+02	1.92153183319E-05	1.18284990939E+02	2.33038004056E-01	-6.48561858014E+01
7.57695390782E+10	1.80758198770E-01	-3.67198853317E+01	3.99027903772E-05	-5.24144854908E+01	6.32970194948E-05	-1.48500435682E+01	2.36902349867E-01	-6.38154976089E+01
7.57755511022E+10	1.82851380146E-01	-3.82685900308E+01	5.48105330943E-05	-9.83501602506E+01	6.00390268249E-05	-5.42935947679E+01	2.33260543725E-01	-6.32004570191E+01
7.57815631263E+10	1.81391609110E-01	-3.77074211160E+01	8.19556860981E-05	-1.05558424603E+02	1.06047722782E-04	-7.67332631654E+01	2.31651620257E-01	-6.36438077751E+01
7.57875751503E+10	1.80475525225E-01	-3.80774627956E+01	1.22590320190E-04	-1.01535518842E+02	9.23744849901E-05	-1.07721543768E+02	2.32548731882E-01	-6.61787157191E+01
7.57935871743E+10	1.83858916855E-01	-3.86361419785E+01	7.25208698454E-05	-8.04143085760E+01	4.39663177334E-05	-7.42504924919E+01	2.33536815381E-01	-6.55492635595E+01
7.57995991984E+10	1.78733718673E-01	-3.88207025114E+01	4.96844792354E-05	-8.26634807326E+01	4.98186259950E-05	-2.23000028458E+01	2.31932427359E-01	-6.48966400410E+01
7.58056112224E+10	1.79675447507E-01	-3.67918466083E+01	1.18221033239E-04	-8.37796709359E+01	5.41972833334E-05	-4.81240889276E+01	2.31117787065E-01	-6.50735758425E+01
7.58116232465E+10	1.82877289515E-01	-3.80676071362E+01	8.47377094693E-05	-1.26591182260E+02	2.55259074887E-05	-6.21695541256E+01	2.30087886988E-01	-6.62166715441E+01
7.58176352705E+10	1.80330863134E-01	-3.84466098803E+01	1.00950535619E-04	-1.20016252358E+02	5.94763511645E-05	-1.19382191952E+02	2.29450961484E-01	-6.66529849667E+01
7.58236472946E+10	1.82924954675E-01	-4.09641132975E+01	7.49594942290E-05	-1.18431827183E+02	8.66358936627E-05	-1.51821238480E+02	2.30951198830E-01	-6.71296193709E+01
7.58296593186E+10	1.81541002136E-01	-4.04112246459E+01	8.21402442042E-05	-1.06996918421E+02	1.07637555328E-04	-9.49180669668E+01	2.30946664041E-01	-6.64518853325E+01
7.58356713427E+10	1.80918290696E-01	-3.99929418028E+01	6.53000088088E-05	-1.30453004529E+02	1.24432339822E-04	-1.59366364795E+02	2.27896649627E-01	-6.60515371149E+01
7.58416833667E+10	1.79989564546E-01	-3.95458063116E+01	2.64010467365E-05	1.57052002595E+02	8.28558061541E-05	-1.16867969982E+02	2.27323389274E-01	-6.73331801299E+01
7.58476953908E+10	1.78254760303E-01	-3.98318132520E+01	8.32954618281E-05	-1.30289700159E+02	8.54851779201E-05	-9.99113508242E+01	2.27035285939E-01	-6.84249012810E+01
7.58537074148E+10	1.82493778939E-01	-4.10790998475E+01	6.75665737933E-05	-1.04931763687E+02	1.07276785394E-04	-1.31450561728E+02	2.31124131034E-01	-6.90341477357E+01
7.58597194389E+10	1.81993697223E-01	-4.09636564909E+01	7.62841419930E-05	-1.59032751117E+02	1.09456760714E-04	-1.24162906673E+02	2.27957784952E-01	-6.93687673162E+01
7.58657314629E+10	1.80133850184E-01	-4.05619133942E+01	7.93623110281E-05	-9.25219974942E+01	4.94428351306E-05	-1.25495349845E+02	2.27142830175E-01	-6.74704542387E+01
7.58717434870E+10	1.76502390230E-01	-4.01159914228E+01	1.11809642398E-04	-1.68980429582E+02	1.05178268111E-04	1.69259745429E+02	2.27397612688E-01	-6.84880723432E+01
7.58777555110E+10	1.78923664398E-01	-4.06325565724E+01	8.00657816723E-05	1.65044829338E+02	6.90052365168E-05	-1.46660975739E+02	2.30353917084E-01	-7.05626475774E+01
7.58837675351E+10	1.77981745654E-01	-4.21520356684E+01	6.67949453839E-05	-1.43534506016E+02	1.09098774911E-04	1.43819123116E+02	2.25129977783E-01	-6.88338779664E+01
7.58897795591E+10	1.78717338767E-01	-4.11639360433E+01	6.49717192106E-05	1.54050188077E+02	1.10121111726E-04	-1.37805061037E+02	2.25663710618E-01	-7.01119544329E+01
7.58957915832E+10	1.79444773210E-01	-4.25830409204E+01	8.44036696459E-05	1.77327394738E+02	4.91157206131E-05	1.59609225832E+02	2.24169007150E-01	-7.06362351669E+01
7.59018036072E+10	1.79318765756E-01	-4.18372031279E+01	9.11160447208E-05	1.55193585309E+02	7.56470503241E-05	1.52924204678E+02	2.26510147276E-01	-7.19108697177E+01
7.59078156313E+10	1.77198218420E-01	-4.04775158880E+01	2.69661522062E-05	-1.72991131739E+02	1.04174028821E-04	1.60853102626E+02	2.24645216312E-01	-7.01577785326E+01
7.59138276553E+10	1.78186929277E-01	-4.34275701552E+01	6.51815561121E-05	-1.42238989383E+02	9.17490507055E-05	1.43297623512E+02	2.23774517957E-01	-7.09511268177E+01
7.59198396794E+10	1.80582699141E-01	-4.25834288543E+01	2.86046478330E-05	1.50929122105E+02	6.92281166950E-05	1.30133897196E+02	2.24959156709E-01	-7.20914180164E+01
7.59258517034E+10	1.77877645774E-01	-4.11594939433E+01	4.75524355162E-05	1.11778582883E+02	3.21586690889E-05	-6.64044037678E+01	2.24073775570E-01	-7.14242043691E+01
7.59318637275E+10	1.78559589973E-01	-4.34922092497E+01	3.51968441557E-05	1.61423157896E+02	3.22122093018E-05	1.03018713303E+02	2.23390695055E-01	-7.07413782480E+01
7.59378757515E+10	1.76364288749E-01	-4.36659469013E+01	2.91243059748E-05	-4.57164436714E+01	3.28364924247E-05	7.40582312986E+01	2.23995220305E-01	-7.31378519328E+01
7.59438877756E+10	1.79118291069E-01	-4.31256320042E+01	9.45663270745E-05	1.25332513833E+02	7.76279484806E-05	-1.63129897021E+02	2.23242625040E-01	-7.25165260375E+01
7.59498997996E+10	1.78576557045E-01	-4.25736515083E+01	7.45457455129E-05	1.63607707218E+02	1.42343191454E-04	1.74697134394E+02	2.21118421176E-01	-7.23512583577E+01
7.59559118236E+10	1.77627869956E-01	-4.24509657951E+01	1.06464329242E-04	1.44314903354E+02	1.94762205492E-04	1.41901119070E+02	2.22110554468E-01	-7.33497429234E+01
7.59619238477E+10	1.77853306571E-01	-4.55140879302E+01	9.98486502207E-05	8.34051795798E+01	2.05434069341E-05	1.22174259491E+02	2.21063843143E-01	-7.41623926825E+01
7.59679358717E+10	1.77044906007E-01	-4.41939302098E+01	9.44778109200E-05	1.43186298298E+02	4.04176874914E-05	6.86729265492E+01	2.21100281760E-01	-7.52364049288E+01
7.59739478958E+10	1.79176108238E-01	-4.43872887381E+01	4.23363023562E-05	5.89788998018E+01	8.16098156542E-05	1.62316885020E+02	2.20963727563E-01	-7.46406664595E+01
7.59799599198E+10	1.79348402800E-01	-4.47635262552E+01	1.09751177794E-04	1.00125136041E+02	8.89853507608E-05	1.21581251915E+02	2.21066183918E-01	-7.42956966555E+01
7.59859719439E+10	1.74027176894E-01	-4.41862862979E+01	8.68741593754E-05	1.08269714083E+02	6.19459295179E-05	8.23919698812E+01	2.18497921115E-01	-7.42815390952E+01
7.59919839679E+10	1.77060751894E-01	-4.42760342617E+01	5.32017463741E-05	9.64016789406E+01	8.83150629011E-05	1.42640563645E+02	2.20517663255E-01	-7.56243287659E+01
7.59979959920E+10	1.78983872907E-01	-4.54345333868E+01	5.39986495179E-05	7.42722591109E+01	7.81380250385E-05	1.07735976078E+02	2.17953449322E-01	-7.59426998488E+01
7.60040080160E+10	1.76366342017E-01	-4.55936680746E+01	6.14919899532E-05	7.33090255009E+01	3.06855374521E-05	1.63828327817E+02	2.20812957667E-01	-7.66301108558E+01
7.60100200401E+10	1.76541444529E-01	-4.58383946870E+01	6.66824355425E-05	1.03764706465E+02	4.80381106535E-05	1.17580606038E+02	2.16463266344E-01	-7.59928017529E+01
7.60160320641E+10	1.74493165102E-01	-4.49126017650E+01	6.96931855988E-05	-1.77776264919E+02	1.61042968294E-05	1.94037084736E+00	2.18778990439E-01	-7.60896800629E+01
7.60220440882E+10	1.74583987220E-01	-4.52681678249E+01	1.62429211949E-05	1.34478896091E+02	4.44167882632E-05	-1.81607239757E+01	2.16577838787E-01	-7.57749620962E+01
7.60280561122E+10	1.75756295868E-01	-4.58945760100E+01	1.17304653657E-04	1.17002379822E+02	6.58954710716E-05	1.10398563379E+02	2.14477810235E-01	-7.70803025685E+01
7.60340681363E+10	1.74626858734E-01	-4.46888401483E+01	8.75275008152E-05	5.78214034953E+01	6.74108482841E-05	1.39434111547E+02	2.11779810004E-01	-7.57709130283E+01
7.60400801603E+10	1.74023929281E-01	-4.49477586301E+01	1.14722584327E-04	6.83316798683E+01	6.86027448436E-05	1.07133496749E+02	2.17577975083E-01	-7.93831519710E+01
7.60460921844E+10	1.73837940968E-01	-4.51037234297E+01	9.64056180223E-05	9.94135341576E+01	7.82568301465E-05	4.05400300434E+01	2.14874306659E-01	-7.79209718925E+01
7.60521042084E+10	1.73021879797E-01	-4.66602387522E+01	1.14675833011E-04	5.56722976312E+01	1.38302513534E-04	4.69998281600E+01	2.13102945661E-01	-7.73855648249E+01
7.60581162325E+10	1.73998707225E-01	-4.77518990138E+01	1.37144634743E-04	7.14996954100E+01	5.72853912666E-05	3.28300637542E+01	2.13842723478E-01	-7.80062313723E+01
7.60641282565E+10	1.76044314237E-01	-4.72809191012E+01	4.40899426214E-05	5.98802082371E+01	7.09234482950E-05	6.11017871336E+01	2.14233606435E-01	-7.99795407361E+01
7.60701402806E+10	1.72231354712E-01	-4.53894657373E+01	6.40465617916E-05	1.49701206800E+01	1.24511474751E-04	2.06755978987E+01	2.12381114021E-01	-7.89060510129E+01
7.60761523046E+10	1.73283228797E-01	-4.71760842642E+01	7.40962102854E-05	1.34688207285E+00	1.15967251542E-04	5.31857091290E+01	2.11056241027E-01	-7.84751620746E+01
7.60821643287E+10	1.74612026843E-01	-4.64017729048E+01	1.27076099299E-04	3.78465847101E+01	6.14394122307E-05	-6.02493782330E+01	2.10150238466E-01	-7.86358448359E+01
7.60881763527E+10	1.74202815098E-01	-4.61419028093E+01	3.71921226041E-05	3.86609847410E+01	5.17295568733E-05	3.25664451244E+01	2.13909680478E-01	-8.13459554849E+01
7.60941883768E+10	1.71603980291E-01	-4.69332947233E+01	7.22144022501E-05	6.12495841199E+00	6.56857749264E-05	2.75500394034E+01	2.10012302176E-01	-8.04381266740E+01
7.61002004008E+10	1.72473109781E-01	-4.67138754955E+01	9.24834941777E-05	2.40180993238E+01	2.15172222118E-05	1.32756988139E+02	2.08206267390E-01	-7.95902331059E+01
7.61062124248E+10	1.75321332561E-01	-4.86245043079E+01	7.24473013496E-05	-5.50386436799E+01	9.76238864416E-05	-1.99981659720E+01	2.07621821446E-01	-7.97807669844E+01
7.61122244489E+10	1.70908709444E-01	-4.70527126750E+01	5.26132490366E-05	-1.91510109763E+01	5.54839866651E-05	-3.51382450011E+01	2.09059994649E-01	-8.17789440035E+01
7.61182364729E+10	1.75271001196E-01	-4.97269970538E+01	1.48495624047E-05	5.49639912820E+01	8.40360800875E-05	2.40599327701E+00	2.09049785718E-01	-8.18524572120E+01
7.61242484970E+10	1.69632720942E-01	-4.72147596974E+01	5.85704293404E-05	-2.09574968955E+01	3.20879637308E-05	-2.97842337203E+01	2.07348650272E-01	-8.13948884494E+01
7.61302605210E+10	1.70608824052E-01	-4.67942629858E+01	7.84837812408E-05	1.68146849862E+01	8.93909589858E-05	7.05142400189E+00	2.08014264477E-01	-8.21980358135E+01
7.61362725451E+10	1.70932391685E-01	-4.93509619394E+01	9.48818343730E-05	-2.39646365363E+01	7.77551482566E-05	-7.71276083363E+00	2.08261285119E-01	-8.33132012193E+01
7.61422845691E+10	1.73440849769E-01	-5.07001593868E+01	1.64196539693E-04	9.80722914275E+00	1.48370843352E-04	-1.08430644899E+01	2.05549727759E-01	-8.26754262191E+01
7.61482965932E+10	1.69530199100E-01	-5.05703120498E+01	7.35735441963E-05	-3.10584396955E+01	1.30589924583E-04	-4.98004388806E+01	2.06456102765E-01	-8.29639919747E+01
7.61543086172E+10	1.73666390822E-01	-5.04040817202E+01	1.17666103234E-04	-5.39466249581E+01	9.44128363179E-05	-6.91328417142E+01	2.06017380853E-01	-8.31040582379E+01
7.61603206413E+10	1.69734431705E-01	-4.72098205812E+01	1.04924780779E-04	-8.46741393447E+01	1.15620068370E-04	-4.94342996400E+01	2.08502493180E-01	-8.48739683223E+01
7.61663326653E+10	1.70141525833E-01	-4.89541390976E+01	5.69895127316E-05	-9.79494344426E+01	1.23022500684E-04	-6.23779283013E+01	2.04567836409E-01	-8.39966371375E+01
7.61723446894E+10	1.71807690519E-01	-4.84505975442E+01	8.95769488263E-05	-7.59349546580E+01	1.04153887868E-04	-5.06554847154E+01	2.05029180544E-01	-8.48023679515E+01
7.61783567134E+10	1.71576203191E-01	-4.97854356129E+01	1.08363109207E-04	-7.07446288057E+01	5.84432598872E-05	-5.18568436849E+01	2.03127160494E-01	-8.41178893263E+01
7.61843687375E+10	1.69561834069E-01	-4.91542361938E+01	7.25959146456E-05	-8.73070925609E+01	9.43367004553E-05	-8.77615045766E+01	2.03742921638E-01	-8.55568462727E+01
7.61903807615E+10	1.70284112878E-01	-5.02608271102E+01	6.98786510738E-05	-1.16280344497E+02	1.05561601337E-04	-8.88011155330E+01	2.03938092702E-01	-8.58905577256E+01
7.61963927856E+10	1.71311878899E-01	-5.04311724193E+01	4.32510531984E-05	-8.02693126610E+01	5.26226889970E-05	-9.03855131719E+01	2.02916205203E-01	-8.57895795666E+01
7.62024048096E+10	1.68258696407E-01	-5.19694992482E+01	8.35347889317E-05	-1.05260150181E+02	8.14117697144E-05	-8.65138808527E+01	2.03567855781E-01	-8.60520228810E+01
7.62084168337E+10	1.67592243306E-01	-4.89365913194E+01	8.78740799501E-05	-1.12088972366E+02	6.99565485468E-05	-3.55180719177E+01	1.99475678412E-01	-8.51780093912E+01
7.62144288577E+10	1.69105492406E-01	-5.05219304855E+01	1.14409710070E-04	-1.19104186413E+02	9.63482354577E-05	-9.02099709019E+01	2.03357577516E-01	-8.72518440413E+01
7.62204408818E+10	1.70164961148E-01	-5.18631752851E+01	1.08876629704E-04	-5.54113544146E+01	8.68793777663E-05	-2.67846357673E+01	2.00203015659E-01	-8.66617573517E+01
7.62264529058E+10	1.70299371138E-01	-5.30741629867E+01	6.16532783175E-05	-1.05388141808E+02	7.95616665750E-05	-1.00524636709E+02	1.97992590476E-01	-8.63146646866E+01
7.62324649299E+10	1.68451744608E-01	-5.22146002323E+01	3.33033219667E-05	-7.67307518781E+01	1.58972932105E-04	-8.17175800325E+01	1.98496240491E-01	-8.66937557208E+01
7.62384769539E+10	1.67384151441E-01	-4.95258621465E+01	6.07158067395E-05	-1.24685476409E+02	7.28098299903E-05	-1.10609964478E+02	1.98798451093E-01	-8.81221853801E+01
7.62444889780E+10	1.67019548630E-01	-5.11082713311E+01	1.33977976389E-04	-1.46377160304E+02	8.23401026843E-05	-1.65021493265E+02	1.96531717447E-01	-8.72876960360E+01
7.62505010020E+10	1.69804184996E-01	-5.21736145839E+01	1.49009560252E-04	-1.36936640374E+02	1.10161210098E-04	-1.16445955061E+02	1.99868546753E-01	-8.92733517997E+01
7.62565130261E+10	1.69046697971E-01	-5.23859836333E+01	9.95891318844E-05	-1.64476017172E+02	1.46748671865E-04	-1.45908644902E+02	1.98344110637E-01	-8.93627467590E+01
7.62625250501E+10	1.68016347776E-01	-5.16219923292E+01	7.56287066869E-05	-1.76300312613E+02	7.63560524649E-05	-1.59500588611E+02	1.98578731763E-01	-8.87086753989E+01
7.62685370741E+10	1.67849156240E-01	-5.18181554487E+01	5.90084139600E-05	-1.61453659971E+02	5.72679967293E-05	-1.63892201815E+02	1.94555517034E-01	-8.82700236376E+01
7.62745490982E+10	1.67457360463E-01	-5.25071394312E+01	3.54531532455E-05	1.74494761720E+02	1.21919163561E-04	-1.34740955947E+02	1.97622132002E-01	-8.96664718806E+01
7.62805611222E+10	1.69517227377E-01	-5.30364095338E+01	7.86009657711E-05	-1.44933763410E+02	9.47991213763E-05	-1.79455799651E+02	1.95907514703E-01	-9.03311156790E+01
7.62865731463E+10	1.68549320842E-01	-5.20309197461E+01	7.11704872978E-05	1.43923488008E+02	4.69203930657E-05	1.49906840718E+02	1.95294920664E-01	-9.03604992483E+01
7.62925851703E+10	1.66733048443E-01	-5.16929652002E+01	8.10711159908E-05	-8.46663759161E+01	1.07199399941E-04	-1.45274738567E+02	1.92359411204E-01	-8.91330158583E+01
7.62985971944E+10	1.68526625559E-01	-5.33357323444E+01	4.95576357012E-05	1.76043197275E+02	2.83666134490E-05	-1.69140327080E+02	1.92157779142E-01	-8.95170769128E+01
7.63046092184E+10	1.67352654224E-01	-5.57036636837E+01	4.37432197254E-05	1.63249389692E+02	4.03332235854E-05	-8.93596241706E+01	1.94363213629E-01	-9.10401899868E+01
7.63106212425E+10	1.66785477864E-01	-5.24854020665E+01	1.15240855863E-04	-1.19561858942E+02	8.78891128063E-05	-1.64022863130E+02	1.95975437845E-01	-9.26303270909E+01
7.63166332665E+10	1.65113828567E-01	-5.36872314178E+01	8.06727519531E-05	-1.74867039563E+02	8.63788402810E-05	1.70484868279E+02	1.92860340585E-01	-9.17820828098E+01
7.63226452906E+10	1.69773807488E-01	-5.49791999955E+01	1.11126722967E-04	1.38177854842E+02	1.10363821923E-04	1.75101594209E+02	1.90410323470E-01	-9.12035205599E+01
7.63286573146E+10	1.65470853181E-01	-5.39312648283E+01	8.45069070375E-05	1.32132299381E+02	7.14436785070E-05	1.71881036488E+02	1.91921947284E-01	-9.23096530331E+01
7.63346693387E+10	1.64927787089E-01	-5.41602974650E+01	7.05743543093E-05	1.52723462293E+02	8.29974203560E-05	1.75320742777E+02	1.93767799580E-01	-9.33507482514E+01
7.63406813627E+10	1.65178449486E-01	-5.33983653375E+01	1.05744501392E-04	1.08916565872E+02	4.44543238581E-05	-1.48412146723E+02	1.90901382409E-01	-9.35213436425E+01
7.63466933868E+10	1.68294544710E-01	-5.42591627050E+01	1.33845691921E-04	1.44966216032E+02	9.91683715991E-05	1.30811201195E+02	1.88863955737E-01	-9.26618177922E+01
7.63527054108E+10	1.63973840400E-01	-5.15072270700E+01	7.19413765740E-05	-1.60883183247E+02	7.27907482673E-05	1.22315544679E+02	1.91509680784E-01	-9.40662504026E+01
7.63587174349E+10	1.64149393891E-01	-5.33699763441E+01	3.67227953494E-05	9.06531266718E+01	3.14096707359E-05	1.53144549999E+02	1.91823385155E-01	-9.44174928519E+01
7.63647294589E+10	1.66501948370E-01	-5.44151348741E+01	1.11234484871E-04	1.57780328228E+02	1.96687454451E-05	1.69480563742E+02	1.89197170299E-01	-9.43983786609E+01
7.63707414830E+10	1.65192250941E-01	-5.28753635697E+01	1.38015214193E-05	-1.20982241643E+02	9.98846558880E-05	-1.72707798790E+02	1.86879645832E-01	-9.42222552928E+01
7.63767535070E+10	1.65348084690E-01	-5.37572331300E+01	5.01244586149E-05	6.64981298031E+01	1.02266549134E-04	1.12008293691E+02	1.90155541289E-01	-9.57053779147E+01
7.63827655311E+10	1.65695600806E-01	-5.60945671253E+01	1.67493626757E-05	6.41712652351E+01	1.05170155762E-04	1.47775153580E+02	1.87513811819E-01	-9.49811474775E+01
7.63887775551E+10	1.65898409085E-01	-5.50789560839E+01	4.98501788933E-05	9.51114499268E+01	8.98043632707E-05	1.58016883664E+02	1.86649573125E-01	-9.49335527300E+01
7.63947895792E+10	1.65441251670E-01	-5.56101196635E+01	3.57372757858E-05	1.06634850268E+02	6.95290057770E-05	1.22685678653E+02	1.86341407100E-01	-9.53100801393E+01
7.64008016032E+10	1.62931727788E-01	-5.69736914510E+01	1.00399103637E-04	1.23066720868E+02	1.19056752117E-04	1.27354588674E+02	1.86133751509E-01	-9.65395405473E+01
7.64068136273E+10	1.66979025665E-01	-5.65338438313E+01	4.77141803872E-05	1.08756701560E+02	4.01308038024E-05	3.26715867308E+01	1.85648005326E-01	-9.71428004844E+01
7.64128256513E+10	1.66267444046E-01	-5.78410449344E+01	7.43277901761E-05	1.55681855715E+02	1.31869392118E-04	1.24283234796E+02	1.87200312556E-01	-9.84141213776E+01
7.64188376754E+10	1.63976690480E-01	-5.62225664881E+01	3.64896995589E-05	5.53495833181E+01	5.08162768928E-05	7.36930278655E+01	1.83924117023E-01	-9.63561548639E+01
7.64248496994E+10	1.63432264102E-01	-5.56473796661E+01	4.16442855379E-05	1.07271135989E+02	9.63848530954E-05	1.37989498439E+02	1.84253935814E-01	-9.83360820140E+01
7.64308617234E+10	1.65009661020E-01	-5.59325241579E+01	8.45195062356E-05	1.14377206400E+02	1.54848887840E-04	7.46384906920E+01	1.84196822427E-01	-9.85920409741E+01
7.64368737475E+10	1.64104801135E-01	-5.53613983021E+01	4.51498792952E-05	4.60892243028E+01	1.83582465767E-04	1.10293135821E+02	1.85904462007E-01	-9.97758727764E+01
7.64428857715E+10	1.64899142941E-01	-5.71987209582E+01	8.47796657534E-05	1.01439822445E+02	1.49398056727E-04	7.60969999864E+01	1.81996590941E-01	-9.78826589557E+01
7.64488977956E+10	1.64551377992E-01	-5.83919388587E+01	6.09615743489E-05	8.54439229841E+01	6.45152804642E-05	8.80169348485E+01	1.81297974568E-01	-9.80755657976E+01
7.64549098196E+10	1.62573085440E-01	-5.76433863711E+01	8.39714774616E-05	7.43100944869E+01	1.46564805966E-04	5.02057430677E+01	1.81417390856E-01	-9.87835200055E+01
7.64609218437E+10	1.61340263001E-01	-5.54885875607E+01	4.74818126664E-05	4.88011615582E+01	1.09618286052E-04	5.71945215086E+00	1.81947417077E-01	-1.00325583304E+02
7.64669338677E+10	1.63065164824E-01	-5.69579188512E+01	1.51846249651E-04	7.72579686456E+01	1.29636468175E-04	6.38444904634E+01	1.81308282953E-01	-1.00995528831E+02
7.64729458918E+10	1.64771683337E-01	-5.76859130902E+01	2.04005101278E-05	3.65498538766E+01	4.69191252725E-05	-1.44094423070E+00	1.80494074989E-01	-1.00289777595E+02
7.64789579158E+10	1.65878875868E-01	-5.87120177819E+01	8.38361431609E-05	6.58706056503E+01	9.85518133666E-05	1.44987799586E+01	1.79440669460E-01	-1.00319528830E+02
7.64849699399E+10	1.64208411215E-01	-5.63222907513E+01	1.99897293407E-05	-1.23209011782E+02	7.86314977643E-05	4.03155116639E+01	1.78993023886E-01	-1.00404876042E+02
7.64909819639E+10	1.62365070279E-01	-5.64086681627E+01	8.89957613052E-05	5.91338576861E+01	1.59806457756E-05	-1.37086586131E+02	1.79470230212E-01	-1.02052241678E+02
7.64969939880E+10	1.64466216785E-01	-5.94282998583E+01	1.12041875950E-04	5.58310060379E+01	8.11039470911E-05	1.77836362686E+01	1.78712251307E-01	-1.02754795575E+02
7.65030060120E+10	1.63450843242E-01	-5.99642088801E+01	7.62879542255E-05	5.96618405329E+01	5.49081164653E-05	-7.74581696463E+00	1.77229319387E-01	-1.02451953812E+02
7.65090180361E+10	1.63950330175E-01	-5.82090239139E+01	6.06207948443E-05	6.85954003591E+01	7.67091639065E-05	-2.05253175465E+01	1.75224977745E-01	-1.01764623162E+02
7.65150300601E+10	1.62919679632E-01	-5.80514283883E+01	8.96753001303E-05	-3.68056526674E+01	4.52165650922E-05	1.52240790240E+01	1.76120497654E-01	-1.03384154372E+02
7.65210420842E+10	1.61937807639E-01	-5.93977278123E+01	7.67563622350E-05	7.05910942979E+01	3.99864654750E-05	5.56983113827E+00	1.75943314130E-01	-1.03249912414E+02
7.65270541082E+10	1.61011256401E-01	-5.85874624353E+01	1.33186242233E-04	2.32925189286E+01	1.38640326374E-04	4.15117257133E+01	1.75615502938E-01	-1.03851669422E+02
7.65330661323E+10	1.64058110566E-01	-5.99011064783E+01	5.96449694805E-05	-2.34530257857E+00	9.77613914482E-05	-6.89504964519E+01	1.75641107348E-01	-1.04625874273E+02
7.65390781563E+10	1.63725317156E-01	-6.01446906519E+01	8.06148347271E-05	-3.31968173571E+01	3.43382706727E-05	-9.00147894556E+01	1.74265317018E-01	-1.05520988294E+02
7.65450901804E+10	1.66118877962E-01	-6.10070519699E+01	6.20883462118E-05	-2.24352475942E+00	1.09020176664E-04	-8.66260397240E+01	1.73436339049E-01	-1.05655413328E+02
7.65511022044E+10	1.63360182904E-01	-5.98432401114E+01	3.04176760432E-05	3.94260654599E+01	6.41501149104E-05	-7.27529818863E+01	1.72087828184E-01	-1.05508932002E+02
7.65571142285E+10	1.60897479832E-01	-5.84279144124E+01	1.32209145114E-04	-4.39306399667E+01	2.99762727037E-05	-1.70982380139E+02	1.71245440440E-01	-1.04991499291E+02
7.65631262525E+10	1.63097755064E-01	-6.02566529463E+01	3.86115264911E-05	5.31536798320E+01	3.35365404449E-05	-2.11160156136E+01	1.73521613820E-01	-1.07361534952E+02
7.65691382766E+10	1.62289639849E-01	-6.00848613181E+01	4.66328925632E-05	-5.62221361152E+01	4.47776466588E-05	3.70347168462E+01	1.70713811491E-01	-1.07517363123E+02
7.65751503006E+10	1.62709433775E-01	-6.07362349650E+01	5.24952370510E-05	-3.14705524211E+01	9.01260742391E-05	-8.24773754179E+01	1.70696178723E-01	-1.07358380744E+02
7.65811623246E+10	1.62268138086E-01	-6.08354509227E+01	9.83435790102E-05	-6.21053334097E+01	7.66527965534E-05	-5.18422503954E+01	1.68233766600E-01	-1.06195761627E+02
7.65871743487E+10	1.61677428247E-01	-6.11038985616E+01	5.37052982035E-05	-1.13379358072E+02	7.69039402030E-05	-5.61363410900E+01	1.69339588978E-01	-1.08339534893E+02
7.65931863727E+10	1.61297555464E-01	-6.06960900131E+01	4.53711851367E-05	3.38949943860E+01	1.09945536241E-04	-6.46828950140E+00	1.68173608843E-01	-1.08529170269E+02
7.65991983968E+10	1.64143072111E-01	-6.29022657346E+01	5.13187713894E-05	-1.58654407565E+02	7.99549026975E-05	-6.77731295944E+01	1.67323802977E-01	-1.08092735862E+02
7.66052104208E+10	1.62100400693E-01	-6.26376676255E+01	1.13183066457E-04	-1.35242951552E+02	6.09939173238E-05	-8.47654566610E+01	1.65198671362E-01	-1.08189719680E+02
7.66112224449E+10	1.60145130932E-01	-6.18272409888E+01	5.90314867156E-05	-1.32380274934E+02	2.52145831041E-05	-6.32747298136E+01	1.67158886492E-01	-1.10359707717E+02
7.66172344689E+10	1.60390165665E-01	-6.09476557168E+01	7.80439371699E-05	-8.28628694274E+01	1.10354677106E-04	-9.73555381946E+01	1.66946847937E-01	-1.11147275592E+02
7.66232464930E+10	1.60422593722E-01	-6.08697433076E+01	8.41302725204E-05	-9.70761321744E+01	1.37379539160E-04	-7.49357998609E+01	1.64970350664E-01	-1.10345075953E+02
7.66292585170E+10	1.60943008356E-01	-6.11201999991E+01	7.97656751684E-05	-1.32987582697E+02	6.63712641423E-05	-8.50641621653E+01	1.63101068270E-01	-1.09896502633E+02
7.66352705411E+10	1.60822578456E-01	-6.16895733577E+01	5.59396922991E-05	1.60564113835E+02	9.98967488953E-05	-2.42027164637E+01	1.62276014502E-01	-1.10674381007E+02
7.66412825651E+10	1.61462744892E-01	-6.29962541881E+01	9.39623343193E-05	-8.91821107329E+01	2.61859514687E-05	-2.03282574963E+00	1.61830448110E-01	-1.11499222785E+02
7.66472945892E+10	1.60675910376E-01	-6.27558623771E+01	6.81638955614E-05	-1.43045474134E+02	7.15705419909E-05	-9.31446411841E+01	1.61962606763E-01	-1.11961531723E+02
7.66533066132E+10	1.60871446787E-01	-6.24101924922E+01	5.80643842344E-05	-1.78541525048E+02	3.18529042781E-05	-5.87516791882E+01	1.62053007220E-01	-1.12559244298E+02
7.66593186373E+10	1.58458036860E-01	-6.24868036054E+01	4.46446448111E-05	-8.20034221508E+01	6.49861549845E-05	-1.25833298636E+02	1.60067715683E-01	-1.12719673157E+02
7.66653306613E+10	1.61032303591E-01	-6.32281952996E+01	8.03753291414E-05	-1.49695680445E+02	4.79265861518E-05	-1.59116968045E+02	1.60000943437E-01	-1.13366326408E+02
7.66713426854E+10	1.62054520297E-01	-6.40359074111E+01	7.67901907338E-05	-1.64057057494E+02	4.68789934044E-05	-5.83325775708E+01	1.57984418420E-01	-1.13209346546E+02
7.66773547094E+10	1.62669397441E-01	-6.43871512593E+01	9.48646780269E-05	-1.49603222045E+02	9.22528116594E-05	-1.49172109801E+02	1.56687592557E-01	-1.13780681161E+02
7.66833667335E+10	1.59727614012E-01	-6.28997058325E+01	9.49046106410E-05	1.38724580560E+02	9.06059755549E-05	-1.44783081851E+02	1.57712014221E-01	-1.13382134050E+02
7.66893787575E+10	1.58612562222E-01	-6.37529245718E+01	9.53311658185E-05	1.48284131842E+02	5.23725536123E-05	-1.67805015669E+02	1.56749794160E-01	-1.14595720132E+02
7.66953907816E+10	1.60667219429E-01	-6.46152082528E+01	1.11938040445E-04	-1.41831481757E+02	2.14395878569E-05	1.42497185224E+02	1.56081630487E-01	-1.14716331076E+02
7.67014028056E+10	1.59602394898E-01	-6.29911064085E+01	1.71218887054E-05	2.09411353002E+01	6.69597250001E-05	1.33754097770E+02	1.55034152654E-01	-1.14768542595E+02
7.67074148297E+10	1.58264091498E-01	-6.28105867828E+01	5.39488856853E-05	7.87974386106E+01	4.83070096751E-05	1.54816108325E+02	1.54506550630E-01	-1.15754238386E+02
7.67134268537E+10	1.58125071988E-01	-6.42339276345E+01	3.35315586161E-05	3.46394015161E+01	2.84230406646E-05	1.48847257702E+02	1.53152278331E-01	-1.16622722481E+02
7.67194388778E+10	1.61377750521E-01	-6.61403916163E+01	2.86835784899E-05	1.20963708719E+02	4.16477022227E-05	1.33295420808E+02	1.52425059701E-01	-1.16704401406E+02
7.67254509018E+10	1.59588259268E-01	-6.50787566682E+01	1.65651137750E-05	-9.39875359206E+01	2.15114865866E-05	-1.65471800399E+02	1.52241243427E-01	-1.16780386765E+02
7.67314629259E+10	1.58644426689E-01	-6.55191459647E+01	4.42936671253E-05	1.76122152421E+02	8.44456852230E-05	-1.64535498606E+02	1.51636764417E-01	-1.16142628640E+02
7.67374749499E+10	1.60725187502E-01	-6.58777359773E+01	9.18950986995E-05	-1.49618047014E+02	1.02862619724E-04	1.59354161247E+02	1.49326183115E-01	-1.17127178183E+02
7.67434869739E+10	1.62202108722E-01	-6.66489592887E+01	8.14553509965E-05	1.52330763957E+02	1.10846458692E-04	-1.72291050058E+02	1.48827430270E-01	-1.18026126786E+02
7.67494989980E+10	1.59883767252E-01	-6.61572496877E+01	1.07188718957E-04	-1.54418909850E+02	1.13563156469E-04	1.09222777678E+02	1.48030115548E-01	-1.17608992487E+02
7.67555110220E+10	1.55492708666E-01	-6.51099311758E+01	3.06762992943E-05	1.32032372034E+02	4.43421798550E-05	-1.67032965450E+02	1.48483505824E-01	-1.19118660687E+02
7.67615230461E+10	1.57123660206E-01	-6.58088333554E+01	8.76684205889E-05	2.47475717648E+01	4.79083643289E-05	1.57836872768E+02	1.47510026756E-01	-1.20312671611E+02
7.67675350701E+10	1.57412918936E-01	-6.59892805244E+01	3.35639741241E-05	1.35526061121E+02	5.08395138786E-05	-8.94949186179E+01	1.45317348537E-01	-1.19210654787E+02
7.67735470942E+10	1.57813142599E-01	-6.59188165972E+01	2.62250836624E-05	1.35192547891E+02	8.85070218991E-05	-1.40989499142E+02	1.44319647221E-01	-1.18030276405E+02
7.67795591182E+10	1.59770473139E-01	-6.69388698482E+01	3.75936788701E-05	1.56612577086E+02	2.68095699085E-05	-1.16492722827E+02	1.44803745654E-01	-1.20221406780E+02
7.67855711423E+10	1.60516355314E-01	-6.74482904994E+01	3.79772514551E-05	1.59372522016E+02	4.43436196327E-05	1.34211549789E+02	1.43735830936E-01	-1.21187577430E+02
7.67915831663E+10	1.56928625322E-01	-6.74172646234E+01	1.06385145768E-04	1.38325476590E+02	6.14390582967E-05	1.77018990607E+02	1.43786494879E-01	-1.21135476867E+02
7.67975951904E+10	1.56822425634E-01	-6.60417421582E+01	6.69616652908E-05	9.79698205942E+01	2.50610444588E-05	1.10787096518E+02	1.42109653412E-01	-1.20878632836E+02
7.68036072144E+10	1.55187821471E-01	-6.74257837382E+01	6.45836718342E-05	1.05921616834E+02	1.69204402821E-05	-1.54759056390E+01	1.41629757312E-01	-1.21486799051E+02
7.68096192385E+10	1.58940538369E-01	-6.86800230379E+01	2.94851606099E-05	8.36928660420E+01	2.88035133377E-05	1.81672925202E+01	1.41079168948E-01	-1.22396241895E+02
7.68156312625E+10	1.57473275239E-01	-6.77731414794E+01	6.32685541668E-05	-6.41355054241E+00	1.67484574451E-05	-1.79368574954E+02	1.40131345244E-01	-1.23559501258E+02
7.68216432866E+10	1.56863775095E-01	-6.81428434017E+01	3.51254005316E-05	1.70608174351E+02	1.69253628716E-05	1.76347765719E+02	1.38518249168E-01	-1.23248295358E+02
7.68276553106E+10	1.55534205784E-01	-6.83537937665E+01	5.27913195631E-05	8.58969429376E+01	1.01994529841E-05	-4.65507853595E+01	1.37211239167E-01	-1.21199517936E+02
7.68336673347E+10	1.56776404610E-01	-6.86517995663E+01	3.66727778916E-05	1.31552024336E+02	4.00930731316E-05	-3.58895783474E+01	1.37404694703E-01	-1.22530489489E+02
7.68396793587E+10	1.56913143401E-01	-6.75762292939E+01	2.25393427633E-05	-1.46351752434E+02	3.27070116314E-05	-1.58962390745E+02	1.36598449787E-01	-1.24353626283E+02
7.68456913828E+10	1.58731224291E-01	-6.92969887721E+01	8.02752989575E-05	7.16626443197E+01	1.79645392330E-05	-4.89103199388E+01	1.36681537843E-01	-1.25676877359E+02
7.68517034068E+10	1.58469508641E-01	-6.94044992637E+01	5.12806280887E-05	5.17702613299E+01	2.38562285540E-05	-1.01595882408E+02	1.33908623148E-01	-1.22592989862E+02
7.68577154309E+10	1.55141441026E-01	-6.97989612437E+01	6.83780901781E-05	9.63318282101E+01	3.93971594689E-05	1.46384267233E+02	1.34264851319E-01	-1.24274834266E+02
7.68637274549E+10	1.57062767378E-01	-6.89331948338E+01	1.09368043401E-04	5.26130016467E+01	1.14313570081E-04	8.26581632148E+01	1.33311768249E-01	-1.23623930443E+02
7.68697394790E+10	1.55041070058E-01	-6.83590950746E+01	4.97371302862E-05	1.00262658086E+02	6.39924130283E-05	2.26309374719E+01	1.33789991503E-01	-1.25884989932E+02
7.68757515030E+10	1.56558051945E-01	-6.92274732100E+01	3.61639666158E-05	1.10143261103E+02	1.66228050314E-05	-7.38896562632E+01	1.32380066902E-01	-1.26294557577E+02
7.68817635271E+10	1.59359682356E-01	-7.06032583214E+01	4.28496297292E-05	-1.76765199429E+02	2.54791821026E-05	3.60476041052E+01	1.29790298580E-01	-1.25750499077E+02
7.68877755511E+10	1.54838597555E-01	-6.88581609700E+01	5.51735882044E-05	6.30885610391E+01	5.32800311252E-05	1.58829821525E+01	1.29399979581E-01	-1.25948847624E+02
7.68937875752E+10	1.57013193410E-01	-6.97745485208E+01	4.34669691699E-05	-1.03146361403E+02	5.47938576823E-05	-9.12983931143E-01	1.29270774611E-01	-1.26506230704E+02
7.68997995992E+10	1.56309450599E-01	-7.11903829086E+01	3.98534386056E-05	-7.35270024848E+01	8.85401293108E-05	-1.40145681737E+01	1.29190875854E-01	-1.28524338633E+02
7.69058116232E+10	1.58047365097E-01	-7.23330384553E+01	7.27849185953E-05	-4.05678446872E+00	5.79049894223E-05	-1.12742417351E+00	1.27173790110E-01	-1.26852347378E+02
7.69118236473E+10	1.55416435769E-01	-7.20341305300E+01	2.50472291645E-05	-1.36394448839E+02	4.04425193195E-05	-5.50486740539E+01	1.26958738275E-01	-1.28536277608E+02
7.69178356713E+10	1.57693102933E-01	-7.22905729313E+01	5.96733936635E-05	-2.46624048917E+01	3.52229097765E-05	-1.22160757914E+02	1.24763077038E-01	-1.26527979122E+02
7.69238476954E+10	1.55677022538E-01	-7.17411610304E+01	1.02563491184E-04	-1.35433385671E+02	2.88111668403E-05	-2.82952513080E+01	1.25291301253E-01	-1.28290513649E+02
7.69298597194E+10	1.58647136153E-01	-7.27166799707E+01	3.31535979714E-05	-7.60313610060E+01	3.35649491601E-05	-4.65068156932E+01	1.25037490786E-01	-1.29851317421E+02
7.69358717435E+10	1.52903340691E-01	-7.09309248034E+01	4.19764502763E-05	1.51169036657E+02	5.77105779366E-05	1.61676314587E+02	1.24934958772E-01	-1.30769076740E+02
7.69418837675E+10	1.54246612234E-01	-7.20882536845E+01	2.00903095764E-05	1.77051593248E+02	2.76408387898E-05	-1.16867387857E+02	1.22262515440E-01	-1.29006646491E+02
7.69478957916E+10	1.56944788843E-01	-7.25689076641E+01	6.87276810002E-05	9.99402707559E+00	2.94702621710E-05	-5.82644900735E+01	1.21695997952E-01	-1.30526555515E+02
7.69539078156E+10	1.55646019245E-01	-7.25372337061E+01	9.49910422236E-05	-5.18785219845E+00	3.53822524271E-05	-6.10775808332E+01	1.22394679461E-01	-1.31237783728E+02
7.69599198397E+10	1.52444958830E-01	-7.10622182550E+01	6.71029820271E-05	-8.30365524137E+01	5.80716242618E-05	1.44705431298E+02	1.20964115930E-01	-1.30629156254E+02
7.69659318637E+10	1.55369155912E-01	-7.27206732447E+01	1.85467514780E-05	1.32100089402E+02	4.53994986319E-05	-3.49932402383E+01	1.18892420671E-01	-1.30802963807E+02
7.69719438878E+10	1.54276605642E-01	-7.39559122250E+01	3.60063317969E-05	-3.98904495865E+01	5.28522716566E-05	-1.69457015416E+02	1.18784475489E-01	-1.31909413344E+02
7.69779559118E+10	1.54703461616E-01	-7.38523118875E+01	4.79258031855E-05	-1.35483492767E+02	5.01814989755E-05	-3.89092216969E+01	1.16510336527E-01	-1.30647065239E+02
7.69839679359E+10	1.53483697405E-01	-7.37777701203E+01	1.93420395110E-05	1.78425388136E+02	4.57406612878E-05	-2.00963927594E+01	1.16061998051E-01	-1.31823593627E+02
7.69899799599E+10	1.53131305560E-01	-7.31868197767E+01	1.06217227277E-04	1.77191372251E+02	1.05588063314E-04	-1.20280877843E+02	1.15444812959E-01	-1.32580076688E+02
7.69959919840E+10	1.51993332365E-01	-7.32158590497E+01	1.11138855570E-04	-1.51717657437E+02	2.33424449495E-05	-1.57728540715E+02	1.14763832130E-01	-1.32328604026E+02
7.70020040080E+10	1.51465080365E-01	-7.27953143880E+01	3.29674496208E-05	1.56641041952E+02	5.29912974336E-05	1.48638557098E+02	1.15342706374E-01	-1.34611759951E+02
7.70080160321E+10	1.52703120195E-01	-7.35741050434E+01	8.38475529352E-05	1.50511810258E+02	2.59748788221E-05	1.65029277710E+02	1.13314600184E-01	-1.33037748009E+02
7.70140280561E+10	1.55629467456E-01	-7.49147489251E+01	3.57419858155E-05	7.42509094288E+01	2.70771767524E-05	2.63679474250E+00	1.11967363380E-01	-1.32557452861E+02
7.70200400802E+10	1.52118515022E-01	-7.30815891762E+01	5.50473527127E-05	-2.65674139015E+01	2.79907674651E-05	9.82396992019E+01	1.11809138566E-01	-1.34250571426E+02
7.70260521042E+10	1.51282875461E-01	-7.46328497684E+01	5.68136829594E-05	-9.61259466579E+01	7.54240510226E-05	4.07627821188E+01	1.10606910234E-01	-1.35766929822E+02
7.70320641283E+10	1.52127321546E-01	-7.51042605292E+01	1.80773024147E-05	1.56719220191E+00	2.39735148477E-05	6.29394298396E+01	1.08869946498E-01	-1.33785793049E+02
7.70380761523E+10	1.54060782105E-01	-7.58795466483E+01	4.28782105393E-05	4.68117938225E+01	1.61680555108E-05	-6.04279856542E+01	1.10110823907E-01	-1.35579377655E+02
7.70440881764E+10	1.52101446807E-01	-7.63082732657E+01	2.31186605838E-05	9.74368466227E+01	8.27191864520E-05	8.33760719017E+00	1.08928172545E-01	-1.36383206308E+02
7.70501002004E+10	1.51083294580E-01	-7.41710701221E+01	1.99491985626E-05	4.73804123272E+01	1.15911059259E-04	1.29438308499E+01	1.06940523584E-01	-1.34768184260E+02
7.70561122244E+10	1.53443102280E-01	-7.52381245838E+01	2.81716119100E-05	-5.99670014195E+01	8.60596438844E-05	-4.68120644043E+00	1.06039554713E-01	-1.34997644729E+02
7.70621242485E+10	1.52952793021E-01	-7.55629606711E+01	4.42541538039E-05	-5.72970073539E+01	5.49124020694E-05	-5.60661807951E+01	1.05886271811E-01	-1.38058127230E+02
7.70681362725E+10	1.52814078103E-01	-7.74939884482E+01	3.30898610639E-05	4.94913944626E+01	6.28283578489E-05	-1.55764088537E+02	1.05630822430E-01	-1.37642468129E+02
7.70741482966E+10	1.51217134414E-01	-7.57115685530E+01	4.73968259404E-05	1.55958776203E+02	7.66493220059E-05	1.64943758441E+01	1.04364331934E-01	-1.36474318503E+02
7.70801603206E+10	1.50252751520E-01	-7.46363047622E+01	2.09190330667E-05	-1.71727492778E+02	2.00896589171E-05	1.69358253312E+02	1.02794285075E-01	-1.36002927602E+02
7.70861723447E+10	1.49191594727E-01	-7.53451598556E+01	6.14207415475E-05	3.44273653175E+01	5.93945990335E-05	7.14203124917E+01	1.03459623815E-01	-1.39325833669E+02
7.70921843687E+10	1.50248486272E-01	-7.68270894955E+01	4.36886156462E-05	6.90396622688E+01	1.18270425141E-04	9.43175086603E+01	1.03103183345E-01	-1.40695640489E+02
7.70981963928E+10	1.53614091604E-01	-7.76582373799E+01	9.20166852496E-05	7.56936632142E+00	7.15081626931E-05	-1.45853784229E+01	1.01572691294E-01	-1.39665879080E+02
7.71042084168E+10	1.53539297131E-01	-7.78882710408E+01	9.83831110152E-05	-4.75417750654E+01	1.11280755951E-04	-2.70467148047E+01	9.93779824537E-02	-1.37376678071E+02
7.71102204409E+10	1.53644673365E-01	-7.84894655850E+01	1.09758653282E-04	-4.81804095165E+01	1.57031696751E-04	-1.16425907238E+01	9.91100614102E-02	-1.38674616596E+02
7.71162324649E+10	1.51392362366E-01	-7.74348147447E+01	8.79231183976E-05	-1.31424051563E+02	9.64084290048E-05	-7.40420187916E+01	9.93919817771E-02	-1.41385541961E+02
7.71222444890E+10	1.47502008347E-01	-7.65945658835E+01	2.27680002228E-05	6.11594359845E+01	9.90219755052E-05	-4.08804564664E+01	9.88414909705E-02	-1.42513542061E+02
7.71282565130E+10	1.49729110813E-01	-7.74931785426E+01	3.18655530149E-05	4.17367492663E+00	1.35400540264E-04	-8.66438349873E+01	9.60523817463E-02	-1.39249528324E+02
7.71342685371E+10	1.50055684074E-01	-7.77029895469E+01	6.39206450731E-05	-3.24804775467E+01	7.69082235899E-05	-4.81479634163E+01	9.58415232161E-02	-1.41930384705E+02
7.71402805611E+10	1.52669799696E-01	-7.77405814140E+01	1.37550119945E-05	-1.68890133985E+02	4.81205884026E-05	-9.87611540905E+01	9.59669452860E-02	-1.42410840666E+02
7.71462925852E+10	1.48722308673E-01	-7.92853544886E+01	4.99864295242E-05	-7.14023588538E+01	1.23963279049E-04	-1.15477362921E+02	9.48071041855E-02	-1.41667453428E+02
7.71523046092E+10	1.49201258800E-01	-7.85194916058E+01	6.88151976317E-05	-7.19406752835E+01	5.15215069656E-05	-1.07568448652E+02	9.30076745232E-02	-1.41603003785E+02
7.71583166333E+10	1.50809117141E-01	-7.80677176056E+01	9.69173282865E-05	-1.28409741138E+02	3.88462111641E-05	-1.43721485610E+02	9.29689921995E-02	-1.42119828993E+02
7.71643286573E+10	1.49394253070E-01	-7.82701648039E+01	7.96474728694E-05	-1.05906301431E+02	7.85042721776E-05	1.24324874965E+01	9.27546457586E-02	-1.43555164307E+02
7.71703406814E+10	1.47998511963E-01	-7.88719675734E+01	7.09941626979E-05	-9.52460731511E+01	7.32234872917E-05	-1.60377455126E+02	9.08558817812E-02	-1.43781951032E+02
7.71763527054E+10	1.47572768509E-01	-7.93320635536E+01	6.38049170851E-05	-1.11624494032E+02	9.05437779796E-05	-1.23568652728E+02	8.99668420997E-02	-1.41437482455E+02
7.71823647295E+10	1.47954515610E-01	-7.94783977956E+01	1.00086802166E-04	-1.27990897664E+02	8.31074485940E-05	-1.16315028685E+02	8.94778232579E-02	-1.43618936615E+02
7.71883767535E+10	1.47924583114E-01	-7.93526613380E+01	1.54755821811E-04	-1.70549198854E+02	1.09329940762E-04	-1.38020975677E+02	8.76999548398E-02	-1.42036748315E+02
7.71943887776E+10	1.46226039801E-01	-7.92256785724E+01	1.11121702086E-04	-1.38802989568E+02	5.34816593987E-05	1.14241343006E+02	8.80466104929E-02	-1.44023949050E+02
7.72004008016E+10	1.45863544317E-01	-7.95460939351E+01	1.60638613465E-04	-1.44745946977E+02	1.02305037601E-04	1.74796876885E+02	8.83265379618E-02	-1.46352264419E+02
7.72064128257E+10	1.46889350904E-01	-7.95637275508E+01	7.92396303852E-05	-1.73069965516E+02	2.50164676774E-05	-8.46067003242E+01	8.68923154119E-02	-1.46191806020E+02
7.72124248497E+10	1.47172118968E-01	-8.05181150231E+01	1.56262550966E-05	-1.60779525620E+02	3.27088974782E-05	-1.61875560131E+02	8.55300264274E-02	-1.46307462400E+02
7.72184368737E+10	1.48640043587E-01	-8.25130067295E+01	5.95514388254E-05	1.77354767844E+02	1.02797507581E-04	1.73987494488E+02	8.40867553214E-02	-1.45581965857E+02
7.72244488978E+10	1.47777101154E-01	-8.02221507236E+01	8.89406714090E-05	-1.56236688086E+02	1.18741613931E-04	-1.49024356828E+02	8.37521949770E-02	-1.45414441320E+02
7.72304609218E+10	1.46653050219E-01	-7.96628785486E+01	1.33407612516E-04	-1.77068035470E+02	1.13663322482E-04	1.73546377629E+02	8.31259703564E-02	-1.46277729606E+02
7.72364729459E+10	1.47498009289E-01	-8.12126317972E+01	6.65585031579E-05	1.62529198790E+02	7.60779233848E-05	1.72840432760E+02	8.24638156891E-02	-1.47223844398E+02
7.72424849699E+10	1.47177110910E-01	-8.07672573655E+01	6.55769651424E-05	1.21603807450E+02	1.34677044911E-04	1.44658645012E+02	8.16691321370E-02	-1.46667674759E+02
7.72484969940E+10	1.46679298257E-01	-8.14017815032E+01	1.12284941475E-04	1.33251491307E+02	8.68965957799E-05	1.14802829487E+02	8.01041342096E-02	-1.45976808648E+02
7.72545090180E+10	1.46788492396E-01	-8.27589538984E+01	2.27578664821E-05	-1.71376726016E+02	4.89318183971E-05	1.64282459313E+02	8.04149590510E-02	-1.47889831640E+02
7.72605210421E+10	1.44664073546E-01	-8.21765425818E+01	3.53264108418E-05	-8.38486556730E+01	5.36874513901E-05	7.08236551043E+01	7.95235921352E-02	-1.49065720838E+02
7.72665330661E+10	1.47516917348E-01	-8.32519875930E+01	4.51189393472E-05	-1.18455315809E+02	6.20715472939E-05	1.71961088873E+02	7.94410822730E-02	-1.49597325375E+02
7.72725450902E+10	1.46209496503E-01	-8.27839208025E+01	8.26699829461E-05	1.19735717042E+02	9.85302864840E-05	1.59056216551E+02	7.80047615287E-02	-1.48470285397E+02
7.72785571142E+10	1.46507319610E-01	-7.97937288688E+01	9.48452606758E-05	7.67082290226E+01	4.37821632223E-05	1.00317217799E+02	7.68500062944E-02	-1.48233139539E+02
7.72845691383E+10	1.44794381722E-01	-8.26247247913E+01	7.16320128579E-05	7.38550663712E+01	9.20975601236E-05	8.76766576306E+01	7.57577375282E-02	-1.49157278966E+02
7.72905811623E+10	1.44294420182E-01	-8.30412067368E+01	3.09390092844E-05	9.02248239496E+01	5.75757953656E-05	1.56976953091E+02	7.64398301451E-02	-1.51292138393E+02
7.72965931864E+10	1.44181689008E-01	-8.24704826159E+01	8.35027996048E-05	1.34934316671E+02	7.38992989438E-05	1.32486307999E+02	7.40669552127E-02	-1.49361265788E+02
7.73026052104E+10	1.44083165173E-01	-8.24911026923E+01	5.89887901929E-05	1.18602500020E+02	1.00689651578E-04	1.49634868560E+02	7.29666011798E-02	-1.49153062928E+02
7.73086172345E+10	1.44314236243E-01	-8.32740925985E+01	9.22649903555E-05	7.77382423752E+01	1.03334451614E-04	8.87541148861E+01	7.20430612704E-02	-1.49760052721E+02
7.73146292585E+10	1.44608668423E-01	-8.29852743784E+01	6.60421274370E-05	1.17650682578E+02	8.23862362248E-05	9.25536887608E+01	7.13851387658E-02	-1.50101850534E+02
7.73206412826E+10	1.45312105435E-01	-8.23232146128E+01	6.10168714016E-05	7.94844805792E+01	5.32545406078E-05	2.36343328800E+01	7.09241898516E-02	-1.51477778740E+02
7.73266533066E+10	1.42466779181E-01	-8.33877485010E+01	8.79249076186E-05	1.14014512729E+01	8.59171821449E-05	7.92396658302E+01	7.01289972983E-02	-1.51229020275E+02
7.73326653307E+10	1.44526590210E-01	-8.46372596926E+01	4.52368266378E-05	5.25637524099E+01	1.09078095462E-04	5.56196486971E+01	7.01872593814E-02	-1.52317461629E+02
7.73386773547E+10	1.44917124899E-01	-8.51298156530E+01	3.09091857631E-05	1.18276834307E+01	7.24856006729E-05	6.00707195978E+01	6.88136782823E-02	-1.53313675854E+02
7.73446893788E+10	1.43203130822E-01	-8.51899715404E+01	1.05916097057E-04	7.05782101829E+01	3.15998771246E-05	5.89601871624E+01	6.85443789001E-02	-1.53814879142E+02
7.73507014028E+10	1.44020907335E-01	-8.44797041235E+01	6.98677860509E-05	1.34083852320E+01	3.28445168435E-05	5.32882918364E+01	6.71811010039E-02	-1.51611954599E+02
7.73567134269E+10	1.40999694031E-01	-8.42379157502E+01	8.15739764203E-05	3.45725152554E+01	7.46889845894E-05	2.89113590755E+01	6.64777629519E-02	-1.52530260465E+02
7.73627254509E+10	1.41231830251E-01	-8.54887677811E+01	3.09571214614E-05	-1.17324118401E+02	2.89248456994E-05	1.34258373121E+02	6.48426830978E-02	-1.52169399857E+02
7.73687374749E+10	1.44343275690E-01	-8.56287127592E+01	7.14508776860E-05	3.94145557042E+00	3.32455701641E-05	3.01818635525E-01	6.53234639610E-02	-1.55289108717E+02
7.73747494990E+10	1.42344019401E-01	-8.36639470081E+01	2.15114491281E-05	-1.77915197264E+02	6.78882502254E-05	-7.19571596180E+01	6.56760090601E-02	-1.56541338938E+02
7.73807615230E+10	1.40122701850E-01	-8.52908810042E+01	1.82513947602E-05	-7.32219730309E+01	1.60559303985E-05	-1.03195314252E+01	6.37207114886E-02	-1.54924932659E+02
7.73867735471E+10	1.41310181036E-01	-8.43058985384E+01	8.98244340738E-05	4.02262082916E+01	6.10758678929E-05	6.93057106718E+01	6.24717073872E-02	-1.55055537762E+02
7.73927855711E+10	1.41915985877E-01	-8.46692333114E+01	9.36941197791E-05	2.82704080767E+01	9.55831233176E-05	6.39861888145E+00	6.10037949268E-02	-1.55083497178E+02
7.73987975952E+10	1.41431931450E-01	-8.64071292373E+01	6.56931913950E-05	-7.45058701390E+00	2.58488049398E-05	3.10453184380E+01	6.03117690984E-02	-1.55761693774E+02
7.74048096192E+10	1.41564484413E-01	-8.56821449994E+01	7.01967272503E-05	8.70391573653E+00	1.06331893472E-04	-4.42219021056E+01	6.10917147016E-02	-1.56888031626E+02
7.74108216433E+10	1.41194369378E-01	-8.64527639271E+01	6.36881631058E-05	-1.96162063886E+01	3.52455219470E-05	-4.82910857124E+01	5.99057825587E-02	-1.56913309498E+02
7.74168336673E+10	1.40512625813E-01	-8.65112121887E+01	4.75772308899E-05	-2.09514698632E+00	4.42687115183E-05	-7.66430029289E+00	5.86765502547E-02	-1.57332336527E+02
7.74228456914E+10	1.39579138526E-01	-8.51082476700E+01	7.09833473373E-06	-5.56935047215E+01	2.65520288708E-05	-8.68831851232E+01	5.78964390106E-02	-1.56379915032E+02
7.74288577154E+10	1.40865085478E-01	-8.70236956510E+01	8.10525168143E-05	-1.18186154509E+02	8.42083074475E-05	4.45504595136E+01	5.69038917390E-02	-1.57245250301E+02
7.74348697395E+10	1.39872853904E-01	-8.70670883479E+01	4.86879697660E-05	-7.92103561448E+01	1.56803385571E-05	-8.05487389156E+01	5.64297590929E-02	-1.58393784395E+02
7.74408817635E+10	1.39960854668E-01	-8.68315621147E+01	1.29172395444E-05	6.55845780370E+01	1.09946771689E-04	3.18953353156E+01	5.56294590504E-02	-1.58840162845E+02
7.74468937876E+10	1.38872555961E-01	-8.55749870584E+01	8.58807587993E-05	-5.52735995524E+01	1.04871863209E-04	-3.40974142683E+01	5.44580479747E-02	-1.57955888366E+02
7.74529058116E+10	1.38342457741E-01	-8.40403441112E+01	3.56909977092E-05	-4.82684319763E+01	7.05943131287E-05	-8.13517744648E+01	5.35488349372E-02	-1.57038710075E+02
7.74589178357E+10	1.37882015882E-01	-8.62736457308E+01	4.92004801806E-05	-9.44406239729E+01	8.45453825943E-05	-6.76745048538E+01	5.37888805780E-02	-1.59296132477E+02
7.74649298597E+10	1.38014685655E-01	-8.66863648017E+01	2.96655537939E-05	-4.17065468847E+01	8.12902988401E-05	2.21332029388E+01	5.29834286001E-02	-1.60772920273E+02
7.74709418838E+10	1.41289748249E-01	-8.77865885832E+01	1.27311940276E-04	-6.37964383116E+01	7.53334406012E-05	1.08475594065E+01	5.20660471700E-02	-1.60555274866E+02
7.74769539078E+10	1.42982824215E-01	-8.92260614117E+01	9.74169304948E-05	-4.45269194426E+01	1.04784863504E-04	-3.02501618036E+01	5.07849291529E-02	-1.60034083623E+02
7.74829659319E+10	1.39540887544E-01	-8.79479428401E+01	1.08131445210E-04	-8.34604762953E+01	9.66353293618E-05	-5.04683351752E+01	5.00027281896E-02	-1.60668821172E+02
7.74889779559E+10	1.39186378436E-01	-8.82079811085E+01	1.14747720818E-04	-9.74455250034E+01	5.42784026671E-05	-2.31987550667E+01	4.91632390897E-02	-1.60263330477E+02
7.74949899800E+10	1.38764803225E-01	-8.79745480264E+01	5.96889263660E-05	-7.76206682790E+01	7.78297565513E-05	-1.10711841000E+02	4.87709275226E-02	-1.62011592707E+02
7.75010020040E+10	1.36239227441E-01	-8.63360749553E+01	9.08564047773E-05	-1.00476224102E+02	1.03630560583E-04	-2.98580884231E+01	4.82119213471E-02	-1.61725395335E+02
7.75070140281E+10	1.40376335964E-01	-8.91106427078E+01	1.01108125397E-04	-6.37142981075E+01	1.15723215615E-04	-7.32655076324E+01	4.73619795816E-02	-1.62725125360E+02
7.75130260521E+10	1.39068419042E-01	-8.64992952475E+01	1.84304795076E-04	-8.67584038469E+01	1.08253284976E-04	-1.02678795888E+02	4.57075671697E-02	-1.61600324234E+02
7.75190380762E+10	1.38163219047E-01	-8.91554443837E+01	1.48455544044E-04	-1.03905894074E+02	1.23793632250E-04	-1.30221547774E+02	4.59049182462E-02	-1.64216850339E+02
7.75250501002E+10	1.39708125646E-01	-8.74484123774E+01	3.05056356269E-05	-1.13445724261E+02	3.23609531290E-05	-1.17736167594E+02	4.39377421921E-02	-1.62396250084E+02
7.75310621242E+10	1.36926834331E-01	-8.76249732771E+01	5.20917373267E-05	-1.48895110028E+02	8.87218080135E-05	-7.15282307365E+01	4.38879116000E-02	-1.63116110655E+02
7.75370741483E+10	1.36754306591E-01	-8.85017978583E+01	2.54987631512E-05	1.70294119774E+02	1.03379315569E-04	-1.55203152316E+02	4.41155989722E-02	-1.64654423682E+02
7.75430861723E+10	1.38852701831E-01	-8.87361008913E+01	7.21665253184E-05	-1.08207689788E+02	5.63845247147E-05	-1.42897015013E+02	4.28475086553E-02	-1.64981594805E+02
7.75490981964E+10	1.39867956699E-01	-8.97010159757E+01	8.49580354682E-05	1.78362397997E+02	8.17382496683E-05	1.67005414550E+02	4.19711883184E-02	-1.65768439786E+02
7.75551102204E+10	1.38447754221E-01	-8.73461351266E+01	1.16824378034E-04	1.73007887137E+02	4.43163432229E-05	1.74824522794E+02	4.10071171404E-02	-1.65323015327E+02
7.75611222445E+10	1.38295038762E-01	-8.93239931495E+01	6.48351719541E-05	1.72869301035E+02	1.93660533289E-05	1.59917883247E+02	4.02048525490E-02	-1.65173761155E+02
7.75671342685E+10	1.38543864941E-01	-9.05649195676E+01	2.87527961577E-05	-1.34076311504E+02	6.30553298162E-05	1.48808138326E+02	3.89292716430E-02	-1.65320294505E+02
7.75731462926E+10	1.36079462309E-01	-8.99467793164E+01	6.21567594671E-05	-2.86782992265E+00	4.97268367808E-05	1.54869439435E+02	3.87261265603E-02	-1.66122634667E+02
7.75791583166E+10	1.35847169966E-01	-8.93519288537E+01	4.17411810269E-05	-1.52402503459E+02	5.09449437182E-05	1.33295133991E+02	3.83911648507E-02	-1.66884964128E+02
7.75851703407E+10	1.36215686271E-01	-8.89411917231E+01	3.73180933719E-05	6.22815176047E+01	5.17419078518E-05	1.64109025200E+02	3.62976033324E-02	-1.66801958593E+02
7.75911823647E+10	1.37298615477E-01	-9.05464662158E+01	8.91917302445E-05	1.69915272660E+02	4.18122275533E-05	1.22496669781E+02	3.57170102993E-02	-1.67327548524E+02
7.75971943888E+10	1.35638513819E-01	-8.98419703929E+01	8.39479496636E-05	-1.45003285940E+02	3.35016065012E-05	7.87707194226E+01	3.53734635093E-02	-1.67792463204E+02
7.76032064128E+10	1.35450325553E-01	-9.02200514617E+01	2.49661929889E-05	-1.64913035116E+02	2.15872518986E-05	6.83201260181E+01	3.53972013692E-02	-1.68853691989E+02
7.76092184369E+10	1.36640733780E-01	-9.08073327737E+01	2.84249473832E-05	1.29066721956E+02	6.41170297283E-05	-1.50391559244E+02	3.39685193737E-02	-1.67997033447E+02
7.76152304609E+10	1.38772057696E-01	-9.17292406960E+01	4.08365098807E-05	1.18008037748E+02	6.46854350609E-05	1.70301836110E+02	3.30390675116E-02	-1.69011619082E+02
7.76212424850E+10	1.35985538527E-01	-9.18074194686E+01	4.21578956047E-05	1.69597471393E+02	2.59056237613E-05	1.23380177745E+02	3.27313038727E-02	-1.69959242477E+02
7.76272545090E+10	1.36081112556E-01	-9.18158829554E+01	3.81330898404E-05	-1.53820147696E+02	4.30153024910E-05	-1.65137577099E+02	3.13699446323E-02	-1.69142910298E+02
7.76332665331E+10	1.36897337801E-01	-9.10429729346E+01	9.89447442051E-05	1.69479513447E+02	4.20859661628E-05	1.71580393453E+02	3.14031599379E-02	-1.69722182366E+02
7.76392785571E+10	1.35705273604E-01	-9.03007305466E+01	9.72644735342E-05	1.77813532589E+02	8.09294803950E-05	1.60817170736E+02	3.03258508626E-02	-1.70935186610E+02
7.76452905812E+10	1.35728011410E-01	-9.01903542680E+01	5.94638145537E-05	1.06858416004E+02	4.11406925479E-05	9.88127044055E+01	2.90520248056E-02	-1.72450533430E+02
7.76513026052E+10	1.35662265794E-01	-9.26408232183E+01	1.33121477787E-05	1.23787008272E+02	6.56543262190E-05	5.06464613521E+01	2.79446593193E-02	-1.71102914634E+02
7.76573146293E+10	1.38415352690E-01	-9.26763510012E+01	1.90192606175E-05	-1.75838397380E+02	6.88687906059E-06	1.12715661225E+02	2.77229476415E-02	-1.70984895535E+02
7.76633266533E+10	1.36530694890E-01	-9.24149772830E+01	6.70257514907E-05	-1.52577253779E+02	1.51919350072E-05	1.41684378865E+02	2.73451016532E-02	-1.72270804055E+02
7.76693386774E+10	1.36487683575E-01	-9.28581921309E+01	1.07782299811E-04	1.15221018718E+02	3.56738235431E-05	1.43760603926E+02	2.59971559018E-02	-1.71993289102E+02
7.76753507014E+10	1.35570145673E-01	-9.42488731978E+01	4.88121234392E-05	9.20903285002E+01	3.95587260383E-05	7.60034815049E+01	2.55540755050E-02	-1.72788624649E+02
7.76813627255E+10	1.34539565485E-01	-9.19410612961E+01	6.10958627563E-05	8.20630207329E+01	4.78285351516E-05	7.55672754471E+01	2.48287325985E-02	-1.74259182952E+02
7.76873747495E+10	1.38500971966E-01	-9.35017437861E+01	1.04840671547E-04	4.29954218513E+01	4.67982112780E-05	7.73794996653E+01	2.41039025519E-02	-1.75280803452E+02
7.76933867735E+10	1.33947129852E-01	-9.20166804474E+01	5.98286236118E-05	2.93992888744E+01	4.42179563995E-05	-1.87121437308E+01	2.33289714468E-02	-1.74935236911E+02
7.76993987976E+10	1.35786151382E-01	-9.21849019341E+01	9.37822571543E-05	-1.38292653457E+01	6.89292385628E-05	-2.10947189503E+01	2.22398235431E-02	-1.74345114798E+02
7.77054108216E+10	1.34326839670E-01	-9.26308500980E+01	7.23353704903E-05	5.37661478920E+00	2.33389095238E-05	-9.91966954024E+01	2.15698638709E-02	-1.75543350465E+02
7.77114228457E+10	1.36524933119E-01	-9.49921702299E+01	3.32821995374E-05	7.86954297892E+01	6.36928245964E-05	1.03073934734E+02	2.06218367658E-02	-1.75643959588E+02
7.77174348697E+10	1.33874853540E-01	-9.37225944164E+01	6.09765510800E-05	1.42661549322E+02	3.56874423980E-05	1.00439807590E+02	2.02918325901E-02	-1.76021032826E+02
7.77234468938E+10	1.33202434361E-01	-9.45904804532E+01	3.98537797202E-05	4.41703590891E+01	2.62274351937E-05	1.03161118144E+02	1.93538300948E-02	-1.76494784334E+02
7.77294589178E+10	1.35474202101E-01	-9.46361969042E+01	2.19285022928E-05	1.80682393389E+01	6.07560011151E-05	1.00221759438E+02	1.85132290363E-02	-1.77798043451E+02
7.77354709419E+10	1.32025491333E-01	-9.30321564237E+01	6.05954081300E-05	2.46684390345E+01	3.22344059736E-05	4.72542461380E+01	1.77998147497E-02	-1.78161820989E+02
7.77414829659E+10	1.32739307175E-01	-9.31310833788E+01	3.65306961541E-05	8.89218565304E+01	4.55517915093E-05	4.81830795134E+01	1.69678410310E-02	-1.79882492982E+02
7.77474949900E+10	1.33279200607E-01	-9.41229363624E+01	5.57114769878E-05	1.20056047072E+02	2.71833014064E-05	1.46261528982E+02	1.59642332753E-02	-1.78481830362E+02
7.77535070140E+10	1.33547548312E-01	-9.44762657216E+01	5.07260599353E-05	6.59305436691E+01	6.25632690760E-05	8.79067172646E+01	1.51717124625E-02	-1.79612809144E+02
7.77595190381E+10	1.33891308591E-01	-9.54062134637E+01	1.36841975425E-04	8.80272476149E+01	1.05534520407E-04	6.14004029686E+01	1.44645637017E-02	-1.79861340725E+02
7.77655310621E+10	1.31903126350E-01	-9.51397074869E+01	6.85513677176E-05	5.48276107657E+01	1.18155487298E-04	3.36869447630E+01	1.38182932779E-02	1.78876795870E+02
7.77715430862E+10	1.32850282402E-01	-9.47782281472E+01	7.46211350807E-05	8.55333020068E+01	9.31270878588E-05	1.01793563103E+01	1.31202430770E-02	1.77633202519E+02
7.77775551102E+10	1.33473912783E-01	-9.46772598491E+01	1.93543315211E-05	6.98046625116E+01	8.33380222461E-05	4.57823079843E+01	1.23720542511E-02	1.79131462801E+02
7.77835671343E+10	1.33357796297E-01	-9.48510018027E+01	6.23474203774E-05	-3.81971678964E+01	5.80830252084E-05	3.20971116644E+01	1.18217932440E-02	1.75356624539E+02
7.77895791583E+10	1.32241558340E-01	-9.47403745291E+01	9.33004483546E-05	7.12492144324E+01	5.17843081132E-05	-1.10085093220E+01	1.07180540359E-02	1.75399071621E+02
7.77955911824E+10	1.33780058638E-01	-9.65888316503E+01	7.80893720637E-05	2.95816311223E+01	7.72971561330E-05	4.33305892787E+01	9.75765567614E-03	1.76406927495E+02
7.78016032064E+10	1.30858088852E-01	-9.42567067685E+01	1.72370271350E-05	1.10861450811E+01	1.03036303395E-04	1.56498066850E+01	8.98462004144E-03	1.74920060489E+02
7.78076152305E+10	1.32091373553E-01	-9.66028326572E+01	3.64925364640E-05	-1.15589367033E+01	3.58825321807E-05	1.57434866250E+01	8.06341918380E-03	1.73283266694E+02
7.78136272545E+10	1.33936937611E-01	-9.74550923473E+01	5.43790906893E-05	-5.59760728358E+01	3.66970993154E-05	-1.51359583508E+01	7.31681200327E-03	1.75423138132E+02
7.78196392786E+10	1.33219509899E-01	-9.67124485119E+01	3.02305032943E-05	6.22644175123E+01	5.94518535945E-05	4.07697615930E+01	6.75415783081E-03	1.73915307465E+02
7.78256513026E+10	1.33418191737E-01	-9.67968856270E+01	3.05488723231E-05	6.89564669286E+01	1.08162970371E-04	-6.02591147438E+00	6.07022500016E-03	1.69628048345E+02
7.78316633267E+10	1.30027044629E-01	-9.62011291189E+01	5.89914766558E-05	-7.41207135350E+00	6.96927355041E-05	-6.27897126165E+01	5.27381070551E-03	1.71437561702E+02
7.78376753507E+10	1.31494194468E-01	-9.65543772327E+01	5.47675125424E-05	7.52612582484E+01	9.22955038163E-05	-1.66417356567E+01	4.84649669624E-03	1.65170093306E+02
7.78436873747E+10	1.31700827296E-01	-9.59670602102E+01	7.70942675076E-05	-3.82656402905E+01	8.25473188106E-05	-3.62449006808E+01	3.56711078070E-03	1.67538775007E+02
7.78496993988E+10	1.32960726577E-01	-9.73491829039E+01	5.36051099315E-05	-1.59615365982E+01	7.74911943379E-05	-5.75206890887E+01	2.99022996624E-03	1.59898047388E+02
7.78557114228E+10	1.30404752525E-01	-9.79030328238E+01	2.93507296722E-05	-4.17084357988E+01	1.51287502260E-04	-7.95914804791E+01	1.93878683489E-03	1.62604909052E+02
7.78617234469E+10	1.31003601118E-01	-9.78696788843E+01	6.65095895538E-05	-8.77122769784E+01	7.23120008594E-05	-1.00538452694E+02	2.13426749334E-03	1.41303800571E+02
7.78677354709E+10	1.31182839866E-01	-9.72237550872E+01	6.07152009906E-05	-1.63065345710E+02	8.45910927070E-05	-1.09607155335E+02	5.75698576657E-04	1.20919720939E+02
7.78737474950E+10	1.30066005905E-01	-9.61781471440E+01	1.31475343319E-05	-1.28767677287E+02	4.79405551815E-05	4.51652408682E+01	1.02366816994E-03	9.97565025625E+01
7.78797595190E+10	1.29196078789E-01	-9.60382340296E+01	6.74665877983E-05	-1.05974630471E+02	2.50676400297E-05	-7.75697670248E+01	1.32683499683E-03	7.26204833926E+01
7.78857715431E+10	1.29766327016E-01	-9.95324451081E+01	3.94830332311E-05	-2.85339200208E+01	4.19096895463E-05	-1.48423754116E+02	1.94337335450E-03	2.13786733723E+01
7.78917835671E+10	1.30341321337E-01	-9.82378001585E+01	7.67185901757E-05	-5.10787627354E+01	6.41856635972E-05	-1.94678492473E+01	2.75123486792E-03	8.43076764267E+00
7.78977955912E+10	1.30490150568E-01	-9.86600639469E+01	4.59691090166E-05	-4.86755185117E+01	4.71960870942E-05	-1.33717464627E+02	3.49913139478E-03	1.41555971514E+00
7.79038076152E+10	1.29137004624E-01	-9.85863674477E+01	2.38795838376E-05	-1.64315656563E+02	7.92677724311E-05	-1.50314154905E+02	3.68549754908E-03	1.75399771411E+01
7.79098196393E+10	1.28870201426E-01	-9.71586761385E+01	2.68471609437E-05	-1.37082006449E+02	4.06096289691E-05	1.19042120452E+02	4.50460408492E-03	6.86911490243E+00
7.79158316633E+10	1.28953286929E-01	-9.79603237369E+01	3.75313679577E-05	1.63381231947E+02	4.41863266340E-05	-8.03375060706E+01	5.32397126604E-03	-7.89158902695E-01
7.79218436874E+10	1.30106867060E-01	-1.00026091542E+02	1.03917043333E-04	-7.47234686476E+01	2.03876017270E-05	-5.53647560658E+01	6.08986124780E-03	-2.29901678374E+00
7.79278557114E+10	1.30749554117E-01	-1.00585113871E+02	6.51055056398E-05	-4.19282845202E+01	7.05251851651E-05	4.75253937827E+01	7.19216164724E-03	-5.56950280975E+00
7.79338677355E+10	1.33215946696E-01	-1.01424261179E+02	6.05645661633E-05	-4.67099800111E+01	1.01310285425E-04	-8.56802831326E+01	7.11577327045E-03	-2.53823174898E+00
7.79398797595E+10	1.27382425625E-01	-9.71755112124E+01	4.22776892638E-05	-5.91955996416E+01	5.42042334566E-05	-9.58396606925E+01	7.33826176024E-03	1.63038708091E+00
7.79458917836E+10	1.29458541815E-01	-9.93958825222E+01	4.24188908297E-05	-1.71296693881E+02	5.03379771546E-05	-1.79030013560E+02	9.12862386329E-03	-2.55499724485E+00
7.79519038076E+10	1.27698721066E-01	-9.97019517281E+01	2.66416249155E-05	1.55007089983E+02	3.33508609394E-05	1.62510134258E+02	9.34271073198E-03	-1.99538065216E+00
7.79579158317E+10	1.27838546382E-01	-9.84880845024E+01	3.19410417342E-05	6.94290856739E+01	4.66020318073E-05	4.64357561927E+01	1.09873399463E-02	-8.23277896880E+00
7.79639278557E+10	1.29144620827E-01	-9.93919995375E+01	1.02225289405E-04	-1.17603266630E+02	2.53271532087E-05	1.08983896090E+02	1.09293873554E-02	-3.57677620438E+00
7.79699398798E+10	1.28022574028E-01	-1.00440485251E+02	1.12152659068E-04	1.55649756309E+02	8.19608304513E-05	-1.11570168409E+02	1.21855188062E-02	-7.69389068999E+00
7.79759519038E+10	1.27677700669E-01	-1.00676289437E+02	7.13684310704E-05	1.63939905789E+02	8.01284122554E-05	-1.72702769225E+02	1.19483179797E-02	-6.86367011392E+00
7.79819639279E+10	1.30546465250E-01	-1.01983793293E+02	2.20221597907E-05	6.11843991711E+00	2.90903118962E-05	-3.63568837440E+01	1.31334898195E-02	-8.22977216460E+00
7.79879759519E+10	1.25881142207E-01	-9.86011268088E+01	8.05227182655E-05	-1.65940782101E+02	3.96428760181E-05	-1.12812552240E+02	1.45774556048E-02	-1.08992624598E+01
7.79939879760E+10	1.28027160275E-01	-1.00150365219E+02	2.46639466809E-05	-1.57386548938E+02	5.32344061662E-05	-1.30539080739E+02	1.39669332417E-02	-9.58525466079E+00
7.80000000000E+10	1.27922854061E-01	-1.01379085649E+02	7.35698852304E-05	-1.24746308987E+02	4.32303923310E-05	1.71349911775E+02	1.44335022893E-02	-8.93702224277E+00
