# Hz S MA R 50
! CMT, C4420, 21421029, 25.1.2/3
! Date: 8/7/2025 1:32:19 PM
! Data: Format (Calibration Info)
! Freq	S33:Mag/Ang(F2)	S43:Mag/Ang(F2)	S34:Mag/Ang(F2)	S44:Mag/Ang(F2)
7.50000000000E+10	1.97606559904E-01	-1.24831084348E+01	6.29602642032E-05	1.37341615019E+02	1.23047727680E-04	-1.64406320001E+02	2.79827584390E-01	-2.98079050577E+01
7.50060120240E+10	1.98337282389E-01	-1.26688860305E+01	9.93482256669E-05	1.24670897190E+02	5.50664945327E-05	1.66346490333E+02	2.74256203672E-01	-2.79180977026E+01
7.50120240481E+10	2.01348755497E-01	-1.39877157033E+01	6.72299957918E-05	1.49185352143E+02	6.40366753623E-05	1.02742810212E+02	2.78089544337E-01	-2.97740253199E+01
7.50180360721E+10	2.01244830873E-01	-1.59307037407E+01	2.71408795636E-05	1.64072959640E+02	1.25834030539E-04	1.48144252989E+02	2.77914496584E-01	-3.03535765458E+01
7.50240480962E+10	2.01278330849E-01	-1.66662969536E+01	6.68551814755E-05	8.61582295685E+01	1.03802073341E-04	1.10923077295E+02	2.80297864925E-01	-3.19259162867E+01
7.50300601202E+10	2.00373971633E-01	-1.54576386138E+01	6.49873738910E-05	1.28857135329E+02	6.69657358895E-05	1.02643145641E+02	2.79383282458E-01	-3.14164175091E+01
7.50360721443E+10	2.01571137866E-01	-1.58216806081E+01	9.27630962136E-05	1.02202426350E+02	9.92169787096E-05	1.23629433788E+02	2.72483659470E-01	-2.91770153339E+01
7.50420841683E+10	1.99420520680E-01	-1.37716679497E+01	6.96497928720E-05	1.01535368811E+02	3.82614152196E-05	8.58003414401E+01	2.74010866266E-01	-3.02622092894E+01
7.50480961924E+10	1.99845834710E-01	-1.78016492866E+01	7.64692496441E-05	1.54854687831E+02	5.64805473134E-05	8.53308709904E+01	2.71940693715E-01	-3.14126224698E+01
7.50541082164E+10	1.96851459706E-01	-1.62570858912E+01	1.23083977533E-04	1.32983625205E+02	5.28207755506E-05	1.06331973383E+02	2.74903650624E-01	-3.19372662735E+01
7.50601202405E+10	1.98779409260E-01	-1.42516338790E+01	4.17478366047E-05	1.37274618926E+02	6.55871518148E-05	-1.68762271505E+02	2.74640879971E-01	-3.12356338034E+01
7.50661322645E+10	2.01004466505E-01	-1.56412539906E+01	9.09066827689E-05	1.46082706174E+02	4.54430992233E-05	-1.66722070226E+02	2.73519076013E-01	-3.19278797578E+01
7.50721442886E+10	1.97486421235E-01	-1.54544213820E+01	9.32936739180E-05	-1.72395232772E+02	8.66398426495E-05	1.52834441383E+02	2.73827339641E-01	-3.23743444465E+01
7.50781563126E+10	1.99963892723E-01	-1.89155285784E+01	7.95694489162E-05	1.03560736367E+02	8.83184778866E-05	7.78092157119E+01	2.74128906211E-01	-3.28475074290E+01
7.50841683367E+10	1.95797226841E-01	-1.69228289321E+01	1.37790835161E-04	9.94486751178E+01	1.10908314371E-04	6.63560023256E+01	2.79119116043E-01	-3.37174695376E+01
7.50901803607E+10	1.98377162989E-01	-1.70702554712E+01	8.86090928693E-05	7.24660188187E+01	1.04565479292E-04	3.92596721901E+01	2.78781198626E-01	-3.34834588274E+01
7.50961923848E+10	1.98909264488E-01	-1.63102917803E+01	4.57693048069E-05	9.57081826762E+01	7.11201063424E-05	3.49576101958E+01	2.71230850822E-01	-3.27911773334E+01
7.51022044088E+10	1.95890651395E-01	-1.58801153195E+01	2.19850263238E-05	1.01546490973E+02	6.76778709879E-05	4.72490282939E+01	2.70462464312E-01	-3.21134966012E+01
7.51082164329E+10	1.94741397654E-01	-1.68212368410E+01	8.09582138873E-05	1.25702586512E+02	8.95052293263E-05	4.89333625052E+01	2.73618800303E-01	-3.36299365983E+01
7.51142284569E+10	1.93128431621E-01	-1.45519199180E+01	8.13705558271E-05	3.85089708770E+01	6.33002476075E-05	-1.53260128443E+00	2.76027777709E-01	-3.53431621286E+01
7.51202404810E+10	1.96478275629E-01	-1.70779953399E+01	1.98607574007E-05	-9.77120652914E+00	4.31985489353E-05	-1.78019888777E+02	2.78430202982E-01	-3.60893962431E+01
7.51262525050E+10	1.96950476175E-01	-1.95639802037E+01	7.66318868935E-05	1.00776619647E+02	7.60212905486E-05	1.02694921890E+02	2.73330747298E-01	-3.60297577843E+01
7.51322645291E+10	1.97413105614E-01	-1.94155193053E+01	7.78537594087E-05	4.86125927243E+01	8.78254170049E-05	8.14231528544E+01	2.71759980521E-01	-3.43342754650E+01
7.51382765531E+10	1.96362157262E-01	-1.89036152276E+01	7.83817831479E-05	6.29881905341E+01	7.67973958321E-05	2.81543090759E+01	2.71272501934E-01	-3.55222212078E+01
7.51442885772E+10	1.95157676792E-01	-1.86000691838E+01	8.58556845282E-05	1.06164264709E+02	7.93181873836E-05	3.20732678956E+01	2.73509453892E-01	-3.52063881145E+01
7.51503006012E+10	1.93496193355E-01	-1.79022180013E+01	5.11041545144E-05	2.11338592875E+01	8.01293665827E-05	-2.40348926361E+01	2.73731642453E-01	-3.69916292031E+01
7.51563126253E+10	1.91241549682E-01	-1.77516818498E+01	4.63558411556E-05	-1.18379514558E+02	6.30737889565E-05	6.70511631205E+01	2.73882844236E-01	-3.69102370460E+01
7.51623246493E+10	1.97519971445E-01	-2.12404042797E+01	3.30887112001E-05	6.95304487774E+01	6.89050027292E-05	7.68655563772E+01	2.73518725587E-01	-3.65295954355E+01
7.51683366733E+10	1.91098350430E-01	-1.73347936488E+01	1.82619155612E-05	-1.43457415760E+01	7.06014764844E-05	-9.14912157206E+01	2.73586795037E-01	-3.62683655577E+01
7.51743486974E+10	1.97084250103E-01	-2.04113848723E+01	6.76658986471E-05	5.33210634734E+01	8.11910943112E-05	5.95452827380E+01	2.72940906011E-01	-3.72448358764E+01
7.51803607214E+10	1.94868477474E-01	-1.96750717914E+01	1.04521732838E-04	4.16694813147E+01	8.49742766543E-05	-2.90595534941E+01	2.69412505662E-01	-3.71401691303E+01
7.51863727455E+10	1.96384313565E-01	-2.06895265413E+01	8.95908359742E-05	1.98610329950E+01	1.02263907097E-04	1.10550483680E+01	2.67685841697E-01	-3.62908033185E+01
7.51923847695E+10	1.92544311103E-01	-2.01786349672E+01	1.47517045354E-04	-1.83590669093E-01	1.05608970702E-04	-1.93646382504E+01	2.74961293822E-01	-3.82112828154E+01
7.51983967936E+10	1.92591138040E-01	-1.91662571030E+01	1.00115072791E-04	-4.22141867214E+00	1.45270747206E-04	-5.35669551959E+01	2.74355799010E-01	-3.84820465509E+01
7.52044088176E+10	1.95629911757E-01	-1.95847317450E+01	1.20647404420E-04	-2.94769029057E+01	8.40021029327E-05	-6.04131852466E+01	2.72451783915E-01	-3.87929141844E+01
7.52104208417E+10	1.94278202004E-01	-2.10457075957E+01	6.86096654373E-05	-8.25976768617E+01	6.41775768899E-05	-9.39994541375E+01	2.68858029887E-01	-3.83684020507E+01
7.52164328657E+10	1.96093732220E-01	-2.22572261369E+01	6.13158819361E-05	-1.47181122200E+02	7.88230894475E-05	1.95506669057E+01	2.71731620214E-01	-3.93999149053E+01
7.52224448898E+10	1.93289303833E-01	-2.12579628839E+01	2.94966486686E-05	-4.98791502836E+01	9.34021835758E-05	6.82490354470E+01	2.65541643723E-01	-3.76543291619E+01
7.52284569138E+10	1.96401539968E-01	-2.05856253193E+01	1.71308847441E-05	9.67258664184E+01	8.88013597287E-05	4.14868412515E+00	2.68629916046E-01	-3.96663756868E+01
7.52344689379E+10	1.92510580045E-01	-2.10461986337E+01	4.82169483456E-05	8.69738582409E-01	1.00844582824E-04	-1.88136954475E+01	2.69447059085E-01	-3.99355513585E+01
7.52404809619E+10	1.94981674660E-01	-2.06751525981E+01	3.06145438043E-05	-1.14815970890E+02	8.13392867599E-05	-3.19514217086E+01	2.69789598980E-01	-3.98396246612E+01
7.52464929860E+10	1.95281061650E-01	-2.25465388702E+01	4.84078812736E-05	1.13836484365E+01	5.71581933182E-05	-8.93440379944E+00	2.71010775314E-01	-4.05606826162E+01
7.52525050100E+10	1.89818419561E-01	-2.07983356082E+01	3.95079487982E-05	-1.08803560990E+02	2.28457043999E-05	-7.70805780359E+01	2.73435029971E-01	-4.25551039948E+01
7.52585170341E+10	1.90622795045E-01	-2.11195264770E+01	4.25252334045E-05	-6.56358884204E+01	8.94630821722E-05	-1.38647087690E+01	2.68211478270E-01	-4.05213154027E+01
7.52645290581E+10	1.95036347869E-01	-2.30211226746E+01	1.01881007221E-04	-6.96454453446E+01	3.65248351789E-05	-6.52645442681E+01	2.72685446250E-01	-4.19883820218E+01
7.52705410822E+10	1.93427811045E-01	-2.34726239166E+01	1.64527085939E-05	-6.30640660302E+01	1.37097867406E-04	-5.75814212095E+01	2.70687487084E-01	-4.24396548748E+01
7.52765531062E+10	1.91056396544E-01	-2.23677786675E+01	2.35131005591E-05	1.44576368726E+01	5.91343314679E-05	-5.92181789799E+01	2.64648499176E-01	-4.14995123251E+01
7.52825651303E+10	1.87946643289E-01	-2.08931461813E+01	1.05313019428E-05	4.95326692755E+01	6.75741473056E-05	-3.16946786076E+01	2.65195040977E-01	-4.18074135290E+01
7.52885771543E+10	1.92750642885E-01	-2.34483253108E+01	6.35137773863E-05	-1.66571515753E+02	6.81960822803E-05	-1.29713715547E+02	2.69133314356E-01	-4.29206834948E+01
7.52945891784E+10	1.94120295243E-01	-2.32388085904E+01	4.39570431413E-05	-3.34229254398E+01	2.66196360833E-05	-1.06432823360E+02	2.66739007784E-01	-4.19513859729E+01
7.53006012024E+10	1.92059396398E-01	-2.28873610191E+01	7.86091374501E-05	-1.18972718298E+02	5.23310014304E-05	1.39956617351E+01	2.64924856480E-01	-4.21284906030E+01
7.53066132265E+10	1.87634484057E-01	-2.13263962490E+01	1.03188546177E-04	-4.03101766693E+01	6.89421430674E-05	-8.25473060298E+01	2.64224853512E-01	-4.25076424343E+01
7.53126252505E+10	1.89788986362E-01	-2.37261342137E+01	5.48310274883E-05	2.87078303732E+01	4.54417371402E-05	-8.46572774124E+01	2.65165076321E-01	-4.42240421046E+01
7.53186372745E+10	1.93827686870E-01	-2.53776323011E+01	3.97366365763E-05	-8.99620155577E+01	3.15547539434E-05	-1.24381777437E+02	2.68828978598E-01	-4.53521813495E+01
7.53246492986E+10	1.92901663047E-01	-2.46857315094E+01	7.75547033157E-05	-1.37941581747E+02	5.28397979359E-05	-1.65566792684E+02	2.67763099942E-01	-4.41239899536E+01
7.53306613226E+10	1.91145233910E-01	-2.37520930829E+01	5.07763700478E-05	-5.28465296025E+01	3.21873569619E-05	-2.03063604718E+01	2.68562938346E-01	-4.44243305058E+01
7.53366733467E+10	1.85250290512E-01	-2.12086639210E+01	7.78588055283E-05	-1.20077720609E+02	5.38092970359E-05	-1.10564965897E+02	2.63998536288E-01	-4.51780573836E+01
7.53426853707E+10	1.87727675551E-01	-2.21837304261E+01	8.36905704770E-05	-6.65570306364E+00	9.60357434187E-05	-1.15859339528E+02	2.65235737522E-01	-4.51957988500E+01
7.53486973948E+10	1.93865487936E-01	-2.46121956958E+01	1.04172881347E-04	-1.39271173687E+02	9.82836098827E-05	-1.19567294477E+02	2.65405250804E-01	-4.57989572384E+01
7.53547094188E+10	1.90685702467E-01	-2.45913239982E+01	7.92508160284E-05	-1.38684993412E+02	1.44443995553E-04	-1.58386759719E+02	2.68972968157E-01	-4.72694419539E+01
7.53607214429E+10	1.89280218283E-01	-2.38954756199E+01	4.47313869421E-05	1.68137018046E+02	1.18755539977E-04	-1.68260363760E+02	2.63927084053E-01	-4.60621314780E+01
7.53667334669E+10	1.89721595317E-01	-2.45132886191E+01	1.02277564334E-04	-1.72512253356E+02	1.01135574253E-04	-1.57274206734E+02	2.62607475890E-01	-4.66074308749E+01
7.53727454910E+10	1.90555521090E-01	-2.45200907723E+01	3.39796937332E-05	-1.70150279931E+02	7.35961520998E-05	-1.34292857283E+02	2.63772756910E-01	-4.68673263677E+01
7.53787575150E+10	1.89046409370E-01	-2.52996968228E+01	1.64112956021E-05	8.01161098728E+01	5.73333212507E-05	-1.13268390452E+02	2.64030102871E-01	-4.75277260108E+01
7.53847695391E+10	1.89039231610E-01	-2.44950962684E+01	9.18993127850E-05	1.60184873218E+02	5.86092763916E-05	-1.37816024076E+02	2.61184831278E-01	-4.65099172804E+01
7.53907815631E+10	1.88324641477E-01	-2.42814504231E+01	6.96693220495E-05	1.59537426591E+02	2.96292398816E-05	-1.79386514143E+02	2.62835289393E-01	-4.83754296239E+01
7.53967935872E+10	1.90776059870E-01	-2.63077722825E+01	7.70502193034E-05	1.73449938393E+02	1.49373036157E-05	7.98705024565E+01	2.65359441433E-01	-4.85027692372E+01
7.54028056112E+10	1.92433720477E-01	-2.78747964918E+01	4.38548317844E-05	5.29739908778E+01	6.40666173144E-05	1.74600548269E+02	2.63504147217E-01	-4.80287947721E+01
7.54088176353E+10	1.88680875546E-01	-2.64437796017E+01	3.47719928765E-05	-1.13130993241E+02	3.66985062604E-05	-1.23592214698E+01	2.61462688816E-01	-4.84709942013E+01
7.54148296593E+10	1.89058751053E-01	-2.57393207209E+01	1.53838469693E-05	5.37157235054E+01	5.47137238574E-05	1.15114502816E+02	2.56397057458E-01	-4.82017109930E+01
7.54208416834E+10	1.94028546241E-01	-2.72592453171E+01	2.65059848877E-05	-1.71933246002E+02	3.83275263543E-05	-4.98022957431E+01	2.60627956437E-01	-4.87368643967E+01
7.54268537074E+10	1.90339117385E-01	-2.66253132123E+01	4.59422500762E-05	1.58836064432E+02	5.80912219809E-05	-1.56607024605E+02	2.61382707585E-01	-4.90030984362E+01
7.54328657315E+10	1.86237090653E-01	-2.51656936467E+01	5.06212359382E-05	1.69919959472E+02	4.37189639116E-05	-1.46298249168E+02	2.57202481725E-01	-4.83997538934E+01
7.54388777555E+10	1.88218988606E-01	-2.74244428324E+01	8.45581338715E-05	1.58612155087E+02	5.79260542100E-05	-1.31831335415E+02	2.57953043341E-01	-5.04082361532E+01
7.54448897796E+10	1.83941612015E-01	-2.55744084353E+01	1.07468993267E-04	-1.64245985637E+02	8.91856113651E-05	1.60908529533E+02	2.59706852199E-01	-5.09445694384E+01
7.54509018036E+10	1.91278405381E-01	-2.79092026991E+01	8.85348105101E-05	1.35468919562E+02	4.36061150112E-05	1.17900087071E+02	2.57260526701E-01	-5.00301330432E+01
7.54569138277E+10	1.88236935863E-01	-2.70307929573E+01	4.30237990965E-05	4.35731635392E+01	6.92711049710E-05	7.86880193759E+01	2.58260662209E-01	-5.15049805240E+01
7.54629258517E+10	1.90949926289E-01	-2.85569136600E+01	5.93247702798E-05	1.39399302830E+02	8.04783160797E-05	1.20569209887E+02	2.60897313624E-01	-5.21054021739E+01
7.54689378758E+10	1.89472338552E-01	-2.97774969248E+01	4.81418857091E-05	1.12305807906E+02	3.92960258000E-05	6.36957626113E+01	2.60767574845E-01	-5.23799131386E+01
7.54749498998E+10	1.90485757853E-01	-2.86348995128E+01	8.80769214938E-05	8.27917861440E+01	4.33322802404E-05	-1.64170416677E+02	2.57932906689E-01	-5.15461717551E+01
7.54809619238E+10	1.88784308927E-01	-2.81248899165E+01	4.17007331151E-05	1.25978232314E+02	8.02339897540E-05	-1.46095192704E+02	2.55632825489E-01	-5.11772733216E+01
7.54869739479E+10	1.87973991467E-01	-2.69637406992E+01	1.17986295849E-05	2.89554410284E+01	3.77675502003E-05	-7.92868370206E+01	2.56769172663E-01	-5.30174410198E+01
7.54929859719E+10	1.84981066568E-01	-2.62032249295E+01	2.28235276792E-05	1.25397128737E+02	6.94773727530E-05	8.04950840113E+01	2.59699724097E-01	-5.40247859199E+01
7.54989979960E+10	1.86546401771E-01	-2.91816143467E+01	6.30864026182E-05	-1.37840410296E+02	3.32320180917E-05	1.06418600949E+02	2.58576615911E-01	-5.40932963871E+01
7.55050100200E+10	1.88007101491E-01	-2.94825972327E+01	5.96652596333E-05	5.74351234544E+01	3.35416305974E-05	-1.07217196070E+02	2.58516504639E-01	-5.39746795599E+01
7.55110220441E+10	1.87837931722E-01	-2.78712749725E+01	1.42565317822E-05	-1.38274110816E+02	7.74459497187E-05	-1.61889144228E+02	2.55772822910E-01	-5.41116414002E+01
7.55170340681E+10	1.87828618847E-01	-2.98003160583E+01	6.20683644465E-05	-1.58038994219E+02	8.27255752159E-05	9.98533377062E+01	2.55425660156E-01	-5.38713679977E+01
7.55230460922E+10	1.88345974045E-01	-3.06304697012E+01	7.31785525605E-05	9.54990019419E+01	3.05414122859E-05	1.40052778670E+02	2.55666150020E-01	-5.43855117568E+01
7.55290581162E+10	1.88002926711E-01	-3.11130441353E+01	7.89527336944E-05	1.03110860652E+02	8.28446884834E-05	9.54404281390E+01	2.52823552155E-01	-5.35368236246E+01
7.55350701403E+10	1.90216568282E-01	-3.17405875716E+01	7.18756365422E-05	4.10305132978E+01	4.24454080383E-05	5.48320527166E+01	2.50228280516E-01	-5.39569307608E+01
7.55410821643E+10	1.85706567235E-01	-2.89166935729E+01	4.61486525470E-05	-7.13948225139E+00	5.67974296570E-05	9.07349806895E+01	2.55204687549E-01	-5.61292885866E+01
7.55470941884E+10	1.86306001563E-01	-2.89566109335E+01	4.87045767336E-05	3.57002027120E+01	5.09201758853E-05	5.65370377790E+01	2.55292047026E-01	-5.69433571640E+01
7.55531062124E+10	1.86209313295E-01	-2.96078605518E+01	2.20298536625E-05	-1.27778833377E+02	4.70494937302E-05	5.57027721795E+01	2.54317548399E-01	-5.59183942824E+01
7.55591182365E+10	1.84364752522E-01	-3.09411524648E+01	3.55268034467E-05	-1.45049024456E+02	2.76894693552E-05	-1.78696798744E+02	2.51940837577E-01	-5.67939896923E+01
7.55651302605E+10	1.85696844370E-01	-3.12153006210E+01	2.26837883223E-05	1.31919266880E+02	1.21080265498E-04	-4.19078093375E+01	2.50890094969E-01	-5.61031803474E+01
7.55711422846E+10	1.89904829403E-01	-3.19943461333E+01	1.44995687392E-05	-9.31750492193E+01	4.87529002977E-05	-8.31416521193E+01	2.53222582589E-01	-5.64129083811E+01
7.55771543086E+10	1.84635605690E-01	-2.98660415986E+01	9.16879002381E-05	1.10634168668E+02	3.63190629263E-05	1.33990253964E+02	2.52533659974E-01	-5.77097298034E+01
7.55831663327E+10	1.82319119751E-01	-3.08564329993E+01	6.14693875542E-05	8.24758305104E+01	5.29283878293E-05	1.29371255894E+02	2.50452937338E-01	-5.82630889633E+01
7.55891783567E+10	1.86050002977E-01	-3.16705789742E+01	4.67191852488E-05	1.28759325635E+02	6.03272345669E-05	1.31738136908E+02	2.50873694409E-01	-5.84307451987E+01
7.55951903808E+10	1.86391995742E-01	-3.25444255153E+01	6.58271756483E-05	5.40620920390E+01	3.27038714428E-05	1.54523966073E+01	2.53711609134E-01	-5.91397295953E+01
7.56012024048E+10	1.91663611498E-01	-3.41187745141E+01	8.42147321365E-05	7.87425076779E+01	5.03398569923E-05	-4.55554180874E+00	2.48783421921E-01	-5.72554476835E+01
7.56072144289E+10	1.86669325704E-01	-3.26116482774E+01	4.22745770406E-05	-2.16073381391E+01	8.04211409735E-05	-4.15987295844E+01	2.47205641236E-01	-5.86689829495E+01
7.56132264529E+10	1.83239673024E-01	-3.07078921859E+01	1.04683842318E-04	1.96459249803E+01	3.57248956849E-05	-4.29046967598E+00	2.50273990097E-01	-5.96191007108E+01
7.56192384770E+10	1.83624159440E-01	-3.29631242344E+01	6.27883963557E-05	6.16203239882E+00	1.06900285931E-04	-3.13072034469E+01	2.49357266013E-01	-5.99674172162E+01
7.56252505010E+10	1.85567134932E-01	-3.36417206679E+01	2.75059534168E-05	3.33878733854E+01	5.25773150201E-05	-1.17482582609E+02	2.49228260557E-01	-5.96846186936E+01
7.56312625251E+10	1.88425392848E-01	-3.43317881064E+01	6.96314636047E-05	-1.47591502288E+02	8.40955859305E-05	-2.65758775794E+01	2.45250734706E-01	-5.89885259301E+01
7.56372745491E+10	1.83996753100E-01	-3.26710766971E+01	7.43035027485E-06	1.51981611401E+02	2.05082796616E-05	-1.27765872940E+02	2.45911061290E-01	-5.93006919200E+01
7.56432865731E+10	1.81757595387E-01	-3.29191616163E+01	3.89886484160E-05	-1.50390684252E+02	5.30308973047E-05	-7.03467745868E+01	2.49566703494E-01	-6.13106187795E+01
7.56492985972E+10	1.82415407607E-01	-3.29104442288E+01	5.34199256968E-05	-1.49121957846E+02	4.09352556937E-05	-1.47500172792E+02	2.46500237696E-01	-6.12863300096E+01
7.56553106212E+10	1.87002789481E-01	-3.49341615173E+01	7.81985040045E-05	-1.77975107017E+02	8.15969492785E-05	1.75667847058E+02	2.44971476685E-01	-6.05270971478E+01
7.56613226453E+10	1.85943791227E-01	-3.36592915387E+01	4.97717843354E-05	-1.44544585175E+02	3.81481670768E-05	-1.75620590208E+02	2.44259143303E-01	-6.08066023471E+01
7.56673346693E+10	1.82849424938E-01	-3.30017601502E+01	8.81921389920E-05	1.19172628385E+02	8.45730720068E-05	8.63317156126E+01	2.46517151032E-01	-6.17560973116E+01
7.56733466934E+10	1.81718007613E-01	-3.33972259279E+01	4.85862418479E-05	1.22675985170E+02	1.92783934645E-05	-1.00415481944E+02	2.45935912670E-01	-6.32109529458E+01
7.56793587174E+10	1.82287600221E-01	-3.45836936957E+01	1.07610458470E-04	2.39323102158E+01	5.94280444346E-05	-1.64259055368E+01	2.40573857967E-01	-6.13806133202E+01
7.56853707415E+10	1.83012235986E-01	-3.50219384509E+01	7.34449060229E-05	-6.96837820995E+01	4.69225035319E-05	-2.35780248644E+01	2.45580461999E-01	-6.27064256648E+01
7.56913827655E+10	1.82627831911E-01	-3.44810065025E+01	6.31173595302E-05	6.64253143359E-01	6.08698908806E-05	-1.85144956654E+01	2.41898208580E-01	-6.20614314497E+01
7.56973947896E+10	1.85590682375E-01	-3.63066888104E+01	8.07588518419E-05	-5.89589623605E+00	1.18642922252E-04	-8.36059819470E+00	2.40859323091E-01	-6.32894442238E+01
7.57034068136E+10	1.86934446470E-01	-3.58061214728E+01	1.71752158419E-05	1.78018258240E+02	2.62132621243E-05	1.22186264716E+02	2.40317370986E-01	-6.38618901326E+01
7.57094188377E+10	1.80929611999E-01	-3.47048021847E+01	7.30221561440E-05	-5.31994644613E+01	4.45687389003E-05	-8.22687937147E+01	2.40541398289E-01	-6.39423545629E+01
7.57154308617E+10	1.82951962343E-01	-3.57972282791E+01	2.11558083852E-05	-1.38485067589E+02	3.30629190042E-05	-1.53662940892E+02	2.40241160181E-01	-6.25535105993E+01
7.57214428858E+10	1.81667551707E-01	-3.32984145547E+01	3.50104983276E-05	-7.01213740527E+01	5.25449103651E-05	-4.31332987342E+01	2.43451616634E-01	-6.46281782840E+01
7.57274549098E+10	1.85561542322E-01	-3.60300389924E+01	1.25575509834E-05	-1.33865333498E+02	3.33366412635E-05	8.71392764281E+01	2.40766750294E-01	-6.53160737721E+01
7.57334669339E+10	1.82800566593E-01	-3.65207501663E+01	4.58025729276E-05	9.62971007763E+01	3.93260903576E-05	-6.65754167503E+01	2.43500853198E-01	-6.67264261155E+01
7.57394789579E+10	1.80075485707E-01	-3.55557267666E+01	3.61737129938E-05	-1.44692523280E+02	3.64161775310E-05	-1.60701866356E+02	2.40122944449E-01	-6.55521172278E+01
7.57454909820E+10	1.82318846712E-01	-3.62132034050E+01	3.63614021859E-05	-3.92019773986E+01	8.73713765871E-05	5.11344204399E+00	2.36255473007E-01	-6.40828215871E+01
7.57515030060E+10	1.86291393607E-01	-3.78027571190E+01	4.38783665515E-05	-2.13275693081E+01	2.38215784826E-05	-1.56392978140E+02	2.42355480127E-01	-6.68344368703E+01
7.57575150301E+10	1.84140199363E-01	-3.75112658500E+01	6.98330781200E-05	3.04026188505E+01	3.96362528409E-05	-7.65728317948E+01	2.37678240062E-01	-6.56774594900E+01
7.57635270541E+10	1.79326478774E-01	-3.57762153421E+01	1.48948065734E-05	1.20172838602E+02	3.18025274386E-05	5.26388157951E+01	2.34681626057E-01	-6.57170775766E+01
7.57695390782E+10	1.82988989510E-01	-3.80768163858E+01	3.24449653344E-05	-8.64615564148E+01	5.90776649367E-05	-1.38905351116E+01	2.40143462342E-01	-6.63748585502E+01
7.57755511022E+10	1.84175663182E-01	-3.90886755869E+01	3.49067066095E-05	-5.08902574432E+01	2.40506510361E-05	-8.85001543723E+01	2.36077575332E-01	-6.49941997588E+01
7.57815631263E+10	1.80290218070E-01	-3.65749649324E+01	2.90200237268E-05	-4.89067141958E+01	4.80398566666E-05	-4.54634832469E+01	2.34597021029E-01	-6.56248043471E+01
7.57875751503E+10	1.80644931569E-01	-3.76999947454E+01	5.61002875544E-05	-4.64981632543E+01	3.93298289325E-05	-7.45450664829E+01	2.34366572348E-01	-6.73897594285E+01
7.57935871743E+10	1.83158148154E-01	-3.74770171227E+01	4.98608572280E-05	1.18709548430E+02	2.18514522882E-05	-1.22760288080E+01	2.35746839046E-01	-6.75862748460E+01
7.57995991984E+10	1.79153843266E-01	-3.86448689073E+01	9.35404119130E-06	-2.28670391072E+01	8.77888637399E-05	-6.68483022579E+01	2.36622614921E-01	-6.84459631857E+01
7.58056112224E+10	1.83179411811E-01	-3.92741095172E+01	3.32855358242E-05	-7.89236355111E+01	1.09532418727E-04	-9.29170891003E+01	2.36723555362E-01	-6.99325083920E+01
7.58116232465E+10	1.85346866237E-01	-3.97188801552E+01	6.01239139023E-05	1.68497784722E+02	9.41540263062E-05	-1.46192472495E+02	2.34709124953E-01	-6.97947734057E+01
7.58176352705E+10	1.80989747549E-01	-3.85406220352E+01	7.12787693004E-05	-1.25928472935E+02	5.57518613065E-05	-1.27057729199E+02	2.31358408732E-01	-6.79312825958E+01
7.58236472946E+10	1.82152487298E-01	-4.01188551894E+01	7.20193153494E-06	1.01793503619E+02	2.41999380117E-05	-5.81029092868E+01	2.32702454435E-01	-6.83399395493E+01
7.58296593186E+10	1.80196673019E-01	-3.91779331400E+01	3.58657751698E-05	-1.00372433138E+02	6.76912161649E-05	-1.34464015427E+02	2.34620330738E-01	-6.97295918548E+01
7.58356713427E+10	1.81273662827E-01	-3.99980910188E+01	4.42696305974E-05	-8.22489722226E+01	3.57042729973E-05	-2.46832823853E+01	2.32360997384E-01	-6.99753560573E+01
7.58416833667E+10	1.80631572776E-01	-4.01115333061E+01	4.71019157245E-05	-1.72943280129E+02	5.71360493245E-05	-1.68651320787E+02	2.29321992743E-01	-6.88787244687E+01
7.58476953908E+10	1.80527351361E-01	-4.18624200932E+01	7.25044578986E-05	-7.40427361179E+01	4.34824471014E-05	-7.41588131176E+01	2.27881191776E-01	-6.95218889557E+01
7.58537074148E+10	1.80293884727E-01	-3.92583641025E+01	6.28065801847E-05	-1.30036774906E+02	8.74828266087E-05	-1.02261401869E+02	2.33489768883E-01	-7.15173810635E+01
7.58597194389E+10	1.82227766263E-01	-4.10232937761E+01	4.07510592880E-05	-9.97074911808E+01	3.08765266710E-05	-4.49328122932E+01	2.29864410976E-01	-7.11044919226E+01
7.58657314629E+10	1.80477258345E-01	-4.10749882529E+01	1.40138214438E-05	1.60340705738E+02	3.78594808460E-05	-1.17312962172E+02	2.30708461475E-01	-7.05131268325E+01
7.58717434870E+10	1.78197316743E-01	-4.18330755720E+01	1.47548878316E-05	-1.26593443047E+02	5.69203089675E-05	-1.16905918551E+02	2.30042961767E-01	-7.07387796162E+01
7.58777555110E+10	1.77794545891E-01	-4.01404930481E+01	2.52677465343E-05	-9.15130609022E+01	5.57732090608E-05	-1.77526550616E+02	2.33057501415E-01	-7.26508596922E+01
7.58837675351E+10	1.75911777795E-01	-4.04783596369E+01	8.45244768626E-05	1.68630979453E+02	1.01416999953E-04	1.79335647934E+02	2.31221935537E-01	-7.38570399994E+01
7.58897795591E+10	1.78684300586E-01	-4.17756477129E+01	9.09466662272E-05	1.19753225405E+02	7.91608879023E-05	1.30293330143E+02	2.29451392106E-01	-7.32109686780E+01
7.58957915832E+10	1.78202910107E-01	-4.14238805266E+01	6.26501454327E-05	1.14807907770E+02	2.16152881541E-05	1.03365489476E+02	2.25999694821E-01	-7.25797142544E+01
7.59018036072E+10	1.80163030160E-01	-4.24897734211E+01	2.00502974452E-05	3.26140058382E+01	2.05752414290E-05	1.24710004115E+02	2.27840131692E-01	-7.32493225221E+01
7.59078156313E+10	1.78262994310E-01	-4.19125820231E+01	8.24199803739E-05	8.76834061078E+01	8.45769258196E-05	-1.24149787256E+01	2.27700226690E-01	-7.33096004359E+01
7.59138276553E+10	1.78165156998E-01	-4.37400717904E+01	1.19664522416E-05	1.57447896297E+02	5.21546048257E-05	2.14579242271E+01	2.28462025508E-01	-7.51788954382E+01
7.59198396794E+10	1.80340291179E-01	-4.21403747772E+01	3.57606563506E-05	-7.00276604936E+01	3.37164997297E-05	-1.23920139555E+02	2.27311277955E-01	-7.46815286163E+01
7.59258517034E+10	1.78285247741E-01	-4.19209140215E+01	5.50175303867E-05	-1.68241496542E+02	4.70896891523E-05	5.98209662993E+01	2.27194212191E-01	-7.48243998137E+01
7.59318637275E+10	1.77287782293E-01	-4.22917934525E+01	3.55987429369E-05	1.14477921537E+02	6.57829400034E-05	-1.73311927753E+02	2.26380748189E-01	-7.39966224740E+01
7.59378757515E+10	1.75412569869E-01	-4.28148003753E+01	1.09488257107E-04	6.23231109770E+01	1.09404366875E-05	-1.56538997942E+02	2.25276828305E-01	-7.47094658794E+01
7.59438877756E+10	1.78806392223E-01	-4.31744778013E+01	3.60781734409E-05	1.26708095899E+02	5.21143891423E-05	1.04255145050E+01	2.26314848764E-01	-7.54475843744E+01
7.59498997996E+10	1.79007227800E-01	-4.34873129704E+01	5.08344545435E-05	-1.56870471487E+02	1.24716638139E-04	1.65006785857E+02	2.23757807049E-01	-7.49307895351E+01
7.59559118236E+10	1.78772088768E-01	-4.40404860508E+01	8.84180317516E-05	1.48009258918E+02	4.77162629024E-05	-1.65574075769E+02	2.23256297671E-01	-7.53537816443E+01
7.59619238477E+10	1.76502284466E-01	-4.41751160992E+01	4.08000400569E-06	-8.68779548366E+00	6.91034156238E-05	8.49948660510E+01	2.23125048957E-01	-7.64458180122E+01
7.59679358717E+10	1.76095768353E-01	-4.29475917558E+01	1.23769391188E-04	6.79844366495E+01	6.83175953000E-05	1.62264583113E+02	2.20086180391E-01	-7.54362476848E+01
7.59739478958E+10	1.78322216277E-01	-4.34934985591E+01	1.01640631459E-04	9.68755834521E+01	2.43500206495E-05	7.74200100910E+01	2.22876595862E-01	-7.71287887230E+01
7.59799599198E+10	1.78947362773E-01	-4.45632711334E+01	7.43874486628E-05	8.40566086798E+01	4.07496747049E-05	7.53023864261E+01	2.24539839535E-01	-7.78482874595E+01
7.59859719439E+10	1.74053423880E-01	-4.40122100603E+01	6.52060011859E-05	8.25696022562E+01	2.46657355023E-05	2.50759526732E+01	2.19689074234E-01	-7.62589333618E+01
7.59919839679E+10	1.77177097255E-01	-4.42891150234E+01	4.50823139935E-05	6.92920421880E+00	7.36186443682E-06	-1.44031853509E+02	2.23711266929E-01	-7.86922593296E+01
7.59979959920E+10	1.78468816604E-01	-4.49842690559E+01	7.69749194651E-05	4.47491617666E+01	2.12438104402E-05	-3.13946002993E+01	2.16983279928E-01	-7.65149726769E+01
7.60040080160E+10	1.76249245170E-01	-4.51891392734E+01	6.67134089673E-06	-4.29095197345E+01	3.45554327768E-05	1.58103339341E+02	2.22035502922E-01	-7.88341561473E+01
7.60100200401E+10	1.75992128654E-01	-4.49724313519E+01	2.23624998500E-05	1.65105946150E+02	5.08210664318E-05	2.64678609649E+01	2.19608256605E-01	-7.94060591615E+01
7.60160320641E+10	1.75197006650E-01	-4.60017344524E+01	1.22904747486E-05	-1.98069351952E+01	4.86745499449E-05	8.58018417452E+01	2.22220704963E-01	-8.01629862706E+01
7.60220440882E+10	1.75311740498E-01	-4.62085792178E+01	1.19048096944E-05	-1.45617084576E+02	5.52323378351E-05	-2.11433726093E+01	2.20142102465E-01	-7.94966636321E+01
7.60280561122E+10	1.76354851791E-01	-4.67058146389E+01	7.68029625804E-05	5.60252555178E+01	7.33825452027E-05	-2.44969124401E+00	2.14318066304E-01	-7.83673981955E+01
7.60340681363E+10	1.74524446083E-01	-4.45255717535E+01	2.70704520644E-05	1.61456562481E+02	8.58385963691E-05	1.22695973533E+02	2.16489339556E-01	-8.01916539717E+01
7.60400801603E+10	1.73670101733E-01	-4.41149390107E+01	5.92164646214E-05	6.87688122751E+01	1.03506153805E-04	9.34150795718E+01	2.19596446243E-01	-8.19404897020E+01
7.60460921844E+10	1.74027382967E-01	-4.54215253882E+01	7.73672681686E-05	1.51460164243E+02	9.20095757341E-05	5.00925614041E+01	2.17488898551E-01	-8.06592334093E+01
7.60521042084E+10	1.71686612642E-01	-4.47936144987E+01	9.00954077858E-05	5.48583737334E+01	6.43263116877E-05	1.00529819682E+02	2.13947802601E-01	-7.93960133566E+01
7.60581162325E+10	1.74181501455E-01	-4.73491296136E+01	3.26857787315E-05	-6.83328260894E+01	9.88884978959E-05	-1.48258268446E+01	2.17987973309E-01	-8.19582502167E+01
7.60641282565E+10	1.74581463511E-01	-4.57741304582E+01	5.34275048547E-05	1.53951166784E+02	3.73237155696E-05	-8.96365561225E+01	2.15896424062E-01	-8.24591032569E+01
7.60701402806E+10	1.72311789263E-01	-4.56812461832E+01	2.93463753537E-05	-6.73192074078E+01	7.89043200251E-05	-4.00556511615E+01	2.12755739666E-01	-8.06580724028E+01
7.60761523046E+10	1.74144902456E-01	-4.88555047162E+01	4.85234645888E-05	-1.19317870964E+02	5.51283290320E-05	-4.61995642170E+01	2.11912650860E-01	-8.07495828632E+01
7.60821643287E+10	1.74770156466E-01	-4.61533757577E+01	2.43458011493E-05	-1.39673030047E+01	4.86540257612E-05	-6.75321095259E+01	2.13933938260E-01	-8.25623719184E+01
7.60881763527E+10	1.73894871361E-01	-4.62957142410E+01	2.55968697819E-05	-1.66453610049E+02	8.75489748775E-05	-1.05133452193E+02	2.17005207857E-01	-8.48628392315E+01
7.60941883768E+10	1.71285636469E-01	-4.65989987914E+01	8.85755855595E-05	1.13314473217E+02	7.23369407677E-05	1.49790624606E+01	2.13662655463E-01	-8.37749389180E+01
7.61002004008E+10	1.73053601610E-01	-4.81927927879E+01	1.88573901393E-05	-5.22961015693E+00	3.84321795476E-05	1.34179761896E+02	2.10990576533E-01	-8.28932766110E+01
7.61062124248E+10	1.74714304312E-01	-4.74005265422E+01	7.83545046175E-05	7.30618395346E+01	8.32419820025E-05	-8.88991721411E+01	2.08213584033E-01	-8.16735385642E+01
7.61122244489E+10	1.70064416152E-01	-4.58171555408E+01	5.20146307101E-05	1.24964230183E+02	2.11887480020E-05	1.06788559867E+02	2.07753170207E-01	-8.25194458376E+01
7.61182364729E+10	1.74426590985E-01	-4.84653408876E+01	4.52752189609E-05	-3.63911366123E+00	4.79817228200E-05	6.86670228229E+01	2.10334933300E-01	-8.43903729306E+01
7.61242484970E+10	1.69821188330E-01	-4.70702634223E+01	3.75159345631E-05	1.42741259183E+02	8.27368970984E-05	1.31106745782E+02	2.12002686214E-01	-8.55916077522E+01
7.61302605210E+10	1.70980678757E-01	-4.74481440722E+01	8.73795744049E-05	8.81732324644E+01	2.80692110505E-05	7.61593948834E+01	2.09855708869E-01	-8.50541591643E+01
7.61362725451E+10	1.70844466384E-01	-4.88938875705E+01	4.03323155137E-05	2.59567568303E+01	2.45332815200E-05	-7.90228869016E+01	2.08751741830E-01	-8.55054841391E+01
7.61422845691E+10	1.73083511419E-01	-5.00127418303E+01	8.56595411095E-05	3.23965292292E+01	1.07645371244E-04	-6.37323918096E+01	2.06834212324E-01	-8.49715365868E+01
7.61482965932E+10	1.69390612395E-01	-5.02741999307E+01	3.33999396493E-05	-2.44871029205E+01	2.52244818364E-05	-8.30894019579E+00	2.07851026808E-01	-8.54715421852E+01
7.61543086172E+10	1.73820477040E-01	-5.03960057192E+01	3.09553279919E-05	-2.96540580890E+01	6.85006314037E-05	-1.24907353616E+02	2.08855331387E-01	-8.61856042813E+01
7.61603206413E+10	1.71019938550E-01	-4.94554500132E+01	4.96200573739E-05	-1.06793419997E+02	6.21360894090E-05	-2.68442280192E+01	2.06839093093E-01	-8.54364368330E+01
7.61663326653E+10	1.70219821169E-01	-4.90848898054E+01	2.96176886286E-05	-1.66138942430E+02	1.18101953826E-05	-3.37633889889E+01	2.04538802617E-01	-8.55126007396E+01
7.61723446894E+10	1.72103379943E-01	-4.84688818108E+01	4.49949751741E-05	-1.59681764236E+02	3.33732813600E-05	1.20719567583E+02	2.04829380595E-01	-8.64417751887E+01
7.61783567134E+10	1.71894854330E-01	-4.92315284911E+01	3.79794899835E-05	9.95841387722E+01	3.09827473890E-05	-1.36980619837E+02	2.06837325292E-01	-8.78307774700E+01
7.61843687375E+10	1.70360225885E-01	-4.99505128679E+01	1.23520007256E-05	1.05104560739E+02	6.53911242227E-05	6.87173179109E+01	2.04469120305E-01	-8.76284681759E+01
7.61903807615E+10	1.70519001409E-01	-4.98100999524E+01	3.52890360434E-05	-1.06940342795E+02	4.59370285539E-05	6.13948197946E+01	2.03430648076E-01	-8.73889518749E+01
7.61963927856E+10	1.71377252899E-01	-5.03566444386E+01	6.78118403991E-05	7.71287700598E+01	6.74665506815E-06	-3.09157771511E+01	2.01888331139E-01	-8.68727311278E+01
7.62024048096E+10	1.68820067670E-01	-5.16446745394E+01	1.08769182942E-05	9.43816713315E+01	5.31310786069E-05	6.84715715014E+01	2.04513664642E-01	-8.84325097932E+01
7.62084168337E+10	1.68867864317E-01	-5.07939569850E+01	4.75900634783E-05	9.38688918080E+01	2.25245239655E-05	6.13366874151E+01	2.04350326575E-01	-8.91558501659E+01
7.62144288577E+10	1.69192676756E-01	-5.05303030780E+01	3.33472079156E-05	-4.45047731648E+01	1.77708760081E-05	1.00894493259E+02	2.04547368562E-01	-8.92391973303E+01
7.62204408818E+10	1.69732747254E-01	-5.06563719582E+01	1.00563811507E-04	4.65514129195E+01	5.51437885351E-05	8.70589601474E+00	2.02242139135E-01	-8.91226506256E+01
7.62264529058E+10	1.69889251478E-01	-5.15190824085E+01	6.14655935201E-05	-5.96207397450E+01	4.31444961091E-05	-5.25442909703E+01	1.99529757070E-01	-8.85198269991E+01
7.62324649299E+10	1.68266521403E-01	-5.10736683860E+01	3.81518076845E-05	-7.19715895072E+01	8.83566355265E-05	-1.04149944811E+01	2.01061374717E-01	-8.94064727630E+01
7.62384769539E+10	1.67985965653E-01	-5.13653490272E+01	7.44763369259E-05	-4.91455714048E+01	5.26772863040E-05	-7.07521209933E+01	2.01112964211E-01	-9.06865730978E+01
7.62444889780E+10	1.66800746429E-01	-5.02019260476E+01	3.27429289458E-05	-9.52776259832E+01	2.17224012925E-05	1.14145034705E+02	2.01633054515E-01	-9.10278823752E+01
7.62505010020E+10	1.69150666049E-01	-5.06467833911E+01	2.35363108210E-05	9.61354762714E+01	9.93573350323E-05	-6.95443082145E+01	1.98822587668E-01	-9.00875821710E+01
7.62565130261E+10	1.68636170632E-01	-5.11294806071E+01	7.04857441969E-05	-1.70961046891E+02	5.26665050085E-05	-8.39263756760E+01	1.98865809005E-01	-9.09313812546E+01
7.62625250501E+10	1.68067369370E-01	-5.25679720355E+01	2.41565266387E-05	-8.94125224638E+01	8.22381480788E-05	-1.75979477096E+02	2.02296632053E-01	-9.19618398324E+01
7.62685370741E+10	1.67540616984E-01	-5.12001247942E+01	3.18426433252E-05	-2.03091004245E+01	4.02449361036E-05	-4.59633940950E+01	1.95617148945E-01	-8.99939371212E+01
7.62745490982E+10	1.67537714140E-01	-5.35603157323E+01	4.24374143297E-05	-2.49377912204E+01	6.17507548457E-05	-6.18846709427E+01	2.00677278838E-01	-9.24050434329E+01
7.62805611222E+10	1.68503857180E-01	-5.11568186651E+01	4.88478470424E-05	-1.73486491181E+02	1.04404029621E-04	-5.39962629425E+01	1.97328630802E-01	-9.22484432813E+01
7.62865731463E+10	1.68412606234E-01	-5.22805104431E+01	6.17292631893E-05	-1.28441280801E+01	7.70626882777E-05	-8.33194252478E+01	1.95520278415E-01	-9.16819733686E+01
7.62925851703E+10	1.67067236852E-01	-5.38554081080E+01	8.29139766776E-05	-1.46447297987E+02	1.09013483839E-04	-9.13693021461E+01	1.94665895196E-01	-9.15886792485E+01
7.62985971944E+10	1.68561452384E-01	-5.37312230420E+01	2.33443168829E-05	1.75335974889E+02	3.21839804600E-05	-1.39146894773E+02	1.93022428590E-01	-9.11826937783E+01
7.63046092184E+10	1.66303322790E-01	-5.35108483632E+01	2.48612247567E-05	-5.21653396732E+01	4.40361060923E-05	-9.88879838625E+01	1.96638926582E-01	-9.34896886772E+01
7.63106212425E+10	1.67312198269E-01	-5.42218636564E+01	1.86646827095E-05	1.19189241783E+02	1.15215546934E-05	1.57292933630E+02	1.98071308911E-01	-9.48727196710E+01
7.63166332665E+10	1.64520411252E-01	-5.37657755063E+01	4.32243576314E-05	1.74291291703E+02	3.46676695818E-05	-8.95679924496E+01	1.94156783332E-01	-9.36446179168E+01
7.63226452906E+10	1.68653336692E-01	-5.31823359979E+01	1.01822925542E-04	-1.67772792054E+02	4.48960624249E-05	-1.77587905740E+02	1.92809312351E-01	-9.35199463350E+01
7.63286573146E+10	1.64636234314E-01	-5.26282250784E+01	8.05076475530E-05	-1.17297606432E+02	9.24401837369E-05	-1.39027592067E+02	1.93279457965E-01	-9.40334198731E+01
7.63346693387E+10	1.64419821428E-01	-5.33391146553E+01	5.17703663133E-05	1.71372034582E+02	6.33051300851E-05	-1.39253500255E+02	1.95797553637E-01	-9.54913599007E+01
7.63406813627E+10	1.65221111995E-01	-5.34555332172E+01	7.89247102240E-05	3.52229309625E+01	1.03524848818E-04	-1.70949854230E+02	1.93226604277E-01	-9.57354852728E+01
7.63466933868E+10	1.68430648040E-01	-5.44700019177E+01	5.46870953699E-05	-1.59012903286E+02	1.72988175233E-05	1.12564528526E+02	1.90886600070E-01	-9.47019881493E+01
7.63527054108E+10	1.65587529444E-01	-5.42112439105E+01	1.02771987943E-04	-1.37740504984E+02	9.73165889921E-05	1.64963382706E+02	1.94766220536E-01	-9.68142198353E+01
7.63587174349E+10	1.64826073776E-01	-5.44694646008E+01	7.85476097672E-05	1.70579782125E+02	7.63097282293E-05	-1.75278658224E+02	1.92617719712E-01	-9.58034194219E+01
7.63647294589E+10	1.66911610902E-01	-5.50537865927E+01	7.09626437583E-05	1.64644620965E+02	6.65618452585E-05	-1.73334455327E+02	1.90567304696E-01	-9.57560313073E+01
7.63707414830E+10	1.66779482974E-01	-5.56336235707E+01	7.48253176706E-05	-1.46625838665E+02	1.08858841565E-04	1.61000568410E+02	1.90103852151E-01	-9.68454826910E+01
7.63767535070E+10	1.65687042798E-01	-5.45091276480E+01	8.38132814101E-05	1.25982100819E+02	5.41831530106E-05	1.08103848350E+02	1.89891779294E-01	-9.63302778848E+01
7.63827655311E+10	1.65273217453E-01	-5.53762769269E+01	6.05642931577E-05	9.38299376337E+01	1.03962083646E-04	1.26776383806E+02	1.92186682448E-01	-9.83800908053E+01
7.63887775551E+10	1.64972340642E-01	-5.43027667006E+01	3.33603770284E-05	1.74508567007E+02	6.23439344875E-05	-1.54753454943E+02	1.90983865482E-01	-9.81713447920E+01
7.63947895792E+10	1.64860115913E-01	-5.47160975167E+01	8.07204535716E-05	1.63153718947E+02	6.91022504891E-05	-1.63101686290E+02	1.88207134015E-01	-9.70240540455E+01
7.64008016032E+10	1.62784083553E-01	-5.70154935526E+01	1.22543579459E-04	-1.72879226363E+02	9.26816837431E-05	1.34380722946E+02	1.86695933631E-01	-9.75914070095E+01
7.64068136273E+10	1.66753988920E-01	-5.64001506625E+01	6.92775162433E-05	1.51785594575E+02	9.75589451235E-05	6.90629159020E+01	1.88116993204E-01	-9.92885196970E+01
7.64128256513E+10	1.65192589716E-01	-5.61893635258E+01	1.23999826317E-04	1.34985422432E+02	5.75954354039E-05	5.46659676475E+01	1.88651887098E-01	-9.99585870815E+01
7.64188376754E+10	1.63439464776E-01	-5.50160814326E+01	1.15537833326E-04	9.20359393907E+01	1.25045885357E-04	5.52831032601E+01	1.87271301422E-01	-9.89701547323E+01
7.64248496994E+10	1.63813554666E-01	-5.64341439001E+01	9.62411191882E-05	6.79637963939E+01	7.85358661093E-05	6.94610232521E+01	1.85722161681E-01	-9.97553291025E+01
7.64308617234E+10	1.64821471073E-01	-5.65470081865E+01	1.14496057742E-04	5.54055264327E+01	6.71435042253E-05	9.43903124153E+00	1.86880762129E-01	-1.00742455702E+02
7.64368737475E+10	1.64092114519E-01	-5.57881113207E+01	2.75195542133E-05	8.19859382121E+00	9.41138301647E-05	2.49822558251E+01	1.88961611768E-01	-1.01825903687E+02
7.64428857715E+10	1.64719084842E-01	-5.65354489688E+01	1.08318934905E-04	5.94726114182E+01	3.06404734225E-05	8.04886823262E+01	1.84695726244E-01	-9.99226527974E+01
7.64488977956E+10	1.63361622734E-01	-5.66623103821E+01	6.64849492757E-05	2.65114461437E+01	8.20705919298E-05	1.00017855304E+02	1.84250006288E-01	-1.00264821766E+02
7.64549098196E+10	1.61254671102E-01	-5.52746820329E+01	9.00778134402E-05	5.60997486792E+01	8.48466449796E-05	2.20032505979E+01	1.84744636084E-01	-1.00897455357E+02
7.64609218437E+10	1.62247682831E-01	-5.68924769884E+01	1.00470541276E-04	8.17334191953E+01	3.98778572415E-05	1.19633890000E+02	1.85318903065E-01	-1.02563371805E+02
7.64669338677E+10	1.63495167256E-01	-5.82185429715E+01	6.91057402397E-05	4.97032486154E+00	9.32882378509E-05	5.43195600613E+01	1.86092916513E-01	-1.04274514751E+02
7.64729458918E+10	1.65611745474E-01	-5.87376732682E+01	9.16987632088E-05	1.51368332368E+01	9.42840722436E-05	2.14272820734E+01	1.85323510597E-01	-1.03696549789E+02
7.64789579158E+10	1.64322547223E-01	-5.62730552999E+01	3.69961159716E-05	2.13503812290E+01	6.90966400699E-05	-3.60210277593E+01	1.81698631459E-01	-1.01974896405E+02
7.64849699399E+10	1.65190075743E-01	-5.71767143410E+01	1.11431847475E-04	5.24104749874E+01	4.03311013566E-05	2.66509344744E+01	1.82527963060E-01	-1.03130610346E+02
7.64909819639E+10	1.62966884524E-01	-5.68542310000E+01	1.61237873956E-04	5.12429680514E+01	7.48860266048E-05	7.97589323060E+01	1.83007524638E-01	-1.04605591743E+02
7.64969939880E+10	1.63791061695E-01	-5.86876376774E+01	1.29188266319E-04	-8.70109320532E+00	8.67231128187E-05	1.43179747607E+01	1.80473118608E-01	-1.04121380150E+02
7.65030060120E+10	1.63708981244E-01	-6.02169129923E+01	7.17614554408E-05	-1.98101329514E+00	1.15056653873E-04	-8.74084654145E+01	1.79630428990E-01	-1.04264562393E+02
7.65090180361E+10	1.64740821643E-01	-5.93139779203E+01	1.37085753560E-05	-6.03878801367E-01	1.01588824974E-04	-1.17004315576E+02	1.79033742221E-01	-1.04749700479E+02
7.65150300601E+10	1.62681450324E-01	-5.73741370879E+01	7.66123754196E-05	-1.72392131454E+01	9.05378467047E-05	6.58926153003E+01	1.80407622503E-01	-1.06506875130E+02
7.65210420842E+10	1.63036987923E-01	-6.06327884199E+01	4.79472928391E-05	-9.68666834306E+01	8.58375814276E-05	3.78224721230E+01	1.79219444607E-01	-1.05872154659E+02
7.65270541082E+10	1.62232507427E-01	-5.98061161821E+01	5.21289335682E-05	-2.55882832349E+01	1.12520926455E-04	-4.20202239453E+01	1.78387925158E-01	-1.05657421580E+02
7.65330661323E+10	1.62926885239E-01	-5.84347776030E+01	5.80776087236E-05	-8.38960204089E+01	1.02698262498E-04	2.27307674727E+01	1.78049020529E-01	-1.06501274407E+02
7.65390781563E+10	1.63167253295E-01	-5.90849137960E+01	5.81755168549E-05	-3.53238606552E+01	7.01502881603E-05	-2.55648744368E+01	1.76990736176E-01	-1.07446388383E+02
7.65450901804E+10	1.66142024475E-01	-6.10316231467E+01	3.24518065939E-05	-6.81505262734E+01	3.80703433880E-05	-3.91949755021E+01	1.76642815866E-01	-1.08039483084E+02
7.65511022044E+10	1.63205916319E-01	-5.98733347464E+01	7.87793646675E-05	-1.69498769151E+02	1.17250421177E-04	-2.64365043718E+01	1.74290478252E-01	-1.06908138063E+02
7.65571142285E+10	1.62241840482E-01	-5.95165577806E+01	5.32750739973E-05	-1.21431692059E+02	6.36197794910E-05	-5.38391426916E+01	1.74738445989E-01	-1.07504567549E+02
7.65631262525E+10	1.63418410445E-01	-6.06024762505E+01	6.02054157940E-05	-7.03464680859E+01	4.01846485696E-05	-4.55640919209E+01	1.76173871934E-01	-1.09333444113E+02
7.65691382766E+10	1.61955933280E-01	-5.98384369965E+01	4.83623753551E-05	-1.54945158607E+02	5.13782051243E-05	-9.47204930156E+01	1.73883830887E-01	-1.09880044715E+02
7.65751503006E+10	1.63186241592E-01	-6.13064152944E+01	1.05152037259E-04	-1.15132709194E+02	5.31704287062E-05	-3.78174997378E+01	1.72367510293E-01	-1.08037622368E+02
7.65811623246E+10	1.62825467293E-01	-6.18319210932E+01	9.44443765352E-05	-1.30757918046E+02	7.25485002069E-05	-8.20539728168E+01	1.72306595691E-01	-1.09413973297E+02
7.65871743487E+10	1.62268153419E-01	-6.18707754271E+01	8.72646179324E-05	1.63672181215E+02	5.86078336426E-05	-1.04390952306E+02	1.72287631558E-01	-1.10285703723E+02
7.65931863727E+10	1.60907242525E-01	-6.03869406061E+01	5.57243210640E-05	8.37819909738E+01	8.68931551798E-05	-3.24535610498E-01	1.71911331003E-01	-1.11142984185E+02
7.65991983968E+10	1.61721410116E-01	-6.09034471739E+01	7.14410373149E-05	1.07233504680E+02	2.44887348445E-05	4.47361485185E+01	1.70966867674E-01	-1.10946456267E+02
7.66052104208E+10	1.61253319397E-01	-6.18398719051E+01	1.66283709009E-05	3.93837826367E+01	6.55241336172E-05	-8.33228499262E+01	1.68036093685E-01	-1.10218023360E+02
7.66112224449E+10	1.59861655415E-01	-6.19751935067E+01	3.57113700138E-05	7.13652913670E+01	7.00069093569E-05	-8.75352010492E+00	1.69606245006E-01	-1.11935596718E+02
7.66172344689E+10	1.61686704814E-01	-6.25449348354E+01	5.80371575260E-05	-1.35215534026E+02	5.30912561158E-05	-1.14882138238E+02	1.69717229558E-01	-1.12931766570E+02
7.66232464930E+10	1.61120637880E-01	-6.17745331298E+01	7.13712766282E-05	-9.26172586797E+01	5.45088547228E-05	-1.41529400778E+02	1.68796073677E-01	-1.13212025109E+02
7.66292585170E+10	1.60515985281E-01	-6.11162145982E+01	3.12766408164E-05	-1.53056272243E+01	4.03563447877E-05	-1.37672024685E+02	1.67236917534E-01	-1.13382680320E+02
7.66352705411E+10	1.59982805742E-01	-6.14444311580E+01	6.00404821674E-05	-1.15297705319E+02	1.00788809637E-04	-1.46818521044E+02	1.65088479936E-01	-1.12387481362E+02
7.66412825651E+10	1.58397782434E-01	-6.03298483566E+01	4.02362660098E-05	1.76465683479E+02	8.04159135238E-05	-1.07806198869E+02	1.64489713291E-01	-1.12977893788E+02
7.66472945892E+10	1.61160907227E-01	-6.37614155478E+01	1.02693242601E-04	1.38746287511E+02	1.01615180156E-04	1.78443223633E+02	1.64800568882E-01	-1.13709380987E+02
7.66533066132E+10	1.59379424935E-01	-6.12449051735E+01	2.68300363415E-05	-1.71936679634E+02	6.67807425970E-05	1.43559535079E+02	1.65815918055E-01	-1.15357533987E+02
7.66593186373E+10	1.59125568036E-01	-6.33309793554E+01	7.12778814681E-05	-2.48788292010E+01	5.24441001373E-05	1.11188294255E+02	1.63405247882E-01	-1.14862675267E+02
7.66653306613E+10	1.62443512215E-01	-6.47809673694E+01	8.47369907535E-05	1.02191044771E+02	2.56317675063E-05	-1.20079397262E+02	1.63345122192E-01	-1.15699607692E+02
7.66713426854E+10	1.62725800939E-01	-6.47876537931E+01	9.43967371202E-05	1.04650498572E+02	7.94696866970E-05	1.51401856356E+02	1.61221045346E-01	-1.15587792695E+02
7.66773547094E+10	1.62054723265E-01	-6.42132498098E+01	5.96921301420E-05	1.59477391024E+02	9.62371482999E-05	1.33004845805E+02	1.60377128347E-01	-1.16911059579E+02
7.66833667335E+10	1.58210648236E-01	-6.15420791011E+01	7.71130478550E-05	1.62052481449E+02	5.33248698238E-05	-1.64657187532E+02	1.62117377662E-01	-1.17260187216E+02
7.66893787575E+10	1.60909899249E-01	-6.57126534501E+01	8.09250515064E-05	5.80195123385E+01	6.27692120798E-05	1.78178045829E+02	1.59984390090E-01	-1.16560233014E+02
7.66953907816E+10	1.61757419729E-01	-6.53497454804E+01	7.86125153957E-05	1.60970087386E+02	2.69074522858E-05	-1.48753097460E+02	1.59268477035E-01	-1.16449184472E+02
7.67014028056E+10	1.62286906432E-01	-6.47871269064E+01	4.54645836364E-05	2.08367834396E+01	3.84484429417E-05	-6.66985560558E+01	1.59081794873E-01	-1.18536050463E+02
7.67074148297E+10	1.60201873429E-01	-6.41274343907E+01	4.91498893724E-05	-4.89304810872E+01	5.86750397253E-05	5.49403527787E+01	1.57994278683E-01	-1.18497347193E+02
7.67134268537E+10	1.58346077829E-01	-6.38336541033E+01	2.82957766404E-05	-8.72222617064E+01	5.90429448684E-05	8.87609506699E+01	1.55559475394E-01	-1.17524883574E+02
7.67194388778E+10	1.60078624946E-01	-6.47580111519E+01	2.40888947480E-05	6.76231789853E+01	1.73653302884E-05	1.07140578351E+02	1.54913514462E-01	-1.18142731969E+02
7.67254509018E+10	1.62704671818E-01	-6.71864359782E+01	5.70062166492E-05	-8.47296109722E+01	3.64065876088E-05	-4.51298095033E+01	1.55709119403E-01	-1.19518898413E+02
7.67314629259E+10	1.60452760761E-01	-6.65947202751E+01	3.43957158335E-05	1.23710546299E+02	7.26527251778E-05	-1.61362202362E+02	1.55616138912E-01	-1.20089714117E+02
7.67374749499E+10	1.61284662666E-01	-6.57245011875E+01	4.84214487956E-05	-1.77141320327E+02	4.72349072755E-05	1.39158737845E+02	1.52741793794E-01	-1.20190236932E+02
7.67434869739E+10	1.60772035168E-01	-6.49887859269E+01	1.19989444265E-04	1.45508513701E+02	8.69356363184E-05	9.55023947558E+01	1.51159430455E-01	-1.19624096697E+02
7.67494989980E+10	1.58028868915E-01	-6.42473698905E+01	2.99159528205E-05	1.11597058257E+02	2.42462499093E-05	-2.91518265169E+01	1.51591787146E-01	-1.20992362138E+02
7.67555110220E+10	1.56972295356E-01	-6.61744426482E+01	3.58545021363E-05	-1.54217017753E+02	5.13812124753E-05	1.72096122276E+01	1.51325220979E-01	-1.21126827699E+02
7.67615230461E+10	1.59141461441E-01	-6.68496635853E+01	1.23388785054E-05	1.07256947596E+02	5.85143694346E-05	6.94781576156E+01	1.50791713786E-01	-1.22555482509E+02
7.67675350701E+10	1.59614289776E-01	-6.74777966986E+01	3.93828462349E-05	-9.98473646378E+01	8.31508560641E-05	4.60370966104E+01	1.48605862603E-01	-1.22564931577E+02
7.67735470942E+10	1.59950556990E-01	-6.71467219367E+01	7.26039026615E-05	1.27285679382E+02	4.14166129612E-05	-1.47808818358E+02	1.47860382425E-01	-1.21666866307E+02
7.67795591182E+10	1.60709571605E-01	-6.75886291060E+01	1.31565550804E-05	-8.20206123832E+01	6.10088369542E-05	-6.23886051779E+00	1.47498020534E-01	-1.22177047253E+02
7.67855711423E+10	1.60686399169E-01	-6.72121088108E+01	8.55069224699E-05	7.62528329092E+01	6.73932200180E-05	5.67845083767E+01	1.46088942508E-01	-1.22475597776E+02
7.67915831663E+10	1.57898135821E-01	-6.81431644439E+01	1.01183148653E-05	-2.60777380952E+01	4.68716953861E-05	-2.29951516463E+01	1.47164682289E-01	-1.24339862988E+02
7.67975951904E+10	1.57775841886E-01	-6.66501887716E+01	6.02850791953E-05	1.08121387849E+01	3.18084807036E-05	-5.08677367211E+01	1.45834460678E-01	-1.24958001185E+02
7.68036072144E+10	1.55040840886E-01	-6.72274096086E+01	9.26576774700E-05	-4.76608739892E+01	5.92628914618E-05	-3.02905750743E+01	1.44201092867E-01	-1.23316854873E+02
7.68096192385E+10	1.58228736943E-01	-6.79967017474E+01	5.41661194704E-05	-1.09477674317E+02	1.08842250882E-04	-5.71519993620E+01	1.43559443813E-01	-1.24427566469E+02
7.68156312625E+10	1.56410656034E-01	-6.69643103182E+01	4.73413231945E-05	-5.77793004380E+00	4.77718173865E-05	-3.09549125579E+01	1.42833117284E-01	-1.26031463178E+02
7.68216432866E+10	1.56446426098E-01	-6.77655666407E+01	3.79216572561E-05	-9.48475258089E+01	3.29069701340E-05	-1.14940883765E+01	1.41148438670E-01	-1.25912740504E+02
7.68276553106E+10	1.56229654272E-01	-6.85103021646E+01	6.17560855593E-05	4.85881767245E+01	8.08965761423E-05	-2.38749185097E+01	1.39995351597E-01	-1.24262835552E+02
7.68336673347E+10	1.58212368186E-01	-6.97787782983E+01	9.05920477617E-05	-6.11024439742E+01	4.98921534798E-05	-1.37237639195E+02	1.39848473479E-01	-1.24940342359E+02
7.68396793587E+10	1.59578886241E-01	-6.95002582690E+01	8.02245479218E-05	-4.01185087206E+01	1.31053185235E-04	-4.82086855741E+01	1.39182884238E-01	-1.26616160969E+02
7.68456913828E+10	1.58421212231E-01	-6.92034791524E+01	4.39957614757E-05	-1.46275129152E+02	7.93625159251E-05	-1.51120011904E+02	1.39367317984E-01	-1.28116276114E+02
7.68517034068E+10	1.57928051072E-01	-6.92951833972E+01	1.12137268469E-04	-5.18257533283E+01	4.47186447582E-05	-8.42814523244E+01	1.37120786553E-01	-1.26726201681E+02
7.68577154309E+10	1.55636795907E-01	-6.99474105804E+01	1.06746409789E-04	-1.29430848006E+02	1.07233885537E-04	-1.11870096203E+02	1.37073242123E-01	-1.27066184969E+02
7.68637274549E+10	1.56895351041E-01	-6.89746884090E+01	4.16902516020E-05	-3.81151153158E+01	2.86418098852E-05	-1.69482574977E+02	1.36323136333E-01	-1.27400820914E+02
7.68697394790E+10	1.55281819707E-01	-6.85855562177E+01	9.44809939880E-05	-8.89476733845E+01	2.00839582300E-05	2.41400828393E+01	1.35890560477E-01	-1.28139941367E+02
7.68757515030E+10	1.56153816709E-01	-6.89745497561E+01	7.34473017941E-05	-1.72822672246E+02	6.54717608297E-05	-1.64723980706E+02	1.34197160720E-01	-1.28975667312E+02
7.68817635271E+10	1.57469522589E-01	-6.95255941135E+01	5.55906986323E-05	-1.68258957503E+02	1.11396563337E-04	1.33935187082E+02	1.32696108372E-01	-1.29946097880E+02
7.68877755511E+10	1.54866935008E-01	-6.88172112726E+01	5.10605016240E-05	1.60045284286E+02	5.25600844524E-05	-1.44396320406E+02	1.32021570388E-01	-1.28973043380E+02
7.68937875752E+10	1.57424188462E-01	-7.03137386610E+01	8.95292497753E-05	-1.76977042869E+02	1.40748500695E-05	5.73622425264E+01	1.31577412391E-01	-1.29245557695E+02
7.68997995992E+10	1.54073746488E-01	-6.96672358829E+01	2.23402186485E-05	-4.20400069215E+01	4.19818388584E-05	-1.26946934800E+02	1.31033408441E-01	-1.30049443950E+02
7.69058116232E+10	1.55994229222E-01	-7.08926524564E+01	3.91830916004E-05	-1.15020034495E+02	8.07037671627E-05	-1.70281783614E+02	1.30147869986E-01	-1.31445434681E+02
7.69118236473E+10	1.53930108073E-01	-7.08149975743E+01	7.46861092105E-05	-1.30978261710E+02	7.08191900892E-05	-1.46551384261E+02	1.29439009401E-01	-1.31771242019E+02
7.69178356713E+10	1.57859433239E-01	-7.26534526502E+01	9.54456224088E-05	-1.33396674762E+02	7.19921380843E-05	-1.63110734989E+02	1.27842018069E-01	-1.31226366969E+02
7.69238476954E+10	1.54101681505E-01	-7.02598693411E+01	4.33235730702E-05	1.54380386946E+02	6.75972663550E-05	-1.62692178184E+02	1.27095409728E-01	-1.30137423259E+02
7.69298597194E+10	1.59598969644E-01	-7.36030733866E+01	5.59271933494E-05	-1.66333507277E+02	9.55880615871E-05	-1.75926800863E+02	1.27367162735E-01	-1.33113356387E+02
7.69358717435E+10	1.52734476815E-01	-7.07739689297E+01	1.43865420950E-04	1.48795511321E+02	8.58765122510E-05	1.48481930246E+02	1.26832732188E-01	-1.33315302470E+02
7.69418837675E+10	1.53546948960E-01	-7.16230895469E+01	1.31596606177E-04	1.07714190550E+02	1.11518721686E-04	1.33351260632E+02	1.24661424469E-01	-1.33081343166E+02
7.69478957916E+10	1.57150395766E-01	-7.27864970899E+01	3.39072050180E-05	7.75322944264E+01	1.08167729801E-04	1.01650428945E+02	1.23000244857E-01	-1.32347910246E+02
7.69539078156E+10	1.55866166098E-01	-7.26754628535E+01	8.20298310325E-05	5.22817483537E+01	1.38696530253E-05	-3.67798330684E+01	1.23046055491E-01	-1.32172150810E+02
7.69599198397E+10	1.54239774454E-01	-7.25534659066E+01	5.73582015383E-05	-1.61808499497E+02	4.72316172253E-05	5.85742956983E+01	1.23285492844E-01	-1.33996576392E+02
7.69659318637E+10	1.56042792081E-01	-7.32642723882E+01	9.91590335955E-05	1.68604427932E+02	2.54473855132E-05	1.76846810055E+02	1.20772771163E-01	-1.33512045858E+02
7.69719438878E+10	1.52580800658E-01	-7.23308669201E+01	1.09444733455E-04	1.23246550564E+02	4.86557177492E-05	-1.05005377348E+02	1.20442947570E-01	-1.34369842436E+02
7.69779559118E+10	1.54465787865E-01	-7.37890970598E+01	6.09857422832E-05	1.35600585324E+02	1.97121989196E-05	-3.89042774768E+01	1.19213082405E-01	-1.35573626722E+02
7.69839679359E+10	1.53417094312E-01	-7.33855211461E+01	9.04080943589E-05	1.01254031399E+02	3.53732851992E-05	1.65932270830E+02	1.17446380506E-01	-1.34048998271E+02
7.69899799599E+10	1.51408112939E-01	-7.17233265147E+01	3.13248160757E-05	1.23005256456E+02	8.97164475695E-05	-1.55099373730E+02	1.16508107651E-01	-1.34749622500E+02
7.69959919840E+10	1.51719157876E-01	-7.28392802194E+01	3.15641998925E-05	1.18759640943E+02	2.43981978382E-05	4.17079637845E+01	1.16234520030E-01	-1.35898102815E+02
7.70020040080E+10	1.52540361431E-01	-7.39375458314E+01	7.70903011413E-05	8.23621168457E+01	7.93045167719E-05	1.24557584066E+02	1.15969680483E-01	-1.35779924184E+02
7.70080160321E+10	1.54840408649E-01	-7.56462439185E+01	6.58434533003E-05	9.96091219961E+01	8.69027104688E-05	1.24795176034E+02	1.14714112691E-01	-1.35689639214E+02
7.70140280561E+10	1.53242244919E-01	-7.30431163942E+01	7.46335968640E-05	9.07883288476E+01	6.48201240106E-05	8.61097258552E+01	1.13866481226E-01	-1.36497928876E+02
7.70200400802E+10	1.54220531684E-01	-7.51206536045E+01	4.58166512707E-05	3.83693736704E+01	4.06848788153E-05	1.49027768593E+01	1.13447963644E-01	-1.37041771049E+02
7.70260521042E+10	1.52575143134E-01	-7.57621113283E+01	8.28453871551E-05	6.13351742976E+01	6.32204447034E-05	2.56531570195E+01	1.12179038618E-01	-1.38577397107E+02
7.70320641283E+10	1.52151888001E-01	-7.53302922222E+01	4.75564238968E-05	2.02169059779E+00	3.62737346186E-05	3.87835747582E+01	1.10958007153E-01	-1.38478330777E+02
7.70380761523E+10	1.53853382698E-01	-7.56425375646E+01	5.16901124310E-05	6.12985464458E+01	1.14060641228E-04	3.91135120494E+01	1.11564797982E-01	-1.38561931582E+02
7.70440881764E+10	1.50037300547E-01	-7.44413254078E+01	6.58356398271E-05	6.49455462635E+01	1.20656154982E-04	7.21172905969E+00	1.09492040784E-01	-1.37839190616E+02
7.70501002004E+10	1.51922638412E-01	-7.49923436062E+01	7.90498414530E-05	2.61719418914E+01	7.49762533405E-05	-2.15292090320E+00	1.08635187009E-01	-1.38397471933E+02
7.70561122244E+10	1.54426222883E-01	-7.61537297727E+01	5.30540221832E-05	9.25716487526E+00	6.89232355540E-05	-2.67132848529E+01	1.07733939896E-01	-1.39055360432E+02
7.70621242485E+10	1.54136420671E-01	-7.68997968342E+01	7.99474599176E-05	-2.52084409241E+01	4.69273981895E-05	-3.15336599313E+01	1.07350927013E-01	-1.41117543431E+02
7.70681362725E+10	1.51145837474E-01	-7.58153390367E+01	2.13798368696E-05	-5.57856994265E+01	5.84099014077E-05	1.22950245849E+02	1.07635235330E-01	-1.41383342068E+02
7.70741482966E+10	1.50375222330E-01	-7.48223336144E+01	4.00636420644E-05	5.21858396863E+01	2.66470324333E-05	8.91697780577E+01	1.06436439272E-01	-1.40563169563E+02
7.70801603206E+10	1.51328273029E-01	-7.59421837013E+01	4.29734628640E-05	7.07181360340E+01	7.90461918882E-05	3.69646138770E+01	1.03741439750E-01	-1.38326538442E+02
7.70861723447E+10	1.50863195225E-01	-7.71773365212E+01	5.27754586727E-05	3.90552245424E+01	7.65017700922E-05	3.70819853240E+01	1.03622399770E-01	-1.40506148242E+02
7.70921843687E+10	1.49293772242E-01	-7.63337636414E+01	1.22196212606E-04	-3.16368057438E+01	9.66861029691E-05	4.95653690827E+00	1.04013005185E-01	-1.42737988121E+02
7.70981963928E+10	1.52084082209E-01	-7.64751402393E+01	5.98585096547E-05	-2.37523317197E+01	1.02446933357E-04	-4.97964662041E+01	1.03173723838E-01	-1.43176210254E+02
7.71042084168E+10	1.51888104528E-01	-7.64699677981E+01	1.00441545117E-04	6.44445223961E+00	8.53289814657E-05	-6.18562576958E+01	1.00361134153E-01	-1.39712375323E+02
7.71102204409E+10	1.52001019984E-01	-7.65859681538E+01	5.39578159171E-05	-7.23113920549E+01	7.66928599680E-05	-5.38936334750E+01	1.00025535972E-01	-1.41167169753E+02
7.71162324649E+10	1.50641296012E-01	-7.73269170712E+01	3.23671447463E-05	-1.00639296941E+02	6.92359414720E-05	-1.06854517959E+02	1.00375081439E-01	-1.43894611611E+02
7.71222444890E+10	1.47883520992E-01	-7.75270872258E+01	3.80973494179E-05	-1.32181771387E+02	7.50627946523E-05	-8.37283637085E+01	1.00197665203E-01	-1.44269394230E+02
7.71282565130E+10	1.48160809075E-01	-7.60784542413E+01	2.56847156022E-05	-7.26346359974E+01	1.15319017345E-04	-2.82940440959E+01	9.76886736464E-02	-1.42753737293E+02
7.71342685371E+10	1.49918730503E-01	-7.79171121028E+01	4.01675730834E-05	1.21677156518E+01	9.24256732588E-05	-3.67191785847E+01	9.65702214501E-02	-1.43139198919E+02
7.71402805611E+10	1.53996559223E-01	-7.97970420627E+01	6.91269277056E-05	-5.78438929937E+01	4.72456567497E-06	-1.18614643313E+02	9.66733711360E-02	-1.44249083700E+02
7.71462925852E+10	1.48550753302E-01	-7.93565427326E+01	5.62942770106E-05	-5.04732104933E+01	9.02496107331E-05	-3.61519872956E+01	9.72010932825E-02	-1.46203030778E+02
7.71523046092E+10	1.49134401194E-01	-7.85393637395E+01	7.86998404552E-05	-1.00477949468E+02	4.36604433232E-05	-7.95806551573E+01	9.40464484350E-02	-1.44305838433E+02
7.71583166333E+10	1.51610092611E-01	-7.93367814001E+01	3.68304819124E-05	-1.32298319789E+02	2.13611895878E-05	-1.39802955848E+02	9.36189788972E-02	-1.43593430293E+02
7.71643286573E+10	1.48607808824E-01	-7.75304771637E+01	5.04016242920E-05	3.56197707052E+01	7.02480398308E-05	-6.00744531282E+01	9.28840545784E-02	-1.44189081916E+02
7.71703406814E+10	1.47843391721E-01	-7.92331657167E+01	7.31964363169E-05	-4.34138876796E+01	6.19054896940E-05	-1.19552844510E+02	9.14285984728E-02	-1.44793151653E+02
7.71763527054E+10	1.47915110748E-01	-8.00476195408E+01	1.12074922072E-04	-7.88076709846E+01	1.03706915816E-04	-4.17042704665E+01	9.19878662612E-02	-1.45438035359E+02
7.71823647295E+10	1.48149078290E-01	-7.96902158087E+01	9.12121443382E-05	-1.11972454484E+02	1.05680351459E-04	-1.16612748547E+02	9.07971024038E-02	-1.46423644984E+02
7.71883767535E+10	1.47090399228E-01	-7.85011751253E+01	9.18092982519E-05	-1.10116541420E+02	1.31786732515E-04	-1.19590843760E+02	8.85623854558E-02	-1.44447178048E+02
7.71943887776E+10	1.46090894783E-01	-7.93952036448E+01	4.26850848243E-05	1.38508466623E+02	4.96911929331E-05	-1.66741046282E+02	8.91526964718E-02	-1.46744153143E+02
7.72004008016E+10	1.45694644257E-01	-7.95496556993E+01	4.68936944067E-05	-1.71805913979E+02	6.27517329093E-05	-1.60253348953E+02	8.93016197505E-02	-1.48445242213E+02
7.72064128257E+10	1.46569734902E-01	-7.91707550648E+01	1.42040624430E-05	1.77304251900E+02	4.78679154540E-05	-4.86296392728E+01	8.79858039306E-02	-1.48442107757E+02
7.72124248497E+10	1.47148922082E-01	-8.04583622666E+01	1.72389847364E-05	-9.91350795628E+01	7.05694464644E-05	-9.32591701984E+01	8.64482265785E-02	-1.48567214281E+02
7.72184368737E+10	1.48315490311E-01	-8.22545249819E+01	1.27449130078E-04	-1.04860082542E+02	1.29303003949E-04	-1.30839428719E+02	8.62411444820E-02	-1.48757329654E+02
7.72244488978E+10	1.48421299594E-01	-8.11494912538E+01	1.07218312941E-04	-1.76463435237E+02	8.16407897668E-05	-1.34456929052E+02	8.54046751014E-02	-1.48731302492E+02
7.72304609218E+10	1.46454146616E-01	-7.91637977199E+01	8.42436372544E-05	1.54181307686E+02	9.19774966538E-05	-1.55572423974E+02	8.33039280605E-02	-1.47199083741E+02
7.72364729459E+10	1.47421782138E-01	-8.08082271755E+01	1.06896976836E-04	1.49480307758E+02	4.84444260510E-05	1.64537923617E+02	8.28025824673E-02	-1.48197395345E+02
7.72424849699E+10	1.48029299213E-01	-8.17776218411E+01	6.82297093339E-05	3.02280975053E+01	1.10610286729E-04	1.38793844483E+02	8.34586344027E-02	-1.49802189950E+02
7.72484969940E+10	1.46583818555E-01	-8.07114299554E+01	6.36154894099E-05	1.18381452702E+02	5.84659319569E-05	1.55979701914E+02	8.17232424319E-02	-1.49146190694E+02
7.72545090180E+10	1.46814423143E-01	-8.18598239452E+01	4.35942964717E-06	1.47314926927E+02	4.70586141748E-05	1.63227069240E+02	8.11109906451E-02	-1.49537733846E+02
7.72605210421E+10	1.45066887997E-01	-8.16053950129E+01	6.73190423240E-05	-1.15064518168E+02	6.28856729908E-05	8.13557631359E+01	7.97959572266E-02	-1.49686658918E+02
7.72665330661E+10	1.47151264671E-01	-8.19428262044E+01	5.89211991260E-05	-1.55073718356E+02	7.82555599891E-05	1.09994241627E+02	7.98495783705E-02	-1.50877102105E+02
7.72725450902E+10	1.46006687757E-01	-8.13886549454E+01	7.41232137311E-05	1.08716659891E+02	7.84311643866E-05	-1.66698656007E+02	7.94353525880E-02	-1.51294421304E+02
7.72785571142E+10	1.47461848848E-01	-8.23776088647E+01	5.40630521860E-05	1.57080207204E+02	5.16676879235E-05	-6.59596473316E+01	7.91588683249E-02	-1.52644992020E+02
7.72845691383E+10	1.45105507198E-01	-8.31546163008E+01	1.50469944329E-05	1.26303670483E+02	5.54115007112E-05	4.71613284528E+00	7.76486679544E-02	-1.52466380685E+02
7.72905811623E+10	1.44120895093E-01	-8.20893183820E+01	2.49664658589E-05	-5.60546499126E+01	4.11097112229E-05	6.79206827651E+01	7.71496422413E-02	-1.52783672635E+02
7.72965931864E+10	1.43272992228E-01	-8.12250118954E+01	5.99278230295E-05	-1.58240682272E+02	7.13652281750E-05	-1.34484491645E+02	7.49975034927E-02	-1.51456535104E+02
7.73026052104E+10	1.43475723390E-01	-8.07043955763E+01	1.15082176059E-04	1.64189838582E+02	6.12468416833E-05	1.11282175672E+02	7.42905141912E-02	-1.51639990039E+02
7.73086172345E+10	1.44621874384E-01	-8.30586321883E+01	5.13485316901E-05	1.34558402221E+02	3.54567176273E-05	8.98723988298E+01	7.33525530767E-02	-1.52387339617E+02
7.73146292585E+10	1.44925337105E-01	-8.32579513511E+01	2.60085856685E-05	-1.47959779563E+02	3.24419389495E-05	2.31296607741E+01	7.36907511404E-02	-1.54133849179E+02
7.73206412826E+10	1.46284463835E-01	-8.38774691500E+01	7.66367276807E-05	1.39987688858E+02	2.09681923131E-05	-5.56701955526E+01	7.20252445566E-02	-1.53421400392E+02
7.73266533066E+10	1.43405585035E-01	-8.38745953368E+01	4.94647803253E-05	-3.65362115001E+01	8.57134236350E-05	4.01840743390E+01	7.11917932434E-02	-1.52704938038E+02
7.73326653307E+10	1.44900670116E-01	-8.37210859013E+01	6.37519217610E-05	1.32974235723E+00	4.46699617277E-05	-2.55471039410E+01	7.02317371187E-02	-1.52790557484E+02
7.73386773547E+10	1.45342598207E-01	-8.41921480672E+01	3.18069306387E-05	3.76924275292E+01	1.97369931042E-05	7.28368143532E+01	6.91392243040E-02	-1.53912583067E+02
7.73446893788E+10	1.43437952398E-01	-8.37444825079E+01	2.13777949129E-05	6.69917334827E+01	7.99402776710E-05	1.30856399075E+02	6.95448794880E-02	-1.55185523932E+02
7.73507014028E+10	1.44703379792E-01	-8.48219878742E+01	2.48292484862E-05	-1.71254016451E+01	6.16952222025E-05	4.19274455949E+01	6.85181334049E-02	-1.53951161796E+02
7.73567134269E+10	1.41935721450E-01	-8.49322096496E+01	5.11009089587E-05	8.73259058781E+01	1.02600997960E-04	6.39570843235E+01	6.67818779325E-02	-1.53018529617E+02
7.73627254509E+10	1.41799850517E-01	-8.55669622929E+01	8.12051532998E-05	1.03912504410E+02	8.95662920042E-05	8.51335697864E+01	6.70174234173E-02	-1.55485736574E+02
7.73687374749E+10	1.44813006015E-01	-8.54020091986E+01	3.67029192446E-05	1.13094718266E+02	3.58958694656E-05	3.77181680958E+01	6.69550297503E-02	-1.57243461016E+02
7.73747494990E+10	1.42883585636E-01	-8.37911061305E+01	6.54249408330E-05	4.45323572854E+01	5.65602336010E-05	-2.55950412017E+01	6.60873861755E-02	-1.56853223607E+02
7.73807615230E+10	1.40420056781E-01	-8.46360014612E+01	5.24919394804E-05	7.37629782540E+01	5.31805011836E-05	-1.74687795903E+02	6.54339937693E-02	-1.57141942970E+02
7.73867735471E+10	1.42139571993E-01	-8.58479216259E+01	6.59934031385E-05	5.71139377799E+01	3.29654037884E-05	1.24909099590E+02	6.31331589874E-02	-1.55931199442E+02
7.73927855711E+10	1.42257323557E-01	-8.48197141303E+01	4.01101932523E-05	-1.23600694204E+01	4.98709453092E-05	1.11134005605E+02	6.28499035101E-02	-1.57982690538E+02
7.73987975952E+10	1.41163570338E-01	-8.48768198843E+01	1.29258460440E-05	1.55838598997E+02	4.96919429653E-05	1.28060877765E+02	6.21330162630E-02	-1.58478835308E+02
7.74048096192E+10	1.41559128294E-01	-8.53785270618E+01	4.13283160244E-05	-1.90981143743E+01	4.20651455091E-05	-1.50820574131E+02	6.10430710119E-02	-1.56624376531E+02
7.74108216433E+10	1.40906893226E-01	-8.42162988702E+01	4.38393406791E-05	3.17830312165E+01	1.57053216396E-05	7.64193070600E+01	5.99735972495E-02	-1.56669377935E+02
7.74168336673E+10	1.40735944909E-01	-8.68366933525E+01	5.19718228182E-05	9.18605251536E+01	7.34884238613E-05	6.64427792246E+01	5.96138535093E-02	-1.58194565355E+02
7.74228456914E+10	1.40278754856E-01	-8.76781467728E+01	4.03949390087E-05	9.84869512928E+01	8.27188646490E-05	8.45658823157E+01	6.00284011235E-02	-1.58651148960E+02
7.74288577154E+10	1.41150800364E-01	-8.78718226507E+01	4.72051436103E-05	-6.55266722191E-01	6.48807798808E-05	3.38543753888E+01	5.91788264656E-02	-1.60008220731E+02
7.74348697395E+10	1.39939856230E-01	-8.69018234906E+01	4.25151551881E-05	5.02917289232E+01	4.88110025704E-05	4.49967082631E+01	5.70373072781E-02	-1.58138278557E+02
7.74408817635E+10	1.39471448878E-01	-8.61556946455E+01	6.74756875395E-05	1.19778163570E+01	8.35961183639E-06	3.38951116857E+01	5.63869182289E-02	-1.59101424063E+02
7.74468937876E+10	1.39074429739E-01	-8.54248972466E+01	2.63851954348E-05	1.48967296009E+02	2.24455670866E-05	4.11668304158E+01	5.60153400723E-02	-1.59506825395E+02
7.74529058116E+10	1.39177284347E-01	-8.71594328419E+01	3.97579557976E-05	-5.43335001377E+01	3.04528064839E-05	8.70885128581E+01	5.58541987059E-02	-1.59507059499E+02
7.74589178357E+10	1.37708537727E-01	-8.55411716148E+01	3.44053284961E-05	5.52340474540E+01	6.47933144971E-05	1.07940316283E+02	5.41763638324E-02	-1.58979921367E+02
7.74649298597E+10	1.37928083302E-01	-8.61718534141E+01	6.68742724207E-05	3.38694852615E+01	8.62609414786E-05	-1.14076093845E+01	5.34656012554E-02	-1.60103391666E+02
7.74709418838E+10	1.41197659423E-01	-8.81149377703E+01	7.58192623520E-05	3.39314959637E+01	7.66607077720E-05	-2.70352304777E+01	5.25148074952E-02	-1.59809450780E+02
7.74769539078E+10	1.42597934853E-01	-8.68524419631E+01	4.08493912992E-05	1.27861020234E+01	1.21597831064E-04	-2.88158074045E+01	5.23132692534E-02	-1.61070070901E+02
7.74829659319E+10	1.39328677055E-01	-8.78422027137E+01	1.67683654494E-04	-2.13654620553E+01	5.43107663216E-05	-3.78178005560E-01	5.22501796142E-02	-1.62106235081E+02
7.74889779559E+10	1.39274440940E-01	-8.83084545854E+01	8.81130805041E-05	-4.69772542955E+01	9.95787081096E-05	-1.33562675589E+01	5.07135888385E-02	-1.60914868143E+02
7.74949899800E+10	1.38261373000E-01	-8.84574514167E+01	9.69143484108E-05	-1.51199700553E+01	9.19923858251E-05	-5.58336300685E+00	5.03017823940E-02	-1.62055056174E+02
7.75010020040E+10	1.36738290802E-01	-8.89874894845E+01	5.36163273009E-06	1.27264484775E+02	6.73503561474E-05	-2.68028739151E+01	4.91577855035E-02	-1.60855538284E+02
7.75070140281E+10	1.39912210565E-01	-8.87820478509E+01	1.05250852463E-04	-3.51971612822E+01	2.85045410318E-05	-9.55653878590E+01	4.85793924257E-02	-1.62521751393E+02
7.75130260521E+10	1.38965795359E-01	-8.66814473697E+01	6.53494627977E-05	-2.12256111150E+01	9.94096396389E-05	-8.61395526645E+01	4.78006033482E-02	-1.63282482296E+02
7.75190380762E+10	1.37922625291E-01	-8.85922091405E+01	9.44438546034E-05	-8.02428286970E+01	7.23868667823E-05	-1.09567828743E+02	4.70898161216E-02	-1.63872228893E+02
7.75250501002E+10	1.40108500194E-01	-8.89418717424E+01	1.85912866532E-05	7.35831764311E+01	3.13369201962E-05	7.13418612654E+00	4.64484313646E-02	-1.63698298417E+02
7.75310621242E+10	1.36460026877E-01	-8.80395742675E+01	1.05725124565E-04	3.74946144300E+01	6.23810862179E-05	-8.72652747898E+00	4.53645070245E-02	-1.62680868916E+02
7.75370741483E+10	1.36725963210E-01	-8.83417067735E+01	4.23017151703E-05	-2.21376635816E+01	1.26779050967E-04	-6.38462829290E+01	4.49161658528E-02	-1.62958143398E+02
7.75430861723E+10	1.38659929990E-01	-8.79124170238E+01	4.41605359325E-05	-4.34173341228E+01	8.80774846819E-05	-1.25180218857E+02	4.45031964555E-02	-1.63672847773E+02
7.75490981964E+10	1.39617818202E-01	-8.83880840547E+01	2.19224077982E-05	-4.15832934403E+01	3.55048897784E-05	-7.13984291434E+01	4.41834002657E-02	-1.65223212156E+02
7.75551102204E+10	1.38783436623E-01	-8.86375967553E+01	6.15247986245E-05	-1.10079938578E+02	7.65209007958E-05	-8.64124426996E+01	4.26399793138E-02	-1.64487665648E+02
7.75611222445E+10	1.38186705889E-01	-8.92184201261E+01	2.22658332229E-05	-1.46545162368E+02	5.84693128306E-05	-1.11201741954E+02	4.22164310763E-02	-1.64836378185E+02
7.75671342685E+10	1.37705877811E-01	-8.82426611201E+01	5.88778291720E-05	-1.06728810786E+02	1.02456628753E-04	-1.63225159710E+02	4.07418379196E-02	-1.64429057866E+02
7.75731462926E+10	1.35929864922E-01	-9.00003596270E+01	7.19023206156E-05	-1.67006869805E+02	2.22908519762E-05	-1.32047739839E+02	4.04557055487E-02	-1.64882111792E+02
7.75791583166E+10	1.36445826322E-01	-9.04985355995E+01	7.12588295570E-05	-9.64653211638E+01	5.65887705434E-05	-7.78742171364E+01	4.08641254387E-02	-1.66106465778E+02
7.75851703407E+10	1.36720078647E-01	-9.13934909903E+01	1.03126629170E-04	-2.52142350531E+01	7.82348462240E-05	-1.37162708124E+02	3.94390023659E-02	-1.66893003529E+02
7.75911823647E+10	1.37429288796E-01	-9.02237444887E+01	8.11993450363E-05	-1.36836858956E+02	8.26216187898E-05	-1.56816964922E+02	3.82338333530E-02	-1.66104843567E+02
7.75971943888E+10	1.34938061604E-01	-8.94008223194E+01	1.28144919882E-04	-1.11371968095E+02	9.29492372900E-05	-1.23823732210E+02	3.73140319754E-02	-1.65864392866E+02
7.76032064128E+10	1.34642236426E-01	-8.89852110563E+01	1.08531321783E-04	-1.17656154916E+02	6.08233027546E-05	-1.12702145996E+02	3.70221009700E-02	-1.66172997013E+02
7.76092184369E+10	1.35686945038E-01	-8.95387104518E+01	6.10512909384E-05	-1.07604937584E+02	3.13099014777E-05	1.55548001242E+02	3.66057416584E-02	-1.67153501651E+02
7.76152304609E+10	1.38466990137E-01	-9.13103673837E+01	6.34422017012E-05	-1.74112971285E+02	7.73319321040E-05	-1.63245784935E+02	3.56233878235E-02	-1.67729589181E+02
7.76212424850E+10	1.35983455119E-01	-9.21226522526E+01	8.12571144209E-05	-1.76701415207E+02	2.30230052500E-05	1.70636184366E+02	3.52562280911E-02	-1.67607568650E+02
7.76272545090E+10	1.36311703075E-01	-9.32573171049E+01	9.24845984324E-05	-1.58171921419E+02	5.81402362795E-05	1.54801758073E+02	3.43083099874E-02	-1.67168009209E+02
7.76332665331E+10	1.37194739057E-01	-9.26586406333E+01	8.71014946221E-05	1.45231307903E+02	1.05444248982E-04	1.69023852484E+02	3.33916920206E-02	-1.66878810187E+02
7.76392785571E+10	1.35507103233E-01	-9.12127732913E+01	8.19453132054E-05	1.75994432596E+02	2.77015287656E-05	-1.38196559120E+02	3.26727242265E-02	-1.67845466905E+02
7.76452905812E+10	1.35747590128E-01	-9.07429351134E+01	6.80191746886E-05	-1.59148178292E+02	4.60273121131E-05	-1.14742056273E+02	3.21770855365E-02	-1.69936465467E+02
7.76513026052E+10	1.34764762884E-01	-9.14232137875E+01	9.99535201493E-05	1.26527502933E+02	5.64892308088E-05	1.49793647264E+02	3.04415037650E-02	-1.67793524101E+02
7.76573146293E+10	1.37217978608E-01	-9.08342461644E+01	1.80654290708E-05	-8.81708926004E+01	6.59059443720E-05	1.78391761288E+02	3.02770946457E-02	-1.67231613133E+02
7.76633266533E+10	1.35431480154E-01	-9.09637466481E+01	7.18427521055E-05	-1.49079659367E+02	2.58610061746E-05	1.75465802474E+02	3.02543779572E-02	-1.68378775172E+02
7.76693386774E+10	1.36077038984E-01	-9.27227820599E+01	5.98591124670E-05	-1.56587068949E+02	1.13970229225E-04	1.49418565501E+02	2.96674087330E-02	-1.69255738914E+02
7.76753507014E+10	1.35058257334E-01	-9.45350016241E+01	8.65045280169E-05	1.51611843693E+02	1.07815022638E-04	1.46045215046E+02	2.84058659032E-02	-1.69712309371E+02
7.76813627255E+10	1.34094591513E-01	-9.22077362013E+01	7.84861197064E-05	1.31879527566E+02	1.04520933844E-04	1.22450027830E+02	2.74364500916E-02	-1.70008654173E+02
7.76873747495E+10	1.38328255818E-01	-9.39495906576E+01	8.74352075039E-05	7.18585175188E+01	1.12373288675E-04	8.67485792250E+01	2.68559493671E-02	-1.70624423482E+02
7.76933867735E+10	1.34123169808E-01	-9.30420402308E+01	1.16856686839E-04	7.63729146453E+01	4.69781331405E-05	7.63282359725E+01	2.63333595741E-02	-1.70376240717E+02
7.76993987976E+10	1.34520912703E-01	-9.00389335962E+01	3.64762675860E-05	-1.73878290046E+02	5.80992285899E-05	1.48963072050E+02	2.55663933342E-02	-1.69397021862E+02
7.77054108216E+10	1.33885481015E-01	-9.28015668268E+01	6.21543829539E-05	1.58783637982E+02	2.13066626123E-05	1.49811754435E+02	2.48646621926E-02	-1.70852647492E+02
7.77114228457E+10	1.34481673709E-01	-9.07613335163E+01	4.93417739558E-05	1.23294441145E+02	7.23542220184E-05	1.30396945927E+02	2.42227663780E-02	-1.70962284873E+02
7.77174348697E+10	1.32795922554E-01	-9.23827372730E+01	9.27367339887E-05	1.34389040968E+02	9.24414524643E-05	1.16635217240E+02	2.35244991722E-02	-1.71113500319E+02
7.77234468938E+10	1.31809544759E-01	-9.19113508361E+01	5.79037174722E-05	8.21366136583E+01	8.71925293998E-05	8.81186861023E+01	2.25387796585E-02	-1.70844663259E+02
7.77294589178E+10	1.35601753492E-01	-9.49330345730E+01	5.36911558813E-05	1.13247960456E+02	8.70183391831E-05	8.63333925956E+01	2.15507840296E-02	-1.71760012573E+02
7.77354709419E+10	1.33396626256E-01	-9.47451419072E+01	5.74194461480E-05	3.59614970211E+01	6.41144407502E-05	8.05052980639E+01	2.09619184269E-02	-1.71081232902E+02
7.77414829659E+10	1.33286715606E-01	-9.35905220782E+01	4.36802936485E-05	1.05265630806E+01	7.97502393737E-05	7.08022482665E+01	2.07170826697E-02	-1.71757103519E+02
7.77474949900E+10	1.33766247315E-01	-9.46428991903E+01	5.27041666016E-05	1.02739116106E+02	6.64089063239E-05	1.09953123007E+02	2.00264136405E-02	-1.71173991981E+02
7.77535070140E+10	1.33635610709E-01	-9.40505485146E+01	7.00754500471E-05	3.16932748890E+01	9.87301678196E-05	7.23786725084E+01	1.89895258502E-02	-1.72870024309E+02
7.77595190381E+10	1.33394894473E-01	-9.41294280287E+01	9.53574929802E-05	1.84340090848E+01	9.11865106160E-05	1.15214310969E+02	1.82621600939E-02	-1.72608153701E+02
7.77655310621E+10	1.32446246912E-01	-9.53813466434E+01	7.13317096982E-05	4.52875293912E+01	5.03959769296E-05	9.07856460476E+01	1.76225075553E-02	-1.72944399971E+02
7.77715430862E+10	1.33110537604E-01	-9.46568897998E+01	7.75341742860E-05	3.94497057168E+01	5.16798309986E-05	2.03527946696E+01	1.68328031155E-02	-1.73483399412E+02
7.77775551102E+10	1.33246607577E-01	-9.40003359207E+01	6.77024798646E-05	6.48312136850E+00	8.03404236776E-05	3.04220857117E+01	1.59878634127E-02	-1.71441766543E+02
7.77835671343E+10	1.34475748072E-01	-9.65801588216E+01	1.02816335783E-04	-7.34484126352E-01	3.82362880118E-05	1.02423196873E+02	1.55934970171E-02	-1.73032356679E+02
7.77895791583E+10	1.32943937486E-01	-9.57415232248E+01	5.22487984227E-05	-5.18438590476E+01	2.12599823440E-05	3.95543500916E+01	1.47453641210E-02	-1.73344402972E+02
7.77955911824E+10	1.32906282887E-01	-9.50652391727E+01	8.53947878255E-05	9.41527543517E+01	1.21203464141E-04	3.86123520948E+01	1.38007324254E-02	-1.72532022884E+02
7.78016032064E+10	1.31344697546E-01	-9.50234324225E+01	5.25532766447E-05	-5.64954180589E+01	1.05023619002E-04	7.24399829847E+00	1.30157234977E-02	-1.71902701621E+02
7.78076152305E+10	1.30910044755E-01	-9.49925360170E+01	3.46229655397E-05	3.49567472289E+01	1.01125127182E-04	1.73789787832E+01	1.23276433085E-02	-1.71605234022E+02
7.78136272545E+10	1.33173237345E-01	-9.61823515209E+01	5.69027570291E-05	-6.85970512580E+01	5.70782763972E-05	-4.50196100541E+00	1.15274118604E-02	-1.67490170871E+02
7.78196392786E+10	1.33190335913E-01	-9.64764429705E+01	3.49486809832E-05	-1.61610011873E+02	3.31737696303E-05	2.85866065814E+01	1.10513660813E-02	-1.67776496968E+02
7.78256513026E+10	1.31856970844E-01	-9.43911829982E+01	5.54172956619E-05	1.16437524098E+02	8.08964033817E-05	2.56618159321E+01	1.04109420843E-02	-1.71638271087E+02
7.78316633267E+10	1.30857961488E-01	-9.72303060276E+01	3.98588028249E-05	6.32149887030E+01	7.08911996041E-05	-3.40095754093E+00	9.67272477106E-03	-1.69166224597E+02
7.78376753507E+10	1.31086937064E-01	-9.55163357034E+01	5.62411806127E-05	6.31990041278E+01	7.20290679877E-05	1.21173737353E-01	8.99763089023E-03	-1.68585313189E+02
7.78436873747E+10	1.32740941635E-01	-9.70313374124E+01	8.78416779566E-05	-3.70686399518E+01	9.72256733024E-05	1.43458865128E+00	8.06342518189E-03	-1.64369500123E+02
7.78496993988E+10	1.32333413866E-01	-9.64514557652E+01	4.30214688231E-05	-1.11062719195E+01	9.82353433567E-05	-6.10058484123E+01	7.61960013531E-03	-1.69870094766E+02
7.78557114228E+10	1.29354673121E-01	-9.60007691606E+01	3.55750441556E-05	-7.36941259017E+01	4.36262502833E-05	-1.09850888078E+02	6.70922516541E-03	-1.63153512755E+02
7.78617234469E+10	1.30026919290E-01	-9.64412457108E+01	1.20434534712E-04	-5.61179849163E+01	9.54436886456E-05	-1.11507475405E+02	6.28940539579E-03	-1.58653939059E+02
7.78677354709E+10	1.29829113306E-01	-9.56282397746E+01	2.22633005862E-05	-6.53877639560E+01	6.65651736634E-05	-6.71417519208E+01	5.77499923890E-03	-1.63392043968E+02
7.78737474950E+10	1.30949888488E-01	-9.70605235223E+01	5.15284437461E-05	-4.82281259605E+01	7.67735227559E-05	-6.38572174349E+01	5.03850032183E-03	-1.58038980792E+02
7.78797595190E+10	1.29295507679E-01	-9.66282259896E+01	2.03341721205E-05	-7.67133868671E+01	4.56437144222E-05	-1.21889897484E+02	4.53197673802E-03	-1.55704395001E+02
7.78857715431E+10	1.28507705442E-01	-9.75907554629E+01	1.19362827522E-04	-5.23221861413E+01	6.65063850836E-05	-1.46330410803E+02	3.67349130529E-03	-1.44736017114E+02
7.78917835671E+10	1.30567568256E-01	-9.77850567963E+01	7.35248544387E-05	-4.00048466050E+01	8.61287397952E-05	-7.93497450591E+01	3.07173804547E-03	-1.38367515692E+02
7.78977955912E+10	1.30899718207E-01	-9.85565575673E+01	4.25397881236E-05	-1.00689926820E+02	4.85470280700E-05	-9.60829718011E+01	2.80963079072E-03	-1.27309323337E+02
7.79038076152E+10	1.29685760091E-01	-9.82914057054E+01	6.60940270809E-05	-6.41738274326E+01	8.60148463559E-05	-9.10885980236E+01	2.90209782513E-03	-1.06973816300E+02
7.79098196393E+10	1.29409970530E-01	-9.68185604961E+01	5.82433940612E-05	-1.00975021245E+02	4.47254838213E-05	-1.51211973483E+02	2.88531065345E-03	-9.76796809932E+01
7.79158316633E+10	1.29929538016E-01	-9.80780165457E+01	6.72938521351E-05	-6.70537584685E+01	4.24148595012E-05	1.34110780084E+02	2.74311105507E-03	-9.07895475649E+01
7.79218436874E+10	1.31355799367E-01	-1.00348571957E+02	3.09569038194E-05	-2.48955860511E+01	2.33380847311E-05	-1.42735216265E+02	2.70888276316E-03	-7.98917464788E+01
7.79278557114E+10	1.31203781165E-01	-1.00683282950E+02	1.01967584562E-04	-8.45789177593E+01	1.67008754200E-05	2.93682202571E+01	3.56993930381E-03	-6.32977545854E+01
7.79338677355E+10	1.33954481970E-01	-1.01061875587E+02	7.41461244609E-05	-9.45267216385E+01	6.21897290737E-05	-1.06633621730E+02	3.93079651086E-03	-5.85269982463E+01
7.79398797595E+10	1.29177788761E-01	-9.86241056113E+01	9.76512958105E-06	-9.33490568395E+01	5.54406992088E-05	-1.17872641444E+02	3.57234000876E-03	-5.35860225123E+01
7.79458917836E+10	1.28768626590E-01	-9.83071055364E+01	1.10574434213E-04	-1.79306910647E+02	2.02837160314E-05	1.62282708947E+02	4.38982089927E-03	-4.33074622344E+01
7.79519038076E+10	1.27848000562E-01	-9.96334008541E+01	2.63354357104E-05	1.60694907003E+02	5.64120419717E-05	-1.77346848046E+02	6.09049509083E-03	-4.23220923196E+01
7.79579158317E+10	1.28752501710E-01	-9.88390415532E+01	1.21815122989E-05	-1.57441377533E+02	2.38424022462E-05	1.23121490908E+02	6.03625801737E-03	-3.84663701148E+01
7.79639278557E+10	1.29665543494E-01	-9.95804889501E+01	9.39191029943E-06	-5.91837086040E+01	4.18022294090E-05	-1.19798612014E+02	5.94035525226E-03	-3.61607476550E+01
7.79699398798E+10	1.28317166583E-01	-1.00696589859E+02	1.98059973726E-05	1.01273153330E+02	3.66401558230E-05	1.62652878252E+02	8.36340689569E-03	-3.63233010122E+01
7.79759519038E+10	1.27995023136E-01	-1.00664168294E+02	3.96076202284E-05	8.09908622621E+01	2.85787710856E-05	1.35361440959E+02	7.34994854613E-03	-3.46205749488E+01
7.79819639279E+10	1.31006376351E-01	-1.02044740996E+02	2.99536072743E-05	1.67362603827E+02	5.32079206137E-05	-1.11759174954E+02	8.74173087809E-03	-3.46062103521E+01
7.79879759519E+10	1.27264867749E-01	-9.98127198463E+01	1.65414496868E-05	-7.02562252659E+01	4.50024604282E-05	3.41627645992E+01	9.59903772964E-03	-3.46050276920E+01
7.79939879760E+10	1.28637235408E-01	-1.00449958530E+02	6.32495789881E-05	-1.00719162745E+02	2.96552198438E-05	-3.99150459049E+01	8.91272565704E-03	-3.24967842292E+01
7.80000000000E+10	1.28073683743E-01	-1.01248459028E+02	6.93483570316E-05	-1.46189410773E+02	4.32754818646E-05	-1.04002901468E+02	9.82097417515E-03	-3.22189695404E+01
