# Hz S MA R 50
! CMT, C4420, 21421029, 25.1.2/3
! Date: 8/7/2025 1:36:48 PM
! Data: Format (Calibration Info)
! Freq	S33:Mag/Ang(F2)	S43:Mag/Ang(F2)	S34:Mag/Ang(F2)	S44:Mag/Ang(F2)
7.50000000000E+10	1.97649199860E-01	-1.21653029106E+01	7.31758711251E-05	1.74606130665E+02	3.02759311092E-05	-3.13739663738E+01	2.74369653429E-01	-2.96259102842E+01
7.50060120240E+10	1.99728719804E-01	-1.38305478742E+01	6.13514286406E-05	-1.47070338274E+02	5.19458493912E-05	-9.89687671864E+01	2.72605459385E-01	-2.91676325386E+01
7.50120240481E+10	2.02496584975E-01	-1.52600607552E+01	4.63893203653E-05	-2.98056662828E+00	2.26524703329E-05	1.38314438938E+01	2.72287238235E-01	-2.93046841721E+01
7.50180360721E+10	2.01597165346E-01	-1.62790612033E+01	6.93632275996E-05	-7.14847533543E+01	6.67006385946E-05	7.82349512424E+01	2.73441855312E-01	-3.04521254687E+01
7.50240480962E+10	2.01239986386E-01	-1.66476849270E+01	2.93458051052E-05	1.01493096288E+02	1.24644063434E-05	9.85453686698E+01	2.75025500461E-01	-3.21037212115E+01
7.50300601202E+10	1.99489154209E-01	-1.49279860182E+01	1.07987416375E-05	7.83098030581E+00	6.31889851388E-05	4.03860930017E+01	2.74408428003E-01	-3.14422346409E+01
7.50360721443E+10	1.99760125932E-01	-1.35146896007E+01	1.01605927540E-05	-1.62863905369E+02	1.71966883010E-05	-1.32916731369E+02	2.70592105133E-01	-3.05970118109E+01
7.50420841683E+10	2.00605675867E-01	-1.58088425570E+01	4.23404213138E-05	-1.10968412368E+02	4.64270043177E-05	3.29330196259E+00	2.66954177901E-01	-2.95175769436E+01
7.50480961924E+10	1.98368221646E-01	-1.70889459544E+01	4.57407273854E-05	1.66140835507E+02	5.38706882642E-05	-1.27406294620E+02	2.67310448210E-01	-3.17812488655E+01
7.50541082164E+10	1.96262643059E-01	-1.59591031337E+01	3.76073669032E-05	3.25647401117E+01	7.96356053174E-05	-3.43840358688E+01	2.70655853903E-01	-3.22913429993E+01
7.50601202405E+10	1.99609306851E-01	-1.52333241974E+01	5.61206882920E-05	-5.99128248109E+01	6.14958086876E-05	-1.21620852702E+02	2.69384114230E-01	-3.13417248691E+01
7.50661322645E+10	2.00938622913E-01	-1.53807969400E+01	2.31143281029E-05	8.94445426010E+00	4.94162086383E-05	-6.91528963457E+01	2.68475609155E-01	-3.21313215873E+01
7.50721442886E+10	1.98459828699E-01	-1.69304643991E+01	3.01153355901E-05	-1.30608884902E+02	5.83113861778E-05	-9.54237805852E+01	2.67867349539E-01	-3.21997398823E+01
7.50781563126E+10	2.00123079155E-01	-1.90510984158E+01	2.75188501175E-05	1.33112486911E+02	1.15464546482E-04	-1.72186053544E+02	2.67561487226E-01	-3.24426402946E+01
7.50841683367E+10	1.96351816765E-01	-1.75402176595E+01	2.40351887295E-05	-4.56694462121E+01	7.42258636401E-05	1.19258729396E+02	2.71025205088E-01	-3.31952048190E+01
7.50901803607E+10	1.98590077817E-01	-1.77671598942E+01	2.20829584411E-05	-9.67915403913E+01	1.75332631466E-05	7.97119555344E+01	2.72373560996E-01	-3.33917718931E+01
7.50961923848E+10	1.99767850337E-01	-1.73154397129E+01	2.40881788496E-05	1.19444626373E+02	7.92004523658E-05	1.50657611521E+02	2.65651060639E-01	-3.29495685298E+01
7.51022044088E+10	1.95581000526E-01	-1.64760246844E+01	3.30957940927E-05	1.11494780788E+02	5.77121363207E-05	-1.11424500094E+02	2.68966650102E-01	-3.38391639981E+01
7.51082164329E+10	1.93463630273E-01	-1.56739586324E+01	1.10837879819E-05	-1.61076376166E+02	5.83091611444E-05	-1.05377480378E+02	2.64501223708E-01	-3.24828913060E+01
7.51142284569E+10	1.94733356645E-01	-1.75689268141E+01	5.75655560646E-05	7.55891676069E+01	3.65623234610E-05	-1.59896342577E+02	2.67779491127E-01	-3.45552254418E+01
7.51202404810E+10	1.97898829592E-01	-1.93167752182E+01	5.15414005555E-05	3.05446716437E+01	3.29490103038E-05	1.35433609531E+02	2.68818719261E-01	-3.48123995684E+01
7.51262525050E+10	1.96736888028E-01	-1.96356726015E+01	7.91343276497E-05	5.35926896602E+01	8.51919432537E-05	9.78496326117E+01	2.62922109009E-01	-3.42218346236E+01
7.51322645291E+10	1.95864419884E-01	-1.82848427931E+01	3.47783523329E-05	-6.10035202445E+01	1.47052731081E-06	-2.14029209510E+01	2.67199782848E-01	-3.50064333385E+01
7.51382765531E+10	1.94174348756E-01	-1.64380926035E+01	2.48931695299E-05	-1.39000678721E+01	3.39543517751E-05	-2.93668476938E+01	2.68644099257E-01	-3.68290051778E+01
7.51442885772E+10	1.93608341041E-01	-1.70495908083E+01	4.33321117591E-05	-7.08691818701E+01	6.09820508280E-05	-6.03656543427E+01	2.68069933142E-01	-3.54159113474E+01
7.51503006012E+10	1.92631237040E-01	-1.70328923485E+01	2.72863112843E-05	1.07075702019E+02	6.68263267347E-05	8.41460649647E+01	2.62409707164E-01	-3.50839735048E+01
7.51563126253E+10	1.92574577948E-01	-1.97643162143E+01	5.07654335658E-05	2.07300187842E+01	5.82093196991E-05	-4.53065730147E+01	2.66118844379E-01	-3.63260376558E+01
7.51623246493E+10	1.97537877145E-01	-2.13958649935E+01	4.99924653001E-05	-1.45377304505E+02	3.23843255732E-05	1.40207812870E+02	2.64772775369E-01	-3.58499442048E+01
7.51683366733E+10	1.93409048114E-01	-1.99148424161E+01	1.68803202523E-05	1.68336042269E+00	5.67717385040E-05	6.22597780498E+01	2.65135475052E-01	-3.54643009818E+01
7.51743486974E+10	1.97578409354E-01	-2.10187939970E+01	5.58074170929E-05	2.24564987924E+01	5.59306853778E-05	-2.80482988342E+00	2.67784206614E-01	-3.74716168208E+01
7.51803607214E+10	1.93419535302E-01	-1.84715369125E+01	2.57237747303E-05	-1.27931233831E+02	4.38994740781E-05	5.39709836357E+00	2.65138718222E-01	-3.77046376925E+01
7.51863727455E+10	1.94958206046E-01	-1.93961382724E+01	4.32532752663E-05	-1.00303797452E+02	5.66484646187E-05	6.05310226617E+01	2.65418249449E-01	-3.76264760231E+01
7.51923847695E+10	1.91952785248E-01	-2.00740343684E+01	3.60809324355E-05	3.28172316078E+01	1.18173317761E-04	1.19784182935E+00	2.64359531522E-01	-3.65579673566E+01
7.51983967936E+10	1.92152973830E-01	-1.92838022890E+01	3.56722224657E-05	-5.94459408214E+01	6.33677938854E-05	3.68058657219E+01	2.67063301393E-01	-3.80038656505E+01
7.52044088176E+10	1.96975321424E-01	-2.10460321188E+01	1.30029176099E-04	-1.36854349723E+02	5.38105088662E-05	-1.79617422968E+02	2.66628879087E-01	-3.87011302800E+01
7.52104208417E+10	1.94329337356E-01	-2.11026529252E+01	6.74153606496E-05	-9.17288005340E+01	6.15563283361E-05	-1.55112665576E+02	2.65144564744E-01	-3.90078667140E+01
7.52164328657E+10	1.95230294548E-01	-2.14707819645E+01	5.87923613765E-05	1.45208406668E+02	7.19033667893E-05	-1.15126029177E+02	2.63848991488E-01	-3.87194616223E+01
7.52224448898E+10	1.93488773110E-01	-2.12497378584E+01	1.49950000451E-05	-1.59594580093E+02	7.54325827725E-05	1.39662119976E+02	2.59985755978E-01	-3.77364037486E+01
7.52284569138E+10	1.95709560108E-01	-1.99677649685E+01	9.39211370162E-05	1.48539981245E+02	6.69263241548E-05	1.77776040465E+02	2.61876645281E-01	-3.92576588876E+01
7.52344689379E+10	1.92703356044E-01	-2.09756140599E+01	4.83561996618E-05	1.77782898535E+02	6.71237993505E-06	9.93733264030E+01	2.62154816771E-01	-3.94563523261E+01
7.52404809619E+10	1.95567490736E-01	-2.08906902245E+01	7.54714736668E-05	9.89874341064E+01	4.29071008418E-05	6.77308990701E+01	2.62280308347E-01	-3.92060022614E+01
7.52464929860E+10	1.94493858913E-01	-2.13558616079E+01	1.32347582169E-05	1.04862251550E+02	5.92706934959E-05	-9.75341642585E+01	2.62676557080E-01	-3.96118178298E+01
7.52525050100E+10	1.92724174533E-01	-2.32252598916E+01	5.47742142658E-05	4.30935694926E+01	4.37703745720E-05	2.85295410796E+01	2.65165256792E-01	-4.16105921676E+01
7.52585170341E+10	1.92494154610E-01	-2.20067888856E+01	1.03630751260E-04	8.86577614481E+01	3.24956526795E-05	7.83033213461E+01	2.65369714676E-01	-4.13927553274E+01
7.52645290581E+10	1.95580177068E-01	-2.30715943275E+01	4.78784239135E-05	-3.75574879499E+01	4.44471223916E-05	1.24153443440E+02	2.60930456719E-01	-3.98470737933E+01
7.52705410822E+10	1.93854277792E-01	-2.30996229068E+01	1.44630366574E-05	2.06245501795E+01	3.54337688093E-05	1.64594041288E+02	2.57808915423E-01	-3.98457139611E+01
7.52765531062E+10	1.89999595448E-01	-2.08671541357E+01	3.23367993876E-05	6.05222423951E+01	5.03736997179E-05	-1.52991773757E+02	2.59586877842E-01	-4.13514823735E+01
7.52825651303E+10	1.89651862556E-01	-2.24285767465E+01	7.58324608204E-05	6.02103335354E+01	2.91858422955E-05	-1.01754018417E+02	2.60324135338E-01	-4.18817716201E+01
7.52885771543E+10	1.92771958130E-01	-2.32866418885E+01	3.70732543651E-05	1.46250182860E+02	1.55292994486E-05	2.23560313243E+01	2.64512283795E-01	-4.30017320952E+01
7.52945891784E+10	1.95340558636E-01	-2.38012798371E+01	3.94861550904E-05	7.17050877038E+01	9.28029049946E-05	1.54148782473E+02	2.60509633129E-01	-4.13388010313E+01
7.53006012024E+10	1.94132658270E-01	-2.40161909268E+01	9.33322300799E-05	6.46378531308E+01	4.15374591361E-05	1.28885349257E+02	2.58457888684E-01	-4.15184188232E+01
7.53066132265E+10	1.88730785220E-01	-2.15732170254E+01	4.25515920328E-05	-6.33176297074E+01	5.24974236432E-05	4.85493247995E+01	2.58812140142E-01	-4.22935771112E+01
7.53126252505E+10	1.88815374227E-01	-2.22230395870E+01	6.04179552547E-05	-3.89774682263E+01	3.69467019665E-05	8.73713374105E+01	2.56583606209E-01	-4.25667237447E+01
7.53186372745E+10	1.94445510952E-01	-2.53278950358E+01	3.58733144422E-05	-3.76091572227E+01	3.03991435935E-05	1.22721720732E+02	2.59588351354E-01	-4.35165607255E+01
7.53246492986E+10	1.92965637914E-01	-2.39854699567E+01	6.27100391495E-05	9.09346286686E+01	2.82703021244E-05	-8.86995052904E+01	2.60023612671E-01	-4.29472845464E+01
7.53306613226E+10	1.91519610554E-01	-2.33524583043E+01	6.44059521328E-05	9.10054813757E-01	5.36433859371E-05	7.72671860237E+01	2.61709760650E-01	-4.37011538444E+01
7.53366733467E+10	1.87537856125E-01	-2.28295038079E+01	1.21444226478E-04	3.30718865530E+01	1.63157199810E-05	-4.69769626144E+00	2.55245070791E-01	-4.36194275330E+01
7.53426853707E+10	1.90271595378E-01	-2.41126257315E+01	4.34284812495E-05	-9.33751147461E+00	3.90492919659E-05	3.86921146944E+01	2.57748818676E-01	-4.41252690255E+01
7.53486973948E+10	1.92521771042E-01	-2.34356309257E+01	3.14253109670E-05	-7.17254092858E+01	3.19054359845E-05	1.62239579242E+01	2.57578023472E-01	-4.45316199302E+01
7.53547094188E+10	1.90658984523E-01	-2.40960807484E+01	1.65516616487E-05	-1.17091661674E+02	3.70227067075E-05	5.87693924596E+01	2.58418017243E-01	-4.47777404510E+01
7.53607214429E+10	1.91169048722E-01	-2.50978691295E+01	5.01515001896E-05	1.39089154970E+02	4.26366693071E-05	9.52940904414E+01	2.58763741174E-01	-4.57132773996E+01
7.53667334669E+10	1.91967221318E-01	-2.60416512387E+01	8.59812106598E-05	1.64720618226E+02	1.25951318985E-04	6.68974262251E+01	2.55770958759E-01	-4.53539064909E+01
7.53727454910E+10	1.89979193475E-01	-2.39394147851E+01	3.80800346545E-05	-1.39458467442E+02	5.18493784314E-05	7.22507968291E+01	2.56503196202E-01	-4.55404498274E+01
7.53787575150E+10	1.90771701789E-01	-2.69275675589E+01	5.58804714374E-05	-1.06175003426E+02	2.47342949043E-05	-5.65313624383E+01	2.56484291651E-01	-4.59128654840E+01
7.53847695391E+10	1.90971564224E-01	-2.61274258328E+01	4.19141982179E-05	1.41673324057E+02	3.75338430844E-05	-8.16392862296E+01	2.55395357862E-01	-4.57485913173E+01
7.53907815631E+10	1.89899495253E-01	-2.56113737922E+01	9.29005561948E-05	8.54597366153E+01	9.78427243621E-05	5.84708888303E+01	2.54479505127E-01	-4.64365964131E+01
7.53967935872E+10	1.88465406650E-01	-2.44617219506E+01	5.88033471895E-05	6.18471808233E+01	5.63298323418E-05	2.38919411326E+01	2.56506855011E-01	-4.59156683445E+01
7.54028056112E+10	1.90101671632E-01	-2.62730650549E+01	5.35728857001E-05	1.51503392244E+02	3.73159909786E-05	1.71434068665E+01	2.55335924010E-01	-4.60629026456E+01
7.54088176353E+10	1.85644787198E-01	-2.43875879431E+01	1.88021827909E-05	5.41893097865E+01	4.69378898966E-05	-1.09270351663E+02	2.54079586589E-01	-4.66218392651E+01
7.54148296593E+10	1.89962219511E-01	-2.63988013242E+01	1.69538566042E-05	1.40727596255E+02	3.24405990029E-05	-3.43870106868E+01	2.52701869231E-01	-4.77770615264E+01
7.54208416834E+10	1.94185481118E-01	-2.79960864286E+01	1.94649727589E-05	1.05773846615E+02	8.59741951504E-05	3.30289914709E+01	2.54056450251E-01	-4.71165717451E+01
7.54268537074E+10	1.88196707017E-01	-2.53078737661E+01	5.23966045361E-05	1.51566763734E+02	1.29246855577E-05	1.05063246190E+02	2.56189580557E-01	-4.80204525676E+01
7.54328657315E+10	1.87018213134E-01	-2.62146471810E+01	7.50829375011E-05	1.17090395262E+02	5.36017696865E-05	-6.57798489105E+01	2.53616826805E-01	-4.80707235251E+01
7.54388777555E+10	1.86690362687E-01	-2.65419817303E+01	5.49215323974E-05	6.46168549604E+01	3.41929525228E-05	-1.30124341641E+02	2.52372035647E-01	-4.89606587988E+01
7.54448897796E+10	1.86300704628E-01	-2.76230061904E+01	4.04363215587E-05	7.81407698201E+00	3.17189660759E-05	1.54767338318E+01	2.54356927081E-01	-4.97737259548E+01
7.54509018036E+10	1.92488810501E-01	-2.91505547771E+01	4.13419555456E-05	8.25659456086E+01	9.38413590576E-05	-1.45185903516E+00	2.53054231952E-01	-4.92914423571E+01
7.54569138277E+10	1.88657299164E-01	-2.79388755318E+01	1.21548121400E-04	2.97400839835E+01	3.56870642778E-05	-5.77181495190E+01	2.52832368903E-01	-5.02100497349E+01
7.54629258517E+10	1.87028513534E-01	-2.59594641111E+01	6.14771557251E-05	1.76911009372E+01	3.79778712622E-05	-5.13268206939E+01	2.53247399381E-01	-4.98149229842E+01
7.54689378758E+10	1.88659618228E-01	-2.96440809813E+01	4.31008958738E-05	-3.86294469575E+01	2.28807969256E-05	4.40966515744E+01	2.54135802802E-01	-5.03065855624E+01
7.54749498998E+10	1.86643358886E-01	-2.65963650218E+01	6.99317015555E-05	1.59183132545E+01	7.19187199195E-05	-6.01516324704E+01	2.53405271115E-01	-5.06633838985E+01
7.54809619238E+10	1.87903502533E-01	-2.75810578299E+01	4.95730026094E-05	-8.91949893840E+01	6.85730168644E-05	-9.47980245511E+01	2.53503699936E-01	-5.13693135279E+01
7.54869739479E+10	1.90014662924E-01	-2.86163188163E+01	4.54321597457E-05	-3.26872824208E+01	5.03820816175E-05	-1.10497744811E+02	2.52785956671E-01	-5.21389880541E+01
7.54929859719E+10	1.88117390332E-01	-2.87282906647E+01	1.94820205507E-05	1.33718167840E+02	3.48386977405E-05	-8.71822389452E+01	2.52676064506E-01	-5.13354459632E+01
7.54989979960E+10	1.86435467126E-01	-2.91899310351E+01	1.35963383880E-05	8.11967300457E+01	3.41617814807E-05	-1.70669397498E+02	2.51626593956E-01	-5.13313531677E+01
7.55050100200E+10	1.89900106349E-01	-3.06789696535E+01	1.18090758556E-04	-1.55908505193E+02	5.51440926539E-05	1.75870646484E+02	2.53865186451E-01	-5.23639828076E+01
7.55110220441E+10	1.88160752300E-01	-2.84298924183E+01	9.86303194845E-05	-1.21191895309E+02	6.71245881311E-05	-1.56702960236E+02	2.50731461853E-01	-5.21361213795E+01
7.55170340681E+10	1.85871667503E-01	-2.87652985535E+01	7.58487967211E-05	-1.10552058000E+02	2.53565331752E-05	-1.02269609015E+02	2.51084245398E-01	-5.24068501072E+01
7.55230460922E+10	1.88220139634E-01	-3.06426981459E+01	3.02329163480E-05	1.55842157503E+02	1.07999573227E-04	1.78203868951E+02	2.51536444128E-01	-5.32773885833E+01
7.55290581162E+10	1.87884469534E-01	-3.12647131783E+01	3.43887776752E-05	-4.94427848008E+01	3.25278667987E-05	-1.74386549596E+02	2.50911496446E-01	-5.30682936386E+01
7.55350701403E+10	1.90198646201E-01	-3.14725698730E+01	2.29139652335E-05	-1.99184332027E+01	4.82437118649E-05	-1.31140521895E+02	2.47067638047E-01	-5.29513237456E+01
7.55410821643E+10	1.86623601982E-01	-2.94512664272E+01	6.72968678057E-05	-4.83906215241E+01	4.66719067286E-05	6.28888045745E+01	2.49852075926E-01	-5.35529527405E+01
7.55470941884E+10	1.86229447095E-01	-2.90317974620E+01	6.79171638428E-05	-6.96010363992E+01	4.91667129343E-05	-7.09498874426E+01	2.50249909447E-01	-5.46121865605E+01
7.55531062124E+10	1.87958599490E-01	-3.08366734428E+01	1.59628817087E-05	-1.04342224655E+02	2.96655465444E-05	-1.17442217831E+02	2.50340651672E-01	-5.43149164066E+01
7.55591182365E+10	1.82983138378E-01	-2.97350864886E+01	3.02740557405E-05	-1.03034209673E+02	7.46591361762E-05	9.24733880400E+01	2.46508080772E-01	-5.41019299876E+01
7.55651302605E+10	1.84568511976E-01	-3.03492984174E+01	7.13016763384E-05	-1.65592176395E+02	2.70042547418E-05	-1.00876796257E+02	2.46749396845E-01	-5.41049669263E+01
7.55711422846E+10	1.89711127672E-01	-3.20669158062E+01	6.22571710029E-05	1.72559431223E+02	3.86644103467E-05	1.36308714098E+02	2.50977977872E-01	-5.57591111785E+01
7.55771543086E+10	1.86338875486E-01	-3.10256402528E+01	8.64998467326E-05	-1.67478567124E+02	7.73165463211E-05	9.89931107549E+01	2.49776577429E-01	-5.64158972199E+01
7.55831663327E+10	1.84042864178E-01	-3.16483680124E+01	7.68678749888E-05	1.63202694446E+02	9.33449437232E-05	1.43043165585E+02	2.44581469385E-01	-5.46155339034E+01
7.55891783567E+10	1.85639320039E-01	-3.13938635503E+01	6.76292814829E-05	1.25844683752E+02	6.66509121745E-05	9.41588329608E+01	2.46976065417E-01	-5.62889896930E+01
7.55951903808E+10	1.85155024407E-01	-3.16088531931E+01	9.80250848169E-05	2.45589213607E+01	2.81203708638E-05	1.03862358472E+02	2.50670717193E-01	-5.76170019988E+01
7.56012024048E+10	1.90776654347E-01	-3.34415243592E+01	6.85570911370E-05	-9.89837652246E+01	3.98020383639E-05	1.03782446123E+02	2.48147549888E-01	-5.73626889849E+01
7.56072144289E+10	1.85074692994E-01	-3.10678191474E+01	4.91418049630E-05	-7.58020130591E+01	2.26622005631E-05	6.49476532380E+01	2.45442084440E-01	-5.79345139744E+01
7.56132264529E+10	1.86595923294E-01	-3.28097178405E+01	3.73606992171E-05	-4.56315864227E+01	2.75315584121E-05	8.98761421472E+01	2.46128422724E-01	-5.69845060667E+01
7.56192384770E+10	1.84125459310E-01	-3.31923408663E+01	1.42467367914E-05	9.46030936494E+01	6.81307162121E-06	1.86478900475E+01	2.45294477884E-01	-5.68774835939E+01
7.56252505010E+10	1.83336671480E-01	-3.18406609699E+01	4.68177382915E-05	1.79066720219E+02	5.14862135687E-05	1.05174860332E+02	2.47559019340E-01	-5.85359367398E+01
7.56312625251E+10	1.86663284225E-01	-3.30054174513E+01	5.50445394038E-05	1.17455993917E+02	6.74368108873E-05	-1.56900131204E+02	2.45247441788E-01	-5.90502144441E+01
7.56372745491E+10	1.85422377696E-01	-3.34570084009E+01	1.62257149490E-05	9.18574502454E+01	2.52087872494E-05	4.03794454202E+01	2.43619989697E-01	-5.80186394023E+01
7.56432865731E+10	1.80799317378E-01	-3.20816978201E+01	4.03061627814E-05	-7.91402550441E+01	5.57865128327E-05	-1.95436081617E+01	2.45788915060E-01	-5.82028991724E+01
7.56492985972E+10	1.84102130724E-01	-3.39954255449E+01	2.62134817229E-05	3.80679211206E+01	5.76363456471E-05	7.15280763379E+01	2.44322933616E-01	-5.92138206695E+01
7.56553106212E+10	1.85304433790E-01	-3.35465133678E+01	3.86722551257E-05	1.45582952150E+02	1.71788943004E-06	1.57717935605E+01	2.43790842429E-01	-5.97114786498E+01
7.56613226453E+10	1.85800243066E-01	-3.33475683140E+01	4.52821236496E-05	1.55385510085E+02	4.78053888403E-05	-1.08780534256E+02	2.44013127900E-01	-6.03816455138E+01
7.56673346693E+10	1.84128026160E-01	-3.34986073459E+01	9.16686265062E-05	8.38857098397E+01	4.38325723072E-05	-2.55355150870E+01	2.43770759590E-01	-5.93056766422E+01
7.56733466934E+10	1.84489338058E-01	-3.51235526531E+01	4.66132366807E-05	8.83949208637E+01	3.43132820336E-05	-7.98380507920E+00	2.43111273824E-01	-6.04903929382E+01
7.56793587174E+10	1.83876280705E-01	-3.54866323926E+01	5.84643337154E-05	8.60956287536E+01	7.57135397779E-05	-7.59351346656E+01	2.39616974093E-01	-6.01286669094E+01
7.56853707415E+10	1.81667693468E-01	-3.38742022167E+01	5.16446773111E-05	-5.30091197508E+01	7.65456040452E-05	1.64856415521E+02	2.45333278170E-01	-6.21852190278E+01
7.56913827655E+10	1.84153251082E-01	-3.53293525797E+01	1.96631091045E-05	1.78694446823E+02	4.24864857389E-05	-3.90707165554E+01	2.40952447739E-01	-6.08406630499E+01
7.56973947896E+10	1.85545389929E-01	-3.65009217884E+01	2.58364205388E-05	4.65949171433E+01	2.26748264184E-05	-9.45882332864E+01	2.39714824376E-01	-6.13944539365E+01
7.57034068136E+10	1.86918943413E-01	-3.59549035720E+01	2.65345172733E-05	3.31348975681E+01	2.14350065775E-05	-1.58183209124E+02	2.37507255681E-01	-6.06721213955E+01
7.57094188377E+10	1.80980642088E-01	-3.47735869139E+01	3.54013075990E-05	1.30000424828E+02	3.23104703478E-05	-1.61656087751E+02	2.39221966778E-01	-6.17159332134E+01
7.57154308617E+10	1.83523552421E-01	-3.64359246038E+01	2.51461706689E-05	-1.34957259186E+02	5.18235447157E-05	-3.22075723426E+01	2.41477365565E-01	-6.28003559927E+01
7.57214428858E+10	1.85030420426E-01	-3.58926626224E+01	1.85514636990E-05	-1.64082144634E+02	3.77467295428E-05	-1.69106039708E+02	2.42980440056E-01	-6.28996078806E+01
7.57274549098E+10	1.85205957114E-01	-3.59616547079E+01	1.90089432216E-05	1.18224510580E+02	7.25467267749E-05	-1.77328528342E+02	2.38385751272E-01	-6.18634464076E+01
7.57334669339E+10	1.81997986061E-01	-3.61190834270E+01	4.60408940201E-05	1.08600913187E+01	1.95055807624E-05	1.32005338056E+02	2.41178916046E-01	-6.32678562466E+01
7.57394789579E+10	1.81066417750E-01	-3.63020342090E+01	2.71482864477E-05	-1.57538577453E+02	2.15882516974E-05	-1.16842141010E+01	2.40112430050E-01	-6.43388893945E+01
7.57454909820E+10	1.83304209374E-01	-3.70989744468E+01	6.67143681404E-05	-6.65784237586E+01	2.57498437677E-05	1.62302047817E+02	2.37780928948E-01	-6.40839974683E+01
7.57515030060E+10	1.83760402117E-01	-3.60351295264E+01	1.05968766214E-04	-9.56115687227E+01	2.23379929254E-05	6.78279884224E+01	2.40510886105E-01	-6.35854599927E+01
7.57575150301E+10	1.83735511062E-01	-3.74227632064E+01	6.32964733921E-05	-9.76128226603E+01	2.26374796713E-05	9.18801707179E+01	2.38847247907E-01	-6.53369897236E+01
7.57635270541E+10	1.80851700840E-01	-3.74321119523E+01	7.13172715959E-05	-1.34190733478E+02	4.74960118287E-05	1.46607656516E+02	2.34302321882E-01	-6.41455263874E+01
7.57695390782E+10	1.82224490606E-01	-3.76315993882E+01	8.02677736362E-05	-1.70827473550E+02	5.68769222106E-05	1.22715619954E+02	2.40143463915E-01	-6.48795167907E+01
7.57755511022E+10	1.82453850862E-01	-3.84110262896E+01	2.81083635309E-05	1.58584284672E+02	4.42639303592E-05	1.21452181750E+02	2.37432051502E-01	-6.49238001800E+01
7.57815631263E+10	1.80831942189E-01	-3.73941329172E+01	7.56524257333E-05	-1.79904487642E+02	3.84164815745E-05	8.05218871167E+01	2.36138090828E-01	-6.58631112503E+01
7.57875751503E+10	1.79818535767E-01	-3.74769868599E+01	7.09671566894E-05	-1.62223395941E+02	5.24184702205E-05	9.83218192552E+01	2.36542664587E-01	-6.78698298443E+01
7.57935871743E+10	1.83324495744E-01	-3.81978644250E+01	5.82238745743E-05	9.06794241125E+01	8.73357534555E-05	7.69187427165E+01	2.37140828630E-01	-6.71114849582E+01
7.57995991984E+10	1.78873280252E-01	-3.90328999082E+01	7.28994576905E-05	1.17658873007E+02	9.75871454614E-05	7.65596561558E+01	2.35063305295E-01	-6.55761795890E+01
7.58056112224E+10	1.80235620878E-01	-3.74291437056E+01	2.50748142746E-05	1.28469970519E+02	7.18123095712E-05	7.23862847441E+00	2.35058921391E-01	-6.68254309441E+01
7.58116232465E+10	1.84785377315E-01	-3.96310721837E+01	2.80368655623E-05	6.18555279972E+01	1.11732186237E-04	1.61236906953E+00	2.33834787161E-01	-6.76305291369E+01
7.58176352705E+10	1.79963559964E-01	-3.82713040921E+01	3.54905746734E-05	1.30705218724E+02	9.00926691311E-05	1.34680508487E+01	2.33037100294E-01	-6.81012634513E+01
7.58236472946E+10	1.81756175996E-01	-4.02681701298E+01	2.47063490329E-05	7.63325418824E+01	4.31930552212E-05	1.78599685345E+01	2.34486764416E-01	-6.85758265393E+01
7.58296593186E+10	1.80621655089E-01	-3.95626995738E+01	3.57225355008E-05	-1.94371567642E+01	1.71694553525E-05	9.08649320958E+01	2.36725137347E-01	-6.96240617700E+01
7.58356713427E+10	1.79604813822E-01	-3.87701075458E+01	4.17885151066E-05	-4.43937716822E+00	9.11248265331E-05	-6.16519634883E+01	2.30940511497E-01	-6.69702416515E+01
7.58416833667E+10	1.80577442762E-01	-3.99164841327E+01	8.11625363055E-05	1.01477853126E+02	3.79561505265E-05	-3.97532340387E+01	2.30759569341E-01	-6.86972535806E+01
7.58476953908E+10	1.80263946979E-01	-4.16427254148E+01	7.49985636692E-05	6.73518574489E+01	1.19689055233E-04	2.07629643029E+01	2.30380583884E-01	-6.98900502991E+01
7.58537074148E+10	1.82459153898E-01	-4.11135110221E+01	1.69432818528E-05	1.66202495211E+02	8.35163762655E-05	-5.31373241771E+01	2.34444551644E-01	-7.06976024862E+01
7.58597194389E+10	1.81929222596E-01	-4.09076194750E+01	1.19773519376E-04	7.38837817784E+01	9.32284015997E-05	-2.30485583827E+01	2.29731172708E-01	-6.93860238148E+01
7.58657314629E+10	1.80248590898E-01	-4.04962122790E+01	1.04514296954E-04	3.19884234523E+01	3.58327978089E-05	-4.06762114224E+01	2.32554556434E-01	-7.05687569802E+01
7.58717434870E+10	1.77450063034E-01	-4.10612527259E+01	6.26329135401E-05	1.93060470543E+01	7.11776143965E-05	-3.37864103835E+01	2.31768239002E-01	-7.09077640647E+01
7.58777555110E+10	1.78140664816E-01	-3.96782542650E+01	5.93841371851E-05	-9.55245485458E+00	1.35707630646E-04	-2.70004204039E+01	2.32039130166E-01	-7.08134812900E+01
7.58837675351E+10	1.76702416727E-01	-4.10922335278E+01	1.27609115797E-04	1.92969156552E+01	6.35390372868E-05	-4.02185331469E+01	2.28476601113E-01	-7.05682136289E+01
7.58897795591E+10	1.77720790787E-01	-4.03591684607E+01	2.78626411911E-05	-9.67977789082E+01	9.12263557363E-05	-1.02215479438E+02	2.26726181768E-01	-6.99396806653E+01
7.58957915832E+10	1.79944800966E-01	-4.27828849514E+01	9.96238787978E-05	-4.52305274358E+01	5.48046504675E-05	2.32455800775E+00	2.25952477148E-01	-7.13749682611E+01
7.59018036072E+10	1.79846067059E-01	-4.21763427003E+01	2.63586908560E-05	-1.23417411621E+01	6.00033881679E-05	-1.28495597756E+02	2.29088679446E-01	-7.32219054770E+01
7.59078156313E+10	1.77198446205E-01	-4.01486855361E+01	1.99265948781E-05	-1.07374288958E+01	1.09325101064E-04	-1.49710038703E+02	2.29966658570E-01	-7.34672805585E+01
7.59138276553E+10	1.77344907811E-01	-4.21081039725E+01	7.09266981939E-05	-6.14398801875E+01	1.10792453322E-04	-1.25705646093E+02	2.29342023127E-01	-7.43860615704E+01
7.59198396794E+10	1.80414342021E-01	-4.20503884044E+01	1.00908721756E-04	-6.29310469964E+01	8.71554288513E-05	-1.17170816210E+02	2.27211407345E-01	-7.30857696181E+01
7.59258517034E+10	1.78788308904E-01	-4.17580006163E+01	3.92161692667E-05	-1.25119756569E+02	7.51384381214E-05	-1.12607012044E+02	2.26409039913E-01	-7.26091931390E+01
7.59318637275E+10	1.78165446761E-01	-4.25482011706E+01	2.41024378708E-05	-8.26046010710E+01	7.11050811209E-05	1.70311897806E+02	2.26540154359E-01	-7.29313100709E+01
7.59378757515E+10	1.76168634861E-01	-4.33462726818E+01	3.68377421378E-05	-4.10301825504E+01	3.38808446814E-05	1.64069746554E+02	2.26273117269E-01	-7.45036884039E+01
7.59438877756E+10	1.80076907306E-01	-4.39055444142E+01	5.34438889885E-05	-9.75278291933E+01	2.27031019823E-05	-1.61448209582E+02	2.27326515806E-01	-7.50177018753E+01
7.59498997996E+10	1.79268141534E-01	-4.27820751011E+01	4.18192833637E-05	3.29480850730E+01	2.11496390763E-05	9.91290179395E+01	2.23747105560E-01	-7.40369026144E+01
7.59559118236E+10	1.78203088069E-01	-4.27348630643E+01	1.01552006702E-04	-1.39041219760E+02	8.68008152047E-05	-1.41719305586E+02	2.23575016908E-01	-7.44317892634E+01
7.59619238477E+10	1.76982979484E-01	-4.42218275367E+01	7.03103787385E-05	-1.29351092509E+02	5.89161079657E-05	6.47728181267E+01	2.22559334970E-01	-7.51627070897E+01
7.59679358717E+10	1.77639932161E-01	-4.45333981011E+01	1.00586372219E-04	-1.21672541991E+02	3.93673641502E-05	1.42788845405E+02	2.23323554741E-01	-7.64011328021E+01
7.59739478958E+10	1.79385043842E-01	-4.46332034030E+01	5.56827156589E-05	1.70346463376E+02	5.70082956138E-05	1.37706578275E+02	2.20784922089E-01	-7.46224798457E+01
7.59799599198E+10	1.79106201544E-01	-4.49071253359E+01	8.05577565452E-05	1.45658859440E+02	4.17492186883E-05	8.81772306652E+01	2.23044364338E-01	-7.57732164070E+01
7.59859719439E+10	1.73747622695E-01	-4.36517342255E+01	4.30458784485E-05	-1.69687654459E+02	3.23810595553E-05	3.31686358182E+01	2.21348406058E-01	-7.65082039568E+01
7.59919839679E+10	1.77501348233E-01	-4.48526608504E+01	4.57169144553E-05	1.47662873274E+02	8.19461951988E-05	5.79601919291E+01	2.23716919710E-01	-7.79752611562E+01
7.59979959920E+10	1.78757376189E-01	-4.51549467119E+01	2.98534810493E-05	1.57377047271E+02	9.36160440922E-05	6.81115204001E+01	2.17045470480E-01	-7.55317221850E+01
7.60040080160E+10	1.76794181922E-01	-4.57364569523E+01	6.66245682680E-05	-1.42793751421E+02	3.50161839650E-05	4.44509475515E+01	2.22520909642E-01	-7.81222282264E+01
7.60100200401E+10	1.76976602880E-01	-4.68410269380E+01	3.01220557519E-05	1.12880524690E+02	1.21445017542E-04	1.61054842493E+01	2.19537486084E-01	-7.83447172759E+01
7.60160320641E+10	1.74723367360E-01	-4.52911403016E+01	1.02278701116E-04	-1.65978995613E+02	2.77920038492E-05	3.44988939832E+01	2.21868701046E-01	-7.84710271345E+01
7.60220440882E+10	1.74682738336E-01	-4.56878941613E+01	2.69970762144E-05	1.49852999499E+02	1.17909839176E-04	-9.32394173970E+00	2.20393172643E-01	-7.86067644507E+01
7.60280561122E+10	1.75856409695E-01	-4.60852245019E+01	6.63341014212E-05	1.24992710032E+02	2.02535441156E-05	2.39253779332E+01	2.14999891181E-01	-7.78515201598E+01
7.60340681363E+10	1.74619106335E-01	-4.44724398583E+01	5.02941494293E-05	1.70808984537E+02	5.95737518762E-05	-1.06106080142E+02	2.14892370548E-01	-7.84908960445E+01
7.60400801603E+10	1.74361973675E-01	-4.59612551790E+01	2.92413658496E-05	1.30670299261E+02	3.40312262890E-05	1.52910570649E+02	2.18003352972E-01	-8.03261612861E+01
7.60460921844E+10	1.74267420730E-01	-4.61755162597E+01	3.80494051101E-05	1.30634029635E+02	1.05837766839E-04	-8.26557471727E+01	2.17825836680E-01	-8.02139925170E+01
7.60521042084E+10	1.72666749858E-01	-4.69214206501E+01	2.06738809752E-05	1.32558135500E+02	2.30393061969E-05	1.48372554611E+02	2.16103416890E-01	-8.00302495725E+01
7.60581162325E+10	1.73857053458E-01	-4.78962298961E+01	1.04906988292E-04	6.75083780255E+01	1.76981269546E-05	-7.78949751382E+01	2.14945826363E-01	-7.93786702059E+01
7.60641282565E+10	1.75047166872E-01	-4.70220166900E+01	5.67361081721E-05	6.42994190458E+01	3.73644779547E-05	1.40664829533E+02	2.14808612910E-01	-8.13097221669E+01
7.60701402806E+10	1.71527800298E-01	-4.50537358267E+01	1.07771326592E-04	8.24134471690E+00	1.68438801040E-05	-1.60660940741E+02	2.15048218726E-01	-8.12224158117E+01
7.60761523046E+10	1.73595341039E-01	-4.86001008608E+01	3.79104317857E-05	8.10648635938E+01	2.41676314188E-05	-1.79401892550E+02	2.12999040661E-01	-8.05492948818E+01
7.60821643287E+10	1.75342240896E-01	-4.79500701249E+01	7.33132739299E-05	-4.19795666411E+01	3.89955095050E-05	1.61321396638E+02	2.10640411278E-01	-7.97954837392E+01
7.60881763527E+10	1.74456530741E-01	-4.77585021427E+01	3.90204199943E-05	3.91196646101E+01	6.99309788847E-06	-2.91475063445E+01	2.15631250837E-01	-8.33247883873E+01
7.60941883768E+10	1.70987080957E-01	-4.67872505604E+01	7.11268139076E-05	3.15637383354E+01	6.06443949282E-05	1.66995873018E+02	2.10775999120E-01	-8.16381751509E+01
7.61002004008E+10	1.72151103207E-01	-4.72103958091E+01	9.46979122142E-06	5.17429866241E+01	4.60579346942E-05	1.32206234983E+02	2.09451763742E-01	-8.12893075161E+01
7.61062124248E+10	1.74057395796E-01	-4.67298945251E+01	9.32449235092E-05	2.37413170723E+01	6.31154372251E-05	-1.70952312374E+02	2.08604544801E-01	-8.14202493781E+01
7.61122244489E+10	1.71323433475E-01	-4.87130488563E+01	7.09353504154E-05	-3.64617033976E+01	5.66263084523E-05	-1.50822636475E+02	2.10272018981E-01	-8.35092871434E+01
7.61182364729E+10	1.74272365308E-01	-4.85249840750E+01	3.10391654337E-05	-9.24139142348E+01	8.55618530599E-05	1.21198562148E+02	2.10985219576E-01	-8.42811659883E+01
7.61242484970E+10	1.69389293012E-01	-4.68373852039E+01	2.71351789554E-05	-1.71724281505E+02	6.33517276673E-05	1.20366495960E+02	2.08296051353E-01	-8.31173771623E+01
7.61302605210E+10	1.70472952558E-01	-4.72706466009E+01	6.80561848008E-05	2.80433908334E+01	9.36222664432E-05	1.19769155746E+02	2.07227366294E-01	-8.29563479268E+01
7.61362725451E+10	1.71163334728E-01	-4.99434750127E+01	6.26229674878E-05	7.66179914599E+01	8.79583903814E-05	9.63797196443E+01	2.07842008084E-01	-8.45340648339E+01
7.61422845691E+10	1.73503447910E-01	-5.07720494241E+01	2.50175965651E-05	5.91452547136E+01	3.99127642987E-05	5.05994740562E+01	2.05954928088E-01	-8.40153058164E+01
7.61482965932E+10	1.68568698965E-01	-4.84533178235E+01	6.15158792591E-05	-1.63941073695E+02	3.33564748712E-05	-8.94030327245E+01	2.07970648647E-01	-8.49801059763E+01
7.61543086172E+10	1.72783572620E-01	-4.90570593160E+01	6.80236258122E-05	-1.62582527949E+02	1.24061040699E-04	-1.49622366042E+01	2.05719619774E-01	-8.41803347664E+01
7.61603206413E+10	1.70294226734E-01	-4.84429486472E+01	4.08332630084E-05	1.41727890965E+02	4.63144026145E-05	4.38864940111E+01	2.08095652955E-01	-8.57817083024E+01
7.61663326653E+10	1.69811987532E-01	-4.88324827976E+01	8.57457205222E-05	-1.77052790813E+02	3.36157656843E-05	1.48081113302E+02	2.05340970831E-01	-8.55588397570E+01
7.61723446894E+10	1.72457249410E-01	-5.04600515586E+01	4.07842161635E-05	2.37412779610E+01	4.16572226585E-05	-1.06016148346E+02	2.05193608913E-01	-8.59241210672E+01
7.61783567134E+10	1.71207159267E-01	-4.86108468785E+01	1.43807054527E-05	1.70908117668E+02	3.87539651357E-05	-8.23191824186E+01	2.04055278557E-01	-8.59116762014E+01
7.61843687375E+10	1.69103894397E-01	-4.82405213635E+01	4.95395732374E-05	1.16400613903E+02	7.50217626418E-05	6.26275947073E+00	2.04594031674E-01	-8.73893854533E+01
7.61903807615E+10	1.70269488040E-01	-5.04461377535E+01	2.33559680513E-05	3.01149484853E+00	9.21845572041E-05	-8.01692524428E+01	2.04579289795E-01	-8.77410595775E+01
7.61963927856E+10	1.71352669036E-01	-5.04810451028E+01	7.02221197068E-05	-1.27466807932E+02	1.02165858022E-04	-6.05947683979E+01	1.99710215523E-01	-8.54134913981E+01
7.62024048096E+10	1.67501698162E-01	-4.95661376058E+01	3.45879927590E-05	1.04761158793E+02	8.26834573461E-05	-1.10522133082E+02	2.03030684177E-01	-8.73349341629E+01
7.62084168337E+10	1.68605701753E-01	-5.12700031678E+01	4.51578504890E-05	-1.75717259825E+02	1.35288384748E-05	-6.45873804739E+01	2.02031692614E-01	-8.78165740758E+01
7.62144288577E+10	1.68509178173E-01	-4.87163466713E+01	8.84005654143E-05	1.37030621520E+01	3.27854049612E-06	1.39998955580E+02	2.02142934955E-01	-8.78666437957E+01
7.62204408818E+10	1.70063375081E-01	-5.09098766932E+01	6.72344272508E-05	7.48168593216E+01	3.64543804572E-05	-4.71966835045E+01	2.00424220312E-01	-8.79540284376E+01
7.62264529058E+10	1.70095463629E-01	-5.25971382875E+01	6.53589241299E-05	3.56913365348E+01	7.34873054242E-05	-5.12677122984E+01	1.99504813492E-01	-8.83569489116E+01
7.62324649299E+10	1.68531912607E-01	-5.22985958931E+01	6.47737078460E-05	-8.89078404648E+01	9.98688937739E-05	-9.41224704734E+01	1.99888273018E-01	-8.84828307874E+01
7.62384769539E+10	1.67746441782E-01	-5.15242706478E+01	4.05354984243E-05	8.93151830364E+01	3.90202704794E-05	-5.37008120510E+01	1.96257101695E-01	-8.80265387403E+01
7.62444889780E+10	1.67039155327E-01	-5.07610253441E+01	5.76522696419E-05	-1.56987686783E+02	8.81548695278E-05	-1.10061471311E+02	1.99517025934E-01	-9.00568328704E+01
7.62505010020E+10	1.69029326050E-01	-5.03281345669E+01	1.46213339200E-05	8.15811630541E+01	1.13088331872E-04	-1.06020183481E+02	2.00825967467E-01	-9.08195898784E+01
7.62565130261E+10	1.68807857101E-01	-5.08499680593E+01	2.43549573247E-05	1.65569984129E+01	1.16931518776E-04	-1.57853412597E+02	1.95658810389E-01	-8.90970569977E+01
7.62625250501E+10	1.68644677144E-01	-5.26453358368E+01	4.87717529086E-05	-5.70616579929E+00	1.38315230072E-04	-1.73768838566E+02	1.99270773728E-01	-9.03060028086E+01
7.62685370741E+10	1.68390875104E-01	-5.30525839533E+01	5.49519025199E-05	1.61355908877E+02	8.10044161924E-05	1.45701164389E+02	1.95854609112E-01	-8.98955423959E+01
7.62745490982E+10	1.67170935483E-01	-5.13200380515E+01	5.26422960116E-05	1.48050316082E+01	2.30156606330E-05	1.23506841744E+02	1.96694233853E-01	-9.03017723296E+01
7.62805611222E+10	1.69346956612E-01	-5.18960769139E+01	7.35149311838E-05	1.81502775624E+00	1.24064101746E-05	5.08299640049E+01	1.95792224473E-01	-9.11731573367E+01
7.62865731463E+10	1.68435542701E-01	-5.05900465895E+01	2.98820005486E-05	1.52134058041E+02	4.52536335647E-05	-1.77295547601E+02	1.95973094119E-01	-9.17022452344E+01
7.62925851703E+10	1.67314316338E-01	-5.33561642844E+01	8.45082211684E-05	-1.60463265385E+02	4.30262926369E-05	1.62687483654E+02	1.93100166006E-01	-9.06622606976E+01
7.62985971944E+10	1.69404790429E-01	-5.46120502804E+01	2.00132112683E-05	1.11456187624E+02	7.22449000754E-05	1.53166170851E+02	1.92032031957E-01	-9.04516028128E+01
7.63046092184E+10	1.67906978936E-01	-5.58493050380E+01	4.73625577754E-05	-1.70518286456E+02	2.84032428326E-05	-1.61102507197E+02	1.95150853722E-01	-9.24168237550E+01
7.63106212425E+10	1.67084727337E-01	-5.23973052157E+01	2.46101973374E-05	-1.52120870260E+02	2.46425122307E-05	6.37186337055E+01	1.96796597320E-01	-9.39896897470E+01
7.63166332665E+10	1.65626841148E-01	-5.44318110591E+01	6.37022453252E-05	-7.26243500269E+01	3.06585821157E-05	7.44896882811E+01	1.92101953218E-01	-9.23917185840E+01
7.63226452906E+10	1.68901404703E-01	-5.28353311147E+01	3.05581113762E-05	1.43638025058E+02	4.47086196241E-05	8.95655960835E+01	1.91446011615E-01	-9.25252623134E+01
7.63286573146E+10	1.65309612451E-01	-5.26490790056E+01	4.97425254709E-05	-4.35180255276E+01	5.37084915107E-05	1.00130874309E+02	1.91609550048E-01	-9.28189532431E+01
7.63346693387E+10	1.64852506971E-01	-5.34436714893E+01	2.98986536759E-05	-1.35832501193E+01	6.55333440092E-05	6.81494653871E+01	1.95366398697E-01	-9.48645927888E+01
7.63406813627E+10	1.65157050551E-01	-5.32971883103E+01	1.23573592965E-05	4.54012301352E+01	7.78452884595E-05	8.61805572163E+01	1.92902869527E-01	-9.52638362333E+01
7.63466933868E+10	1.68433049568E-01	-5.40494294216E+01	1.20608785878E-04	-5.48073366545E+01	5.72978788515E-05	1.31989037634E+02	1.91552979433E-01	-9.46827789952E+01
7.63527054108E+10	1.64919051228E-01	-5.31498606712E+01	6.36938281869E-05	1.39902790613E+02	5.68519271168E-05	-1.52324365299E+02	1.90650744447E-01	-9.42696739144E+01
7.63587174349E+10	1.63680330823E-01	-5.13498186427E+01	1.23884466014E-04	1.06666449897E+02	3.88550952522E-05	4.41220345501E+01	1.91900168107E-01	-9.49764278057E+01
7.63647294589E+10	1.66327455910E-01	-5.39048781588E+01	6.02926631364E-05	1.12987475664E+02	1.27764436924E-05	1.41896192886E+02	1.91093079452E-01	-9.55295448211E+01
7.63707414830E+10	1.66541511491E-01	-5.47427107792E+01	4.60096010002E-05	1.04851845925E+02	1.82049629053E-05	1.34569260167E+02	1.89833055847E-01	-9.62316859466E+01
7.63767535070E+10	1.65716399113E-01	-5.42940560559E+01	3.67398222847E-05	5.47441185448E+01	4.01113926399E-05	-1.46334699127E+01	1.89036779168E-01	-9.53878516102E+01
7.63827655311E+10	1.65869094463E-01	-5.57929609401E+01	1.01651901482E-04	4.65737026021E+01	7.36386662752E-06	2.82408266921E+01	1.88832076537E-01	-9.59405719564E+01
7.63887775551E+10	1.65745672034E-01	-5.50425249308E+01	6.08703626437E-05	-5.90109272656E+00	8.49377919348E-05	-4.40897250650E+01	1.86968773084E-01	-9.52690047108E+01
7.63947895792E+10	1.65399253698E-01	-5.59859964503E+01	5.84962300361E-05	-1.03926536561E+02	4.70598722954E-06	-1.56751408152E+02	1.87440008559E-01	-9.60594382022E+01
7.64008016032E+10	1.63288327861E-01	-5.69674168913E+01	3.98111414030E-05	-1.64667808744E+02	2.93370182434E-05	-1.35910823131E+02	1.87175144394E-01	-9.72161740720E+01
7.64068136273E+10	1.66021333960E-01	-5.42649077254E+01	5.00853005899E-05	1.55772357564E+02	5.98845036146E-06	3.24195529306E+00	1.87118307254E-01	-9.82747107988E+01
7.64128256513E+10	1.66009614161E-01	-5.67863537544E+01	2.15153304030E-05	6.64608887151E+01	1.68271470309E-05	-5.71122675187E+01	1.88298875920E-01	-9.92077976477E+01
7.64188376754E+10	1.63572408372E-01	-5.54860678533E+01	3.16097931836E-05	3.14694166082E+01	1.84773120144E-05	-1.36640573104E+02	1.85579169500E-01	-9.73602910902E+01
7.64248496994E+10	1.63078324012E-01	-5.53280356320E+01	6.22861594050E-05	5.78438981497E+01	4.46894817717E-05	-8.50528666327E+01	1.84193062219E-01	-9.81924361916E+01
7.64308617234E+10	1.64254069380E-01	-5.55932624572E+01	7.21538768309E-05	5.31209733170E+01	7.86906642731E-05	6.93439098935E+00	1.84424521363E-01	-9.87083314889E+01
7.64368737475E+10	1.64363361201E-01	-5.59637581747E+01	4.18711129124E-05	-2.33411341567E+01	5.39783619688E-05	-4.45165921013E+01	1.86424974041E-01	-9.92952933123E+01
7.64428857715E+10	1.65068741568E-01	-5.70120549160E+01	1.17641824380E-04	3.25418347308E+01	1.44459080369E-05	4.69277051350E+01	1.84252358840E-01	-9.86907267276E+01
7.64488977956E+10	1.64213719924E-01	-5.78752974998E+01	4.21282251604E-05	-1.13229807546E+02	3.25909266630E-05	-1.68245377576E+00	1.84010500921E-01	-9.90366556370E+01
7.64549098196E+10	1.61245117784E-01	-5.55330442023E+01	7.54595424966E-05	-4.39457141990E+01	1.42708556752E-05	-1.33562051739E+02	1.84289649198E-01	-9.98713050624E+01
7.64609218437E+10	1.62862235330E-01	-5.79098179338E+01	4.97311478050E-05	9.63299574840E+01	5.30370174855E-05	-3.08617198526E+01	1.84001726821E-01	-1.00916973805E+02
7.64669338677E+10	1.62236832150E-01	-5.64329692118E+01	7.70016462980E-05	-6.70048245272E+00	7.20850538996E-05	-4.93715396305E+01	1.84334521301E-01	-1.02009254458E+02
7.64729458918E+10	1.63949007622E-01	-5.69231471404E+01	3.87659398003E-05	-2.86062831176E+01	1.78674360691E-05	-6.43001832685E+01	1.83064830202E-01	-1.01066651074E+02
7.64789579158E+10	1.65749342235E-01	-5.88341371909E+01	7.81722976342E-05	-1.24541666565E+02	4.38079111312E-05	-1.47903193648E+02	1.81209324051E-01	-1.00402995702E+02
7.64849699399E+10	1.62744142038E-01	-5.41062423061E+01	4.39746313036E-05	-3.00416897105E+01	3.63702926921E-05	-5.06770520387E+01	1.81983528783E-01	-1.01504359517E+02
7.64909819639E+10	1.62098225781E-01	-5.63893051663E+01	2.88469275480E-05	1.36029173985E+02	7.08942162108E-05	1.02364711805E+02	1.82822815286E-01	-1.03158744880E+02
7.64969939880E+10	1.64149789063E-01	-5.95363566291E+01	2.75468958466E-05	-1.40225325702E+02	8.98614478777E-05	1.32236303711E+02	1.81975072733E-01	-1.03813269684E+02
7.65030060120E+10	1.62219570738E-01	-5.87368497203E+01	2.26073665760E-05	1.58042205938E+01	2.30847335227E-05	1.45590601069E+02	1.80885293433E-01	-1.03652823318E+02
7.65090180361E+10	1.63515483040E-01	-5.80639896990E+01	1.53724038569E-05	3.93669210062E+01	2.46090474440E-05	-1.61723551924E+02	1.77973887131E-01	-1.02239162889E+02
7.65150300601E+10	1.63967081195E-01	-5.95823056110E+01	1.72857291590E-05	9.64846043777E+01	3.87299190462E-05	2.90839952024E+01	1.79888406329E-01	-1.04725052713E+02
7.65210420842E+10	1.62474077792E-01	-6.04339549632E+01	1.98414360776E-05	-6.43841423257E+01	4.47312603640E-05	7.28570983838E+01	1.79327359737E-01	-1.04171532996E+02
7.65270541082E+10	1.59892519084E-01	-5.75915828509E+01	6.06188857982E-05	-9.24074048238E+01	8.33967728564E-05	1.00724353819E+02	1.78409484305E-01	-1.04151299949E+02
7.65330661323E+10	1.63213100010E-01	-5.90702105803E+01	6.45234095617E-05	-6.75054820992E+01	4.88132531037E-05	4.99040606741E+01	1.79167678941E-01	-1.05524147144E+02
7.65390781563E+10	1.62307227088E-01	-5.91417287838E+01	2.17956092556E-05	-1.66771619081E+02	8.16299400217E-05	-1.03101500153E+02	1.77592510669E-01	-1.05998282525E+02
7.65450901804E+10	1.63925552950E-01	-5.87723479706E+01	8.21647027742E-05	-8.39774474806E+01	1.61996249281E-05	3.48448670723E+01	1.75284768196E-01	-1.04993030395E+02
7.65511022044E+10	1.63544381202E-01	-6.01647951718E+01	1.33613137228E-04	-1.72215857702E+02	2.13471248233E-05	-4.11183165093E+00	1.75403607126E-01	-1.05808212066E+02
7.65571142285E+10	1.60264210997E-01	-5.76225541160E+01	1.21267261736E-04	-1.76805117562E+02	1.55224551467E-05	-1.71124736528E+02	1.75162830214E-01	-1.05917368887E+02
7.65631262525E+10	1.63700590723E-01	-6.10997280877E+01	7.38048796124E-05	-1.72025182311E+02	2.29495617902E-05	8.99898783236E+01	1.76340930616E-01	-1.07392764454E+02
7.65691382766E+10	1.63448213819E-01	-6.17383870170E+01	7.46868628030E-05	1.45381582796E+02	2.02467710655E-05	7.78676315046E+01	1.74284975432E-01	-1.08043134093E+02
7.65751503006E+10	1.61485841756E-01	-5.97556410285E+01	5.41995045615E-05	-1.73056497174E+02	2.52222878018E-05	-6.98392618554E+01	1.73422809761E-01	-1.07070070715E+02
7.65811623246E+10	1.60737991319E-01	-5.95187783287E+01	4.16195398577E-05	3.03339377332E+00	7.55658896005E-05	-1.59332010792E+01	1.71963556864E-01	-1.06766062892E+02
7.65871743487E+10	1.61949618180E-01	-6.15456397685E+01	6.21136496076E-05	1.14143821742E+02	7.13947619093E-06	-1.56359575897E+02	1.74565624324E-01	-1.10064633796E+02
7.65931863727E+10	1.60072581020E-01	-5.95132421180E+01	5.20724190178E-05	6.83685085892E+01	6.73753005840E-05	-5.71606262483E+00	1.72654668438E-01	-1.09515044962E+02
7.65991983968E+10	1.62313426340E-01	-6.10769256102E+01	4.28382441079E-05	-1.13199537185E+02	6.22756582904E-05	-1.02980288109E+02	1.71432117332E-01	-1.08903411277E+02
7.66052104208E+10	1.62112806941E-01	-6.23122763054E+01	3.50771845987E-05	7.76741969430E+01	9.70653030958E-05	-1.19845238025E+02	1.69564450729E-01	-1.09044828693E+02
7.66112224449E+10	1.60960577397E-01	-6.27851826683E+01	6.70378306323E-05	1.46519073384E+02	2.86031818526E-05	1.49173462084E+02	1.71114967868E-01	-1.10764748542E+02
7.66172344689E+10	1.59534627927E-01	-6.01038321612E+01	5.73935106232E-05	1.54016541666E+02	7.71133027264E-05	-1.76094221837E+02	1.71525478682E-01	-1.11962619367E+02
7.66232464930E+10	1.60821537497E-01	-6.11898242886E+01	3.38380833591E-05	8.81013345828E+01	3.25316377615E-05	1.67719448355E+02	1.69580743801E-01	-1.11247098215E+02
7.66292585170E+10	1.62365007618E-01	-6.26405212242E+01	6.78900294155E-05	6.44495894509E+01	6.54346338603E-05	1.64190971695E+02	1.67530458145E-01	-1.10779947393E+02
7.66352705411E+10	1.62153077704E-01	-6.31998120680E+01	2.31810440024E-05	1.73965061480E+02	4.72331402580E-05	-1.44584770631E+02	1.66916359245E-01	-1.11839570640E+02
7.66412825651E+10	1.62356474673E-01	-6.36428268334E+01	8.79236083583E-05	7.98141891368E+01	1.18839704100E-04	-1.76949549364E+02	1.65358755176E-01	-1.11210149539E+02
7.66472945892E+10	1.59674819045E-01	-6.17688366414E+01	7.54037791545E-05	3.47304935199E+01	2.79668459473E-05	1.30434532445E+02	1.65664641999E-01	-1.11678055838E+02
7.66533066132E+10	1.61366579484E-01	-6.28064166416E+01	5.56519588855E-05	1.82042274786E+01	2.73257179093E-05	7.29964225979E+01	1.66612923360E-01	-1.13073564615E+02
7.66593186373E+10	1.60014767471E-01	-6.39237835023E+01	3.98846826926E-05	3.20395562738E+01	5.00711029108E-05	1.72388239409E+02	1.65889973141E-01	-1.14855909375E+02
7.66653306613E+10	1.62285839056E-01	-6.47178635003E+01	9.05217791499E-06	-2.33757323517E+01	2.71982849619E-05	1.67593815902E+01	1.65765691667E-01	-1.15230413815E+02
7.66713426854E+10	1.61823849689E-01	-6.40408334924E+01	1.11938113524E-04	-2.19663187773E+01	3.22824344031E-05	-1.44686120511E+01	1.63208850164E-01	-1.14458105175E+02
7.66773547094E+10	1.61124267769E-01	-6.33341377575E+01	3.49656548865E-05	2.48424612749E+01	3.40055769822E-05	1.49819224642E+02	1.61057238876E-01	-1.13953036796E+02
7.66833667335E+10	1.59185255257E-01	-6.25215111551E+01	2.01737338992E-05	-4.26469107045E+01	6.08912277357E-05	1.01604589419E+02	1.63863203704E-01	-1.15475338477E+02
7.66893787575E+10	1.59029697813E-01	-6.43062145828E+01	4.33623966402E-05	6.85595374654E+01	6.68915250809E-05	1.35803707438E+02	1.62741406816E-01	-1.16098936544E+02
7.66953907816E+10	1.59937261565E-01	-6.40383594546E+01	6.68960999377E-05	1.09408767147E+02	1.29971798563E-04	1.20135440124E+02	1.60809413470E-01	-1.14821950908E+02
7.67014028056E+10	1.60473008459E-01	-6.30908897691E+01	4.96002664674E-05	1.78022079649E+00	1.09755669551E-04	6.42634633837E+01	1.60844351879E-01	-1.16367201605E+02
7.67074148297E+10	1.59929763112E-01	-6.42313788501E+01	1.60667846441E-05	6.63407084437E+01	1.40026537022E-04	5.36251164733E+01	1.60555599269E-01	-1.17729909242E+02
7.67134268537E+10	1.59898368022E-01	-6.55951310881E+01	4.26128497821E-05	8.81285221968E+01	1.30976869216E-04	2.30714967302E+01	1.58732994726E-01	-1.17965908413E+02
7.67194388778E+10	1.62072291549E-01	-6.66481480138E+01	5.74877802443E-05	-1.78050919925E+01	1.32453353182E-04	2.67607664322E+01	1.57752179234E-01	-1.17512783632E+02
7.67254509018E+10	1.61384373870E-01	-6.66225967134E+01	4.79104882498E-05	1.07850950592E+01	4.86848207762E-06	-4.56352406774E+01	1.57889042171E-01	-1.17554614527E+02
7.67314629259E+10	1.58739125443E-01	-6.54678168456E+01	4.26213212416E-05	-1.19470060574E+02	3.21960317283E-05	-2.32644009275E+01	1.57551616388E-01	-1.17826952945E+02
7.67374749499E+10	1.59737077449E-01	-6.48738797593E+01	4.11042338615E-05	9.05511625935E+01	1.14494010776E-04	-2.78824739158E+01	1.54938366854E-01	-1.18175095042E+02
7.67434869739E+10	1.60540492761E-01	-6.53607604041E+01	4.44385969846E-05	1.26972228855E+02	1.69145791926E-05	-9.55342046555E+01	1.54179046994E-01	-1.19204863727E+02
7.67494989980E+10	1.57620647468E-01	-6.43372129848E+01	4.36575597396E-05	-5.87460553806E+01	2.61608095653E-05	1.16666158566E+01	1.53837130194E-01	-1.18989923348E+02
7.67555110220E+10	1.57704783584E-01	-6.68016800997E+01	4.98370684577E-05	1.06978455026E+02	2.66094701300E-05	-4.26445847366E+01	1.53994430397E-01	-1.19570536881E+02
7.67615230461E+10	1.58046021436E-01	-6.65367166563E+01	2.26822286591E-05	9.99602596085E+01	5.93792582262E-05	2.80620627074E+01	1.52915081459E-01	-1.20563188931E+02
7.67675350701E+10	1.57944139731E-01	-6.65626167737E+01	5.24104368754E-05	8.59879230497E+01	4.41088204993E-05	-1.51162055999E+02	1.52120323757E-01	-1.21725365024E+02
7.67735470942E+10	1.57226406065E-01	-6.53449518898E+01	7.45530582930E-05	-2.60002357678E+01	9.63218535116E-05	-2.05514833927E+01	1.51050508524E-01	-1.20925665062E+02
7.67795591182E+10	1.58647335112E-01	-6.60782267523E+01	2.02069130305E-05	-1.71956371727E+02	5.87436369540E-05	-1.18739729748E+02	1.49993435547E-01	-1.19791191181E+02
7.67855711423E+10	1.60631105255E-01	-6.77119880337E+01	3.21864369063E-05	-3.64619699637E+01	7.48584727801E-05	-7.54053603265E+01	1.49230656068E-01	-1.21549537230E+02
7.67915831663E+10	1.58468793641E-01	-6.88254000333E+01	6.95635200840E-05	7.78681905170E+01	1.39698999956E-05	-1.11759215186E+02	1.50357466368E-01	-1.23228680775E+02
7.67975951904E+10	1.59010887922E-01	-6.76149251323E+01	4.21758013980E-05	5.14890170097E+01	6.26645177004E-05	-1.02073323366E+02	1.48640659480E-01	-1.23093944977E+02
7.68036072144E+10	1.55322584232E-01	-6.77381568839E+01	2.56737301239E-05	8.59427793714E+01	5.44608500019E-05	1.16139536851E+01	1.47528790394E-01	-1.22388417533E+02
7.68096192385E+10	1.57548912943E-01	-6.76665837217E+01	2.81656675619E-05	-3.44843004174E+01	5.87000363556E-05	-6.53873264977E+01	1.47281498091E-01	-1.23449429517E+02
7.68156312625E+10	1.55965553197E-01	-6.66057914809E+01	4.47691344943E-05	-3.94161217735E+01	9.99699790206E-06	-5.04150956302E+01	1.46583433895E-01	-1.25073277731E+02
7.68216432866E+10	1.55924321000E-01	-6.72442247801E+01	5.19993449089E-05	2.47528251092E+01	8.70615154265E-05	-1.33608581686E+02	1.43784098706E-01	-1.23243805011E+02
7.68276553106E+10	1.56968165472E-01	-6.90565877997E+01	2.97797442730E-05	-6.96483724870E+01	1.07326834680E-04	-1.67467832164E+02	1.43750663123E-01	-1.23567817720E+02
7.68336673347E+10	1.58660710670E-01	-6.97535103817E+01	3.54980174286E-05	-8.74023684855E+01	5.87676463660E-06	7.99598438836E+01	1.43891559560E-01	-1.24598656174E+02
7.68396793587E+10	1.59084625694E-01	-6.92835842244E+01	6.47508902178E-05	1.93281258953E+01	6.36839876778E-05	8.62935501752E+01	1.42538715525E-01	-1.25491044402E+02
7.68456913828E+10	1.56962591394E-01	-6.82605470402E+01	9.97557552613E-05	2.83273149218E+00	1.78078008220E-05	6.64286653661E+01	1.42206129121E-01	-1.25717339399E+02
7.68517034068E+10	1.56405496853E-01	-6.79300274674E+01	3.05382060764E-05	-1.12496799684E+02	7.33282854429E-05	-1.64719432128E+02	1.40471916166E-01	-1.25234587978E+02
7.68577154309E+10	1.53989222590E-01	-6.88118911105E+01	3.19475083136E-05	-1.10625824245E+02	4.95532524985E-05	4.78943122191E+01	1.40707343229E-01	-1.25867592864E+02
7.68637274549E+10	1.57916521134E-01	-6.97172338178E+01	4.14313839592E-05	-1.71943629590E+01	4.46247865235E-05	-1.38748220566E+02	1.40548820087E-01	-1.27276238729E+02
7.68697394790E+10	1.56303285180E-01	-6.93834926810E+01	7.29274433563E-05	5.52685358204E+00	6.81073746272E-05	-6.18651844316E+01	1.40445205530E-01	-1.28520095642E+02
7.68757515030E+10	1.56802698614E-01	-6.91873092863E+01	4.80079223801E-05	-1.08271919857E+02	8.39370636884E-05	-9.88323815866E-01	1.38566391742E-01	-1.28702791916E+02
7.68817635271E+10	1.57288336797E-01	-6.89290454931E+01	3.58753030861E-05	2.69001984100E+01	7.55827797635E-05	-1.31210289083E+02	1.35801501664E-01	-1.27075214121E+02
7.68877755511E+10	1.55774839580E-01	-6.94143604275E+01	2.06438143184E-05	3.26735614290E+01	3.25206847321E-05	-6.75165905476E+01	1.35768474960E-01	-1.27820003398E+02
7.68937875752E+10	1.59439443729E-01	-7.14520482481E+01	3.25193858621E-05	-6.91305007071E+00	2.54397982120E-05	-7.55480020440E+00	1.35621330741E-01	-1.28855606784E+02
7.68997995992E+10	1.56709132886E-01	-7.12042934980E+01	8.70664599172E-05	2.18761631283E+01	7.56513770805E-05	-5.89711221887E+01	1.34927159578E-01	-1.29553933302E+02
7.69058116232E+10	1.58089662448E-01	-7.20176712609E+01	4.27160388562E-05	-2.81550994316E+01	7.91782127797E-05	-3.13182685083E+01	1.33877548025E-01	-1.29367230049E+02
7.69118236473E+10	1.53480765695E-01	-7.01808648981E+01	8.44715073269E-05	-8.87984393020E+01	5.29920545146E-05	-6.82594864153E+01	1.33242112070E-01	-1.29961341212E+02
7.69178356713E+10	1.56936398710E-01	-7.15085650833E+01	9.25132594314E-05	-1.24908798992E+02	9.98993745048E-05	-1.08306360863E+02	1.32204302694E-01	-1.30803266329E+02
7.69238476954E+10	1.56063661232E-01	-7.14729524677E+01	1.27875314209E-04	-7.92994917587E+01	1.03924711090E-04	-1.33692721817E+02	1.31871780441E-01	-1.30706987652E+02
7.69298597194E+10	1.56015839325E-01	-7.03125873017E+01	1.00973109767E-04	-1.67312554543E+02	9.77275518154E-05	-1.60560259448E+02	1.30881593098E-01	-1.30943081741E+02
7.69358717435E+10	1.54795986701E-01	-7.24555159953E+01	1.12290262675E-04	-1.58918860746E+02	1.15525639427E-04	1.74438263939E+02	1.30721160144E-01	-1.31771992495E+02
7.69418837675E+10	1.53659512360E-01	-7.15008713192E+01	1.00845053508E-04	-1.56380938228E+02	8.74024399477E-05	-1.77951096185E+02	1.29322600405E-01	-1.33075482444E+02
7.69478957916E+10	1.56022641105E-01	-7.18909585864E+01	6.64436818677E-05	1.60370261255E+02	1.38342880695E-04	1.57046172775E+02	1.28242071895E-01	-1.33447982855E+02
7.69539078156E+10	1.54319644053E-01	-7.12657912410E+01	7.38589595006E-05	9.79076916670E+01	2.53151052237E-05	-1.39463918995E+02	1.27654607951E-01	-1.32081097673E+02
7.69599198397E+10	1.52885237726E-01	-7.14976852328E+01	4.16211279162E-05	-9.94694514053E+01	8.73983976099E-05	1.04611791875E+02	1.26732441950E-01	-1.31841805150E+02
7.69659318637E+10	1.56125562248E-01	-7.31741707852E+01	4.52872313930E-05	-1.47008281678E+02	7.26561946710E-05	1.60282770785E+02	1.26371583633E-01	-1.35409405944E+02
7.69719438878E+10	1.55015313014E-01	-7.42227010077E+01	3.15906324762E-05	-5.66561267620E+01	9.61828893429E-05	1.45948339011E+02	1.24222892618E-01	-1.32914244070E+02
7.69779559118E+10	1.54842513441E-01	-7.39975590272E+01	6.13261999344E-05	1.73867240494E+02	7.57797972209E-05	1.64773111725E+02	1.22951398254E-01	-1.33964347213E+02
7.69839679359E+10	1.53623387031E-01	-7.32408316888E+01	1.08187968595E-04	1.67300727039E+02	9.41980439662E-05	-1.63504327732E+02	1.21953862138E-01	-1.33618238273E+02
7.69899799599E+10	1.51428911159E-01	-7.16257759051E+01	5.90300997285E-05	-1.46835202946E+02	8.64856916643E-05	-1.69500883614E+02	1.22055234658E-01	-1.35916009734E+02
7.69959919840E+10	1.53172318710E-01	-7.39467213634E+01	7.70850832315E-06	1.61085073119E+02	1.30808822578E-04	1.44754531333E+02	1.21017681757E-01	-1.35745811729E+02
7.70020040080E+10	1.52026616778E-01	-7.31811632131E+01	6.41439353713E-05	1.17580131183E+02	1.92060147510E-04	9.89927108609E+01	1.20703955986E-01	-1.35743150100E+02
7.70080160321E+10	1.53798163968E-01	-7.45398793151E+01	2.03761718084E-05	4.60164277895E+01	1.73303984871E-04	9.67841954837E+01	1.20073910001E-01	-1.37070034897E+02
7.70140280561E+10	1.54363336615E-01	-7.39545410564E+01	5.57642891285E-05	1.03196222689E+02	2.92494907979E-05	3.02123847576E+01	1.19136826784E-01	-1.37437772329E+02
7.70200400802E+10	1.53280883302E-01	-7.41353294363E+01	6.42914523840E-05	1.23976166999E+02	8.13644173778E-05	9.00583512183E+01	1.16845676414E-01	-1.34978961041E+02
7.70260521042E+10	1.52072073844E-01	-7.54270707913E+01	9.46300343453E-05	8.10772271574E+01	4.52777833851E-05	9.90311553818E+01	1.16390136405E-01	-1.37980143370E+02
7.70320641283E+10	1.52273111462E-01	-7.56201044061E+01	7.76267916451E-05	1.17709082935E+02	1.60839808085E-04	9.83400001817E+01	1.15966562606E-01	-1.38996137126E+02
7.70380761523E+10	1.52983784403E-01	-7.49221882026E+01	2.74440624304E-05	1.44901680346E+02	4.77554026497E-05	8.03129167943E+01	1.16293144754E-01	-1.39756149599E+02
7.70440881764E+10	1.51980828112E-01	-7.64539579961E+01	1.07707612695E-04	3.88423655492E+01	1.23813768571E-04	5.38077767795E+01	1.13829975775E-01	-1.37650663526E+02
7.70501002004E+10	1.50622408569E-01	-7.39928232576E+01	7.99165366824E-05	5.05613920692E+01	8.52930853386E-05	4.59816177516E+01	1.13504453469E-01	-1.40039300513E+02
7.70561122244E+10	1.54535372999E-01	-7.66427582932E+01	8.65216720483E-05	3.58315999794E+01	1.45319539531E-04	4.07770809622E+01	1.12642870127E-01	-1.40153528028E+02
7.70621242485E+10	1.51915091473E-01	-7.49510842618E+01	2.97708863712E-05	1.17745063885E+01	8.33802867330E-05	-1.27958259611E+01	1.12196565889E-01	-1.41701891279E+02
7.70681362725E+10	1.51776762160E-01	-7.66495990791E+01	3.38331527446E-05	-1.31669288578E+02	9.81506209019E-05	-3.43670883543E+01	1.11304759947E-01	-1.40921849496E+02
7.70741482966E+10	1.51730589618E-01	-7.62523599697E+01	4.26845798672E-05	-1.31492552532E+02	7.01419495467E-05	2.72931815835E+01	1.10020959768E-01	-1.40459687240E+02
7.70801603206E+10	1.51366908851E-01	-7.59220816948E+01	2.64844992941E-05	-2.89711334264E+01	2.99692427103E-06	-9.63129486899E+01	1.08566492561E-01	-1.40123895541E+02
7.70861723447E+10	1.49922030352E-01	-7.63621215340E+01	3.44115705298E-05	2.21800621359E+01	9.79272520121E-05	-2.99539675447E+01	1.08421197435E-01	-1.41910018722E+02
7.70921843687E+10	1.49797924812E-01	-7.63548092913E+01	5.79067177347E-05	-1.33813023319E+01	1.41937398267E-04	1.44121870656E+01	1.08170975882E-01	-1.43699611122E+02
7.70981963928E+10	1.52335509283E-01	-7.66337385732E+01	3.18081007313E-05	-3.25215214852E+00	5.40209685193E-05	-6.86276301759E+00	1.07438682040E-01	-1.44275948652E+02
7.71042084168E+10	1.52226471963E-01	-7.66274811968E+01	8.58880525039E-05	4.21907583170E+01	1.02939193765E-04	-2.23536641521E+01	1.04560304123E-01	-1.41125634109E+02
7.71102204409E+10	1.52823007490E-01	-7.73438000928E+01	4.60000639927E-05	-2.80608599767E+01	8.16560439996E-05	-2.40909938261E+01	1.03993726254E-01	-1.41812783318E+02
7.71162324649E+10	1.48812560942E-01	-7.50327686303E+01	7.15512818671E-05	-9.55344165341E+00	1.39294683254E-04	-4.89504906959E+01	1.04807990762E-01	-1.45414649520E+02
7.71222444890E+10	1.47877917324E-01	-7.72677303436E+01	3.64740826137E-05	6.13695418138E+00	1.55452379907E-04	-4.89537485489E+01	1.04269381242E-01	-1.46435935845E+02
7.71282565130E+10	1.48746887136E-01	-7.69777049577E+01	5.69978115097E-05	-1.67213005143E+01	1.71726441584E-04	-3.14030042369E+01	1.02692263939E-01	-1.45944415622E+02
7.71342685371E+10	1.48854566208E-01	-7.68167881244E+01	6.42434939807E-05	-1.97195607407E+01	1.49321901176E-04	-5.33523206994E+01	1.00839291888E-01	-1.45135891433E+02
7.71402805611E+10	1.52726393111E-01	-7.83316590839E+01	3.26721805863E-05	-3.55711260820E+01	1.21113109742E-04	-8.53665112319E+01	1.00278464910E-01	-1.45348048161E+02
7.71462925852E+10	1.48421909954E-01	-7.94659268612E+01	1.22614493470E-04	-7.88698405357E+01	1.21784222559E-04	-7.64732162018E+01	9.98907252304E-02	-1.46136530922E+02
7.71523046092E+10	1.48820522595E-01	-7.89150927311E+01	5.88767692015E-05	-1.32399914555E+02	2.00064805677E-04	-1.01029843800E+02	9.83764408452E-02	-1.47216087894E+02
7.71583166333E+10	1.51854648577E-01	-7.96053077371E+01	1.16159158531E-05	-1.44404963469E+02	1.34399625520E-04	-1.45923748465E+02	9.85779503613E-02	-1.47842293590E+02
7.71643286573E+10	1.49991659032E-01	-7.93646104937E+01	4.33939271363E-05	-5.34537853519E+01	5.99003948550E-05	-1.07692433578E+01	9.80612401459E-02	-1.48875987899E+02
7.71703406814E+10	1.47515643065E-01	-7.87961538476E+01	7.78723825680E-05	-7.92840959156E+01	8.51773171505E-06	-1.71172880730E+02	9.40154949400E-02	-1.45709491227E+02
7.71763527054E+10	1.47255219755E-01	-7.90448462407E+01	6.50660123253E-05	-3.95736829157E+01	9.71439208582E-05	-9.92635953603E+01	9.57175211854E-02	-1.48156859070E+02
7.71823647295E+10	1.47167016219E-01	-7.82149385210E+01	5.76946888028E-05	-4.74716053492E+01	5.77979479887E-05	-6.97221557597E+01	9.44492701229E-02	-1.48854695296E+02
7.71883767535E+10	1.47279308196E-01	-7.87661289964E+01	6.64734553207E-05	-8.79552728663E+01	6.93707601163E-05	-1.21513468943E+02	9.31865410888E-02	-1.48483141376E+02
7.71943887776E+10	1.46698990940E-01	-7.97992332435E+01	4.59763865418E-05	-1.37316788448E+02	1.22269180026E-04	-1.59563637893E+02	9.14161711180E-02	-1.47560775286E+02
7.72004008016E+10	1.45658289424E-01	-7.91553628863E+01	2.35894311583E-05	-2.90100003164E+01	5.15307624682E-05	-1.15130531386E+02	9.19890135576E-02	-1.50174122404E+02
7.72064128257E+10	1.46128606002E-01	-7.85917549132E+01	6.26416713858E-05	-7.99512946373E+01	4.25471265912E-05	-1.39830816988E+02	8.91789669751E-02	-1.48019430921E+02
7.72124248497E+10	1.46723382428E-01	-8.03791492075E+01	1.02317661514E-04	-8.39911171394E+01	5.29187640655E-05	-1.39083137459E+02	8.85185762861E-02	-1.49898541335E+02
7.72184368737E+10	1.48472852532E-01	-8.26118819226E+01	7.92278026272E-05	-1.07280064116E+02	7.11829532176E-05	-1.67336230797E+02	8.86888930990E-02	-1.51141195095E+02
7.72244488978E+10	1.47922659672E-01	-8.10060909370E+01	1.43738971937E-04	-1.28443218990E+02	8.43845646600E-05	-1.62697753239E+02	8.79584655205E-02	-1.51186057901E+02
7.72304609218E+10	1.46153662778E-01	-7.94608640724E+01	2.83542916620E-05	-1.65119510203E+02	1.47286167954E-04	1.56223358305E+02	8.60170357995E-02	-1.49970902559E+02
7.72364729459E+10	1.47067155856E-01	-8.10766511085E+01	7.79744818234E-05	-1.38501495851E+02	1.27944628048E-04	9.11785794681E+01	8.50614471467E-02	-1.50261270649E+02
7.72424849699E+10	1.47606686827E-01	-8.20825584688E+01	4.27670233494E-05	1.39010374725E+02	1.27343768775E-05	1.65478714639E+02	8.54310302654E-02	-1.51926054972E+02
7.72484969940E+10	1.47222644938E-01	-8.27924456110E+01	2.73024720188E-05	1.32456567041E+02	2.18533739304E-05	3.28784587234E+01	8.49421194724E-02	-1.53538195474E+02
7.72545090180E+10	1.46453001604E-01	-8.28277748540E+01	3.82461805845E-05	-3.97534523029E+01	3.61525140949E-05	-6.22596807771E+01	8.24999774603E-02	-1.51305752263E+02
7.72605210421E+10	1.44273273567E-01	-8.13783973370E+01	5.21939758628E-05	-9.93385241354E+01	4.39074573767E-05	-1.70125356824E+02	8.16046426174E-02	-1.52716792877E+02
7.72665330661E+10	1.46712832620E-01	-8.18734191546E+01	7.26023675447E-05	-1.65940380561E+02	3.94331412810E-05	1.00659014320E+02	8.07740852116E-02	-1.52436315953E+02
7.72725450902E+10	1.45699364172E-01	-8.18230980110E+01	2.24526263110E-05	1.67911842199E+02	5.76547966460E-05	-1.57724912468E+02	8.04074637148E-02	-1.52926655989E+02
7.72785571142E+10	1.46781774710E-01	-8.21486485811E+01	2.84939674035E-05	1.28325800110E+02	3.69677996485E-05	5.53228404914E+01	8.03220574045E-02	-1.54446730249E+02
7.72845691383E+10	1.44861462339E-01	-8.32546783788E+01	8.36342066834E-05	1.05663197318E+02	2.31794411047E-05	-2.29982868998E+01	7.92281079588E-02	-1.55485075650E+02
7.72905811623E+10	1.44212996677E-01	-8.28432154037E+01	5.32764394610E-05	8.35852606592E+01	3.69928032006E-05	2.07823631550E+00	7.84264958797E-02	-1.55837092408E+02
7.72965931864E+10	1.43574553509E-01	-8.27016247654E+01	7.47693148253E-05	1.48704366507E+02	6.46815457146E-05	1.34360185796E+02	7.71176051791E-02	-1.55885927126E+02
7.73026052104E+10	1.44121165227E-01	-8.28528363640E+01	1.00941443447E-04	1.48076061701E+02	1.67282542128E-05	9.05385242370E+01	7.51589749453E-02	-1.54710654571E+02
7.73086172345E+10	1.43809043376E-01	-8.27688652946E+01	7.39867754845E-05	1.58146054641E+02	6.95842951036E-05	1.18864599857E+02	7.38707964418E-02	-1.54900159774E+02
7.73146292585E+10	1.44586150118E-01	-8.27511569417E+01	1.44123771172E-04	1.11365355090E+02	2.42748342050E-05	-1.14217272280E+02	7.42660124571E-02	-1.57031992454E+02
7.73206412826E+10	1.45163331033E-01	-8.20849474323E+01	4.64877844518E-05	1.04436885609E+02	2.97156713760E-05	1.25392082332E+02	7.38238847707E-02	-1.58423289376E+02
7.73266533066E+10	1.42654226419E-01	-8.34358042571E+01	4.38948819174E-05	8.98564244210E+01	6.51135681368E-05	1.11670031181E+02	7.15753780959E-02	-1.55504318636E+02
7.73326653307E+10	1.44349130398E-01	-8.38827522843E+01	5.77619391346E-05	7.91243827854E+01	8.80582394766E-05	1.66274519927E+02	7.08740830850E-02	-1.56143716418E+02
7.73386773547E+10	1.44620900051E-01	-8.37393834689E+01	3.54529751352E-05	2.12617482927E+01	2.65648825981E-05	-6.34445627056E+01	6.97390761171E-02	-1.57295838142E+02
7.73446893788E+10	1.42707606730E-01	-8.33067189419E+01	5.02926719535E-05	1.45206440055E+02	3.40399462329E-05	8.80719232335E+01	6.91507702443E-02	-1.57457626856E+02
7.73507014028E+10	1.44596904580E-01	-8.55066559240E+01	2.28031595135E-05	4.87062116419E+01	6.11304177352E-05	1.67452920102E+02	6.87119109102E-02	-1.57446560039E+02
7.73567134269E+10	1.41524915204E-01	-8.44405549270E+01	6.20232679009E-05	2.11161344827E+01	5.72479792386E-05	-9.93117363185E+00	6.74417903107E-02	-1.57212313361E+02
7.73627254509E+10	1.40898218257E-01	-8.36243855730E+01	1.69707038172E-05	-2.64137233357E+01	3.30005444652E-05	-1.33026973719E+02	6.62656147533E-02	-1.57719197330E+02
7.73687374749E+10	1.44200230709E-01	-8.39115296669E+01	1.34077388030E-05	6.63100974571E+01	5.67770210041E-05	-5.94000842720E+01	6.57876498882E-02	-1.59381774851E+02
7.73747494990E+10	1.43558876390E-01	-8.46232865953E+01	1.03682102878E-05	9.91250059155E+01	2.79292844203E-05	-8.17827251266E+01	6.49604395030E-02	-1.59101122624E+02
7.73807615230E+10	1.40819432933E-01	-8.59438771770E+01	2.51532211469E-05	7.45440074309E+01	4.62691256628E-05	-1.66709472307E+02	6.45557398703E-02	-1.59632623405E+02
7.73867735471E+10	1.42453754623E-01	-8.58630851554E+01	5.70552681916E-05	7.24203799100E+01	2.62893656889E-05	5.90906490776E+01	6.36489829286E-02	-1.60568261658E+02
7.73927855711E+10	1.42939229363E-01	-8.62553799870E+01	4.16255305997E-05	1.56339758510E+02	6.33017275309E-05	6.11269791174E+01	6.25790840715E-02	-1.61505329885E+02
7.73987975952E+10	1.41590444249E-01	-8.59381236015E+01	7.61486096439E-05	7.00755528482E+01	1.37905273764E-05	1.71315634565E+02	6.15025799961E-02	-1.61502869813E+02
7.74048096192E+10	1.41695743562E-01	-8.41510739770E+01	2.49372510893E-05	-1.26756445084E+02	8.05810821518E-06	9.47318726374E+01	6.16491664560E-02	-1.61938543618E+02
7.74108216433E+10	1.41665698750E-01	-8.52840166418E+01	5.93974407794E-05	-1.20223006975E+02	5.47761473985E-05	1.78886861839E+02	5.96227486233E-02	-1.60786687005E+02
7.74168336673E+10	1.40725552750E-01	-8.50114690706E+01	1.36530135106E-05	9.99227321427E+01	5.18243977789E-05	1.04838749794E+02	5.85586616378E-02	-1.61335861857E+02
7.74228456914E+10	1.40475676651E-01	-8.61787248037E+01	4.89954922912E-05	9.57990546805E+01	6.18326258623E-05	1.09903742725E+02	5.92246525573E-02	-1.62233704414E+02
7.74288577154E+10	1.41354243379E-01	-8.66411458938E+01	6.11761726814E-05	5.89205425114E+01	8.71023907352E-05	1.83373431642E+01	5.81882360427E-02	-1.62972571793E+02
7.74348697395E+10	1.39943198902E-01	-8.70749259052E+01	6.31834752179E-05	1.10673418955E+02	2.50157560046E-05	1.59521093038E+02	5.70599449775E-02	-1.62744252108E+02
7.74408817635E+10	1.40298116582E-01	-8.66846568321E+01	1.05458631211E-04	-3.67726176927E+01	2.17638747152E-05	6.20021085284E+01	5.54715247700E-02	-1.62468802570E+02
7.74468937876E+10	1.39146232352E-01	-8.52861406115E+01	5.34663703005E-05	-1.62162689086E+01	3.62468471073E-05	7.45565909586E+01	5.44799142101E-02	-1.62085988288E+02
7.74529058116E+10	1.39400225800E-01	-8.69179448522E+01	2.89232773969E-05	2.79614030845E+01	3.93162081784E-05	-1.45012015131E+02	5.38346584568E-02	-1.61576264738E+02
7.74589178357E+10	1.38067824217E-01	-8.53926969599E+01	7.77648069958E-05	7.80329867529E+01	5.37642410922E-05	6.14570820433E+01	5.32214669631E-02	-1.62369530588E+02
7.74649298597E+10	1.38394546016E-01	-8.73097771574E+01	1.96137310187E-05	1.20596816321E+02	1.56961412154E-05	-5.72593703247E+01	5.26200507574E-02	-1.64153398151E+02
7.74709418838E+10	1.41668658970E-01	-8.80088075582E+01	6.04120865390E-05	8.23442558610E+01	3.24897479462E-05	8.82590162693E+01	5.26245617033E-02	-1.64992202108E+02
7.74769539078E+10	1.43730846752E-01	-8.94983367801E+01	6.72384859969E-05	8.67408176326E+01	2.05791945217E-05	1.29636024708E+02	5.17592008958E-02	-1.65478994140E+02
7.74829659319E+10	1.38995595290E-01	-8.60564243356E+01	1.09773708027E-04	6.78905597856E+01	8.80193497296E-05	-4.84000586736E+00	5.13650671495E-02	-1.66165132348E+02
7.74889779559E+10	1.39027588006E-01	-8.67560848860E+01	5.69815563795E-05	3.20792505380E+00	8.69416078434E-05	3.13454945778E+01	4.99102899818E-02	-1.65239211732E+02
7.74949899800E+10	1.38212354044E-01	-8.74067929298E+01	1.65714555167E-04	2.00474430315E+01	1.30857424638E-04	2.66582723063E+01	4.86222443464E-02	-1.65522755767E+02
7.75010020040E+10	1.37048174509E-01	-8.84559807997E+01	8.15553566821E-05	4.43395638709E+01	8.55756109133E-05	-1.23826250287E+00	4.77837132293E-02	-1.64314941399E+02
7.75070140281E+10	1.40266436798E-01	-8.92270050714E+01	1.38628149760E-04	-2.21590766334E+01	1.14042352093E-04	-7.53648094595E+01	4.77040618914E-02	-1.66579716918E+02
7.75130260521E+10	1.39544068434E-01	-8.90910024648E+01	8.57978879155E-05	-5.46428423199E+01	1.09141581130E-04	-6.73993293105E+01	4.71586995242E-02	-1.67524998763E+02
7.75190380762E+10	1.38151345147E-01	-8.99352961216E+01	3.94782803080E-05	2.89591264957E+01	8.93666486313E-05	1.79063070776E+02	4.61557095311E-02	-1.67574255094E+02
7.75250501002E+10	1.39670392489E-01	-8.77566225779E+01	6.33916848089E-05	-1.79617732591E+01	5.91905778366E-05	-1.16384923576E+02	4.54552433891E-02	-1.67366785012E+02
7.75310621242E+10	1.36648632159E-01	-8.76314185699E+01	8.40648222569E-05	-5.37163954405E+01	4.36233938594E-05	-4.92933466315E+01	4.43478227030E-02	-1.66637360978E+02
7.75370741483E+10	1.37030555349E-01	-8.98392831920E+01	2.31627619041E-05	-7.54105645121E+01	2.51348617330E-05	-1.73211285735E+02	4.39733446166E-02	-1.66969918687E+02
7.75430861723E+10	1.38624833038E-01	-8.90830009544E+01	3.51138995774E-05	-8.32824575904E+01	4.34752101837E-05	-1.70493734170E+02	4.23144700687E-02	-1.66214368760E+02
7.75490981964E+10	1.39021436927E-01	-8.75384055463E+01	1.01477528762E-04	-3.28307186352E+01	3.75822186307E-05	1.01873847011E+01	4.23125657693E-02	-1.68527765628E+02
7.75551102204E+10	1.38624590860E-01	-8.89590810351E+01	5.91737862697E-05	-1.28848005942E+02	3.39424276439E-05	-9.90546559013E+01	4.21443519507E-02	-1.69752147288E+02
7.75611222445E+10	1.38059103261E-01	-8.98273374768E+01	9.10971743786E-05	-7.31949938614E+01	2.07093960225E-05	3.28188294444E+01	4.14401380867E-02	-1.69614043010E+02
7.75671342685E+10	1.38476181721E-01	-9.07818750557E+01	7.25285273267E-05	-6.24161392764E+01	1.02466170962E-05	-2.78573487446E+01	3.94482646534E-02	-1.68515211282E+02
7.75731462926E+10	1.36144185444E-01	-9.06639695631E+01	9.95645010296E-05	-9.71090721886E+01	1.61047411170E-05	2.89844423060E+01	3.85783577376E-02	-1.68175224010E+02
7.75791583166E+10	1.36051615679E-01	-9.04689008729E+01	6.35591503247E-05	-8.92692680760E+01	3.97811585170E-05	-4.22018568552E+01	3.92669572722E-02	-1.69922760991E+02
7.75851703407E+10	1.35946040831E-01	-8.94441250227E+01	1.22250422015E-04	-1.36951828257E+02	6.89631247533E-05	-1.16933198291E+02	3.79433231758E-02	-1.70695985846E+02
7.75911823647E+10	1.36799359262E-01	-9.02174470698E+01	5.92443260606E-05	1.77826025889E+02	3.97720806164E-05	-1.26441636920E+02	3.72621366444E-02	-1.70581148676E+02
7.75971943888E+10	1.34690382749E-01	-8.92300810614E+01	1.39824044756E-04	-1.54880327450E+02	6.43819268705E-05	-7.31341941897E+01	3.62021869058E-02	-1.69994866197E+02
7.76032064128E+10	1.34405547960E-01	-8.94553033437E+01	1.17789556100E-04	-1.65585528418E+02	3.54646067557E-05	-1.28859106832E+02	3.60559007824E-02	-1.70843633276E+02
7.76092184369E+10	1.35312703114E-01	-8.93494755018E+01	1.05772576521E-04	-1.65304185058E+02	1.57867063493E-05	-1.67327793488E+02	3.54416662948E-02	-1.71730169453E+02
7.76152304609E+10	1.38236800601E-01	-9.09681935675E+01	9.06061956779E-05	1.78714297033E+02	4.51079821841E-05	-6.18478415440E+01	3.45087241931E-02	-1.72643303328E+02
7.76212424850E+10	1.35959031937E-01	-9.16888628835E+01	7.32499165114E-05	-1.41646592200E+02	4.86390143991E-05	-1.69419877662E+02	3.39742380979E-02	-1.72635028979E+02
7.76272545090E+10	1.36339703969E-01	-9.33089629756E+01	1.22620854159E-05	9.24461581078E+01	1.27665825879E-05	6.94014704687E+01	3.32072643108E-02	-1.72140484239E+02
7.76332665331E+10	1.36546027911E-01	-9.01713884640E+01	6.72939950287E-05	-1.77893277674E+02	5.31351419927E-05	-1.78307787370E+02	3.20968104271E-02	-1.71208458057E+02
7.76392785571E+10	1.35443582464E-01	-9.06811645920E+01	4.87009353090E-05	-1.66018137198E+02	6.81446625232E-05	-6.05368566906E+01	3.15896096316E-02	-1.72858711934E+02
7.76452905812E+10	1.35093104830E-01	-8.94777871417E+01	7.94039592174E-05	1.13308146352E+02	5.55298604279E-05	3.11072957290E-01	3.09695166746E-02	-1.74918307015E+02
7.76513026052E+10	1.35624282911E-01	-9.29631935273E+01	7.06101608116E-05	1.55773246475E+02	1.49475558471E-05	1.13925232358E+02	2.98075406646E-02	-1.73923474517E+02
7.76573146293E+10	1.37961721722E-01	-9.28367946883E+01	4.83382229555E-05	-1.50831685380E+02	1.56979156221E-05	-1.55142130507E+02	2.89344143498E-02	-1.72758792458E+02
7.76633266533E+10	1.35417564710E-01	-9.13634826495E+01	4.76416140083E-05	-1.21010323914E+02	5.31465217794E-05	-9.26475954629E+01	2.89709791230E-02	-1.74328432798E+02
7.76693386774E+10	1.35230482311E-01	-9.08787152479E+01	2.81318721850E-05	1.66113398865E+02	9.60320423558E-05	-1.70577424858E+02	2.83783169385E-02	-1.74950479651E+02
7.76753507014E+10	1.34379781328E-01	-9.21731059977E+01	1.03289185362E-04	1.46892847822E+02	1.47341258066E-04	1.57757028215E+02	2.70826458146E-02	-1.74952169009E+02
7.76813627255E+10	1.34402834251E-01	-9.18402409722E+01	5.34743111592E-05	1.02002283807E+02	1.09932748619E-04	1.43527885689E+02	2.63328536867E-02	-1.75626199599E+02
7.76873747495E+10	1.37428871251E-01	-9.12898207374E+01	7.98056748635E-05	1.09481883529E+02	8.17890444194E-05	1.06649953505E+02	2.59159636178E-02	-1.77119847465E+02
7.76933867735E+10	1.34418262821E-01	-9.28395863080E+01	2.04175106554E-05	9.70402519936E+01	4.41527215159E-05	1.18575450117E+02	2.51971412645E-02	-1.77085167413E+02
7.76993987976E+10	1.36384902713E-01	-9.38338428446E+01	5.65219376195E-05	9.58308707128E+01	7.05034224880E-05	9.53546201523E+01	2.43650055291E-02	-1.76077486233E+02
7.77054108216E+10	1.34616111207E-01	-9.33989492248E+01	6.44562235634E-05	4.86417923938E+01	2.61146420777E-05	1.00884015219E+02	2.34851165521E-02	-1.77108588906E+02
7.77114228457E+10	1.36894774283E-01	-9.51528586310E+01	6.30979787924E-05	9.68659481853E+01	2.51126175478E-05	8.87518630212E+01	2.27847306555E-02	-1.77845535784E+02
7.77174348697E+10	1.33685703053E-01	-9.34233198037E+01	3.38800710321E-05	-9.08188587634E+01	2.48191022832E-05	1.24810747396E+02	2.24638999866E-02	-1.78044492197E+02
7.77234468938E+10	1.32818044099E-01	-9.37505051660E+01	7.51241036837E-05	4.95875090721E+01	3.83561745326E-05	-1.70486555644E+02	2.16255277184E-02	-1.78083503112E+02
7.77294589178E+10	1.34651450955E-01	-9.26306736002E+01	7.56738414903E-05	9.26224088723E+01	9.70732422027E-05	1.06974099809E+02	2.05097956299E-02	-1.79773791391E+02
7.77354709419E+10	1.33568105574E-01	-9.50090085390E+01	7.73524247172E-05	3.66192302191E+01	8.01981620735E-05	9.50277641113E+01	1.98053097464E-02	-1.79685740836E+02
7.77414829659E+10	1.32335158476E-01	-9.19716711636E+01	7.08676424509E-05	3.33634083356E+01	4.41263939372E-05	1.66936017661E+02	1.92504461210E-02	1.79504435443E+02
7.77474949900E+10	1.34280319184E-01	-9.53799976398E+01	1.06232891729E-04	-1.93453081848E+01	5.05929226020E-05	9.00289906924E+01	1.84920871142E-02	-1.79375291285E+02
7.77535070140E+10	1.34092231720E-01	-9.47022039206E+01	3.24734173627E-05	-1.62685447766E+01	6.09755831627E-05	6.71115589069E+01	1.78198038566E-02	1.79186581990E+02
7.77595190381E+10	1.33203848253E-01	-9.39513476995E+01	2.73488429883E-05	1.49422277913E+02	1.35540881201E-04	6.38826790626E+01	1.70710288209E-02	1.78016695030E+02
7.77655310621E+10	1.32154384991E-01	-9.47840338294E+01	6.88249612557E-05	4.68847378617E+01	1.00455819277E-04	4.95101754788E+01	1.65081247183E-02	1.77297005634E+02
7.77715430862E+10	1.32841165609E-01	-9.47171329780E+01	2.25455793097E-05	-1.18902233404E+02	7.16933567986E-05	6.59085308499E+01	1.56523905390E-02	1.75948348784E+02
7.77775551102E+10	1.33247108009E-01	-9.34475273158E+01	7.43579607372E-05	-9.50723215202E+01	6.19816189117E-05	7.40588244534E+01	1.46551216180E-02	1.78544864993E+02
7.77835671343E+10	1.34315213671E-01	-9.60342935494E+01	7.03999239018E-05	-4.51091187829E+01	6.37981747906E-05	2.73945549248E+01	1.41438435276E-02	1.75495665749E+02
7.77895791583E+10	1.32453386981E-01	-9.48550002115E+01	5.81633183816E-05	-8.54217642200E+00	4.41747649187E-05	9.20010913255E+00	1.32987510191E-02	1.74976647955E+02
7.77955911824E+10	1.33490299355E-01	-9.58644670276E+01	6.18919517965E-05	-2.94223084835E+01	3.01628080899E-05	2.70691582834E+01	1.25792177607E-02	1.75701152040E+02
7.78016032064E+10	1.31676456008E-01	-9.53361922241E+01	4.18093516552E-05	-1.77773706988E+02	2.05058673882E-05	4.84568951735E+01	1.18136694887E-02	1.75901099146E+02
7.78076152305E+10	1.30824507113E-01	-9.50982893533E+01	1.80677396736E-06	-2.51610239654E+01	3.07597864681E-05	9.07671636113E+01	1.10092611584E-02	1.74140735181E+02
7.78136272545E+10	1.32810737026E-01	-9.57231751632E+01	4.78785087683E-05	-1.56466674699E+02	2.78401573871E-05	5.33908041088E+01	1.02222590732E-02	1.74818129669E+02
7.78196392786E+10	1.33553093596E-01	-9.68899531543E+01	6.92567476245E-05	-1.73826126004E+02	6.91637354712E-05	-3.45816919992E+01	9.59206184601E-03	1.75670064344E+02
7.78256513026E+10	1.33678207872E-01	-9.72058130620E+01	2.72197480809E-05	1.10196852664E+02	8.85582881486E-05	5.03378105492E+01	9.19694891655E-03	1.71534198093E+02
7.78316633267E+10	1.30668610667E-01	-9.73564698241E+01	6.10646918261E-05	3.41366480885E+01	9.53355275347E-05	-1.47034801225E+00	8.22433614569E-03	1.72265905701E+02
7.78376753507E+10	1.31305893591E-01	-9.65163236381E+01	6.00287064086E-05	9.84376087642E+01	7.18045835232E-05	1.04887434544E+01	7.61390126161E-03	1.72525364170E+02
7.78436873747E+10	1.31347384813E-01	-9.57629593074E+01	1.18460221869E-05	8.87873915145E+00	1.52022671454E-04	-3.67679837011E+01	6.67926820936E-03	1.74223733016E+02
7.78496993988E+10	1.33461794413E-01	-9.78078957111E+01	6.28089968623E-05	-1.31093930535E+02	1.04736670509E-04	-4.84694497446E+01	6.68810635406E-03	1.65635688272E+02
7.78557114228E+10	1.30134563735E-01	-9.77660308969E+01	3.74608895033E-05	-2.97409462584E+00	1.05904531920E-04	-6.20816757337E+00	5.36558669614E-03	1.69868393845E+02
7.78617234469E+10	1.30558785771E-01	-9.72454405038E+01	2.52406316264E-05	-4.47138808134E+01	1.26489897126E-04	-1.01173097490E+02	4.94464539546E-03	1.67054602957E+02
7.78677354709E+10	1.30411061105E-01	-9.70306628776E+01	9.95685524522E-05	-1.37931005206E+02	5.04692195142E-05	-1.03912125073E+02	4.16754239932E-03	1.64058240888E+02
7.78737474950E+10	1.29816126380E-01	-9.60025515006E+01	1.98404733729E-05	8.73389880967E+01	5.55384134739E-05	-6.59160756524E+01	3.59520840786E-03	1.60135541667E+02
7.78797595190E+10	1.29134762839E-01	-9.62239705899E+01	1.59801627060E-05	8.43656450238E+01	3.09030996344E-05	-5.12346248220E+01	3.40838442095E-03	1.51755646586E+02
7.78857715431E+10	1.27561875718E-01	-9.72870343864E+01	1.34979526594E-05	8.29304322933E+01	2.00240511899E-05	-1.71724807794E+02	1.47065717956E-03	1.56670037295E+02
7.78917835671E+10	1.30887703476E-01	-9.93900638075E+01	8.60701202330E-05	3.97796051903E+01	4.05359078324E-05	-9.99384947570E+01	1.69881719940E-03	1.35702429802E+02
7.78977955912E+10	1.30350074623E-01	-9.89626636155E+01	3.04396913881E-05	-4.80712583712E+01	8.78896464375E-05	-9.70357272762E+01	8.61022678625E-04	1.12729445437E+02
7.79038076152E+10	1.29363889440E-01	-9.89661893348E+01	9.38965762538E-05	-1.90585699140E+01	1.18041030183E-04	-1.38913187158E+02	5.99101259729E-04	5.55349258937E+01
7.79098196393E+10	1.28978703319E-01	-9.74891861777E+01	3.85437657039E-05	6.51197328446E+01	2.42569941918E-05	1.45005250118E+02	9.97298929065E-04	2.66926634881E+01
7.79158316633E+10	1.28550954172E-01	-9.73124063684E+01	8.00317541988E-05	1.39926069409E+01	4.55031688855E-05	-9.09398562450E+01	1.79639838192E-03	2.22799435697E+00
7.79218436874E+10	1.29027797896E-01	-9.85962145179E+01	3.78236608093E-05	-9.41437838451E+01	6.00481188721E-05	1.45937867025E+02	2.21012909145E-03	3.04396952094E+00
7.79278557114E+10	1.29504222830E-01	-9.93070177137E+01	5.20333752444E-05	4.80564656076E+01	2.65032657855E-05	4.59414994633E+01	2.93247807416E-03	4.25664095702E+00
7.79338677355E+10	1.32604786196E-01	-1.00469718378E+02	7.56440377093E-05	-7.52198202132E+01	8.65192257410E-05	-1.28250429844E+02	3.32724333034E-03	5.58946769732E+00
7.79398797595E+10	1.27466927912E-01	-9.70955633179E+01	6.41550924631E-05	-1.09861622859E+02	6.39064015978E-05	-1.72218356319E+02	3.80227766455E-03	7.17092051092E+00
7.79458917836E+10	1.28651793355E-01	-9.86207486727E+01	1.76631868235E-05	1.04628303974E+02	2.68167243186E-05	1.57572649841E+02	4.95704041055E-03	2.67067957963E+00
7.79519038076E+10	1.27406000862E-01	-9.96695254500E+01	1.51607829717E-05	1.03174991870E+02	4.29523823014E-05	1.48416399028E+02	5.72943370510E-03	-3.39032747074E+00
7.79579158317E+10	1.27779057794E-01	-9.82727791146E+01	2.90959494497E-05	1.79305622796E+02	2.96894869301E-05	1.42228342204E+02	6.33702637516E-03	-4.53306835157E+00
7.79639278557E+10	1.29774519623E-01	-9.98302423069E+01	9.78243818046E-05	-5.74912833097E+01	3.93663808630E-05	6.74054005070E+01	6.74922495654E-03	-1.95209739807E+00
7.79699398798E+10	1.28930819541E-01	-1.01677587877E+02	8.63489283513E-05	-1.12679611198E+02	2.42731978945E-06	-7.45683568469E+01	8.84590312760E-03	-1.05674457566E+01
7.79759519038E+10	1.28423405491E-01	-1.01200015204E+02	3.18817149326E-05	1.79665775193E+02	4.34805733175E-05	5.74620944686E+01	7.78461694029E-03	-3.79386555302E+00
7.79819639279E+10	1.29915662177E-01	-1.01324601984E+02	4.80248337111E-05	-7.29497031363E+01	2.83793645502E-05	1.12239547540E+02	9.75424509292E-03	-1.15363502776E+01
7.79879759519E+10	1.25962714012E-01	-9.84547000844E+01	3.84523437270E-05	1.52640409455E+00	7.81542630098E-05	1.78965713409E+01	9.82542233403E-03	-9.36912731397E+00
7.79939879760E+10	1.28763057567E-01	-1.00775234393E+02	5.77591277836E-05	-6.57846940484E+01	6.85769472346E-05	-4.49046425378E+01	9.84113370712E-03	-9.48326300872E+00
7.80000000000E+10	1.28604393874E-01	-1.01910076103E+02	1.66310756524E-04	-7.29032664251E+01	5.67466817107E-05	-5.59922485850E+01	1.05091192725E-02	-1.10327795426E+01
