# Hz S MA R 50
! CMT, C4420, 21421029, 25.1.2/3
! Date: 8/7/2025 12:42:04 PM
! Data: Format (Calibration Info)
! Freq	S33:Mag/Ang(F2)	S43:Mag/Ang(F2)	S34:Mag/Ang(F2)	S44:Mag/Ang(F2)
7.50000000000E+10	1.95539418337E-01	-1.37345199659E+01	4.63312611950E-05	1.68646470506E+02	9.74060907952E-05	-1.46304013414E+02	2.15394384654E-01	-2.59442351417E+01
7.50060120240E+10	1.96448057615E-01	-1.39203065551E+01	2.78417418215E-05	2.37672085509E+01	5.94258446615E-05	-1.47239135374E+02	2.14787411222E-01	-2.61922560672E+01
7.50120240481E+10	1.99063364433E-01	-1.53694472522E+01	2.75983436612E-05	7.43781859114E+00	8.58118519646E-05	-1.54918249200E+02	2.15848430581E-01	-2.72708774158E+01
7.50180360721E+10	1.98288072760E-01	-1.64345181050E+01	8.58552133713E-05	-4.71709720274E+01	6.36951487021E-05	1.68914481425E+02	2.15124633311E-01	-2.73093934732E+01
7.50240480962E+10	1.96893368765E-01	-1.50758858908E+01	2.42060053879E-05	2.21928208743E+01	1.13381302850E-04	1.72490567949E+02	2.13322683637E-01	-2.75055691721E+01
7.50300601202E+10	1.95932477012E-01	-1.43996509319E+01	4.22683192989E-05	-2.89017036835E+01	1.19752371238E-04	-1.72484585013E+02	2.13084519359E-01	-2.71475469324E+01
7.50360721443E+10	1.96955118299E-01	-1.45285185853E+01	2.34062410013E-05	-5.93107295685E+01	2.42729398771E-05	5.08471670361E+01	2.12388099773E-01	-2.69618107244E+01
7.50420841683E+10	1.97315009024E-01	-1.58649222405E+01	7.04289314139E-05	-1.14912704745E+02	8.38247431630E-05	-1.45760335424E+02	2.12928598249E-01	-2.75296536963E+01
7.50480961924E+10	1.96194317747E-01	-1.85498523081E+01	2.07339725397E-05	-3.77411258695E+01	9.39201094262E-05	-1.10262843520E+02	2.07497024554E-01	-2.68155037259E+01
7.50541082164E+10	1.93870144059E-01	-1.73519953920E+01	4.38570365931E-05	-8.98987144802E+01	1.13698047981E-04	-1.58399925255E+02	2.12943690611E-01	-2.91488816990E+01
7.50601202405E+10	1.95460464718E-01	-1.51485725850E+01	9.42125837348E-05	1.76069680863E+02	1.40947449908E-04	-1.73617412840E+02	2.13318486642E-01	-2.87717072519E+01
7.50661322645E+10	1.97349446359E-01	-1.59062696143E+01	4.81992491440E-05	1.92839494249E+01	1.63485661900E-04	1.62928458123E+02	2.10723013505E-01	-2.84291944063E+01
7.50721442886E+10	1.93911134387E-01	-1.57123850848E+01	3.61150617095E-05	2.83825318520E+01	1.22474583845E-04	1.74134191091E+02	2.13203781038E-01	-3.02982269200E+01
7.50781563126E+10	1.95641392400E-01	-1.86612838457E+01	2.27118397628E-05	-6.68011845828E+01	1.60088253379E-04	1.58575561490E+02	2.11895448036E-01	-2.94458350151E+01
7.50841683367E+10	1.92170618393E-01	-1.60054527006E+01	4.57389099263E-05	-3.60725279740E+01	7.27312516121E-05	1.48477921154E+02	2.13096351661E-01	-2.96972699112E+01
7.50901803607E+10	1.94612869780E-01	-1.66505365439E+01	2.84877739298E-05	8.47682963138E+01	1.38512618136E-04	1.75559837101E+02	2.13458607692E-01	-2.96063586340E+01
7.50961923848E+10	1.97365344924E-01	-1.86402647314E+01	4.05849636874E-05	-9.42757748619E+01	9.09752916538E-05	1.43982443471E+02	2.10004163045E-01	-3.00726201071E+01
7.51022044088E+10	1.93704346245E-01	-1.76511359582E+01	5.41530395631E-05	1.68146795387E+01	1.54594710121E-04	1.26883690945E+02	2.09980890074E-01	-2.96334400865E+01
7.51082164329E+10	1.92192449179E-01	-1.76563084980E+01	5.09734262207E-05	-6.39222997676E+01	1.24312686550E-04	1.28135183902E+02	2.08569788311E-01	-2.92392530851E+01
7.51142284569E+10	1.90526400461E-01	-1.61010596813E+01	1.36935986081E-04	3.07294612410E+01	5.51589482064E-05	9.15607063989E+01	2.10765662981E-01	-3.12600857876E+01
7.51202404810E+10	1.94225486993E-01	-1.86045675505E+01	8.01277330348E-05	-3.37653668376E+01	3.97902235684E-05	1.54823520416E+02	2.11721192431E-01	-3.18735600787E+01
7.51262525050E+10	1.93958806523E-01	-2.04050196868E+01	5.36834342413E-06	4.78871719981E+01	1.26805734538E-04	1.31034909713E+02	2.09705209772E-01	-3.24386891563E+01
7.51322645291E+10	1.93962457519E-01	-1.99564047197E+01	5.28361125639E-05	-7.81450977608E+01	9.24284574516E-05	1.44625168870E+02	2.09679237565E-01	-3.11081108004E+01
7.51382765531E+10	1.91688541142E-01	-1.76610707832E+01	1.19171672887E-04	-5.59203565065E+01	1.47614636368E-04	1.46172545465E+02	2.07595196817E-01	-3.15089024494E+01
7.51442885772E+10	1.90734925579E-01	-1.74799879218E+01	8.59612083756E-05	-6.87541224600E+01	1.32545035964E-04	1.04696502125E+02	2.12139604043E-01	-3.25116239319E+01
7.51503006012E+10	1.90068484810E-01	-1.76314457103E+01	3.97202664309E-05	-8.29286839029E+01	1.16917056123E-04	1.18353094172E+02	2.10310682444E-01	-3.36196462256E+01
7.51563126253E+10	1.89932834742E-01	-1.99691938967E+01	4.00574099762E-05	-1.11462508266E+02	1.10979125351E-04	7.35928648311E+01	2.09691550552E-01	-3.32371078287E+01
7.51623246493E+10	1.94853205804E-01	-2.16844365501E+01	1.02782211837E-05	-3.90267943204E+01	1.84907795500E-04	8.79922739343E+01	2.10100562144E-01	-3.32355404571E+01
7.51683366733E+10	1.88972015881E-01	-1.79870589781E+01	4.16217700227E-05	-1.77823604435E+02	1.52739389144E-04	8.37285605100E+01	2.08215307369E-01	-3.18052455573E+01
7.51743486974E+10	1.94368728155E-01	-2.00411983579E+01	4.47768572698E-05	-1.94173617771E+01	1.92377023853E-04	4.46182527331E+01	2.11198208998E-01	-3.45156116139E+01
7.51803607214E+10	1.91019797548E-01	-1.80258762267E+01	5.78943898397E-05	-2.72933371785E+01	1.66825427977E-04	6.14787763783E+01	2.08562916323E-01	-3.44973792732E+01
7.51863727455E+10	1.94479298389E-01	-2.10340639929E+01	9.05983515606E-05	-1.57561757831E+02	1.41734520346E-04	4.87264229877E+01	2.08283724042E-01	-3.38959347139E+01
7.51923847695E+10	1.90993509776E-01	-2.10799956447E+01	6.27149381404E-05	-1.51740091500E+02	1.24461504884E-04	4.11585481179E+01	2.08450325969E-01	-3.33234808184E+01
7.51983967936E+10	1.90736921129E-01	-1.95139322803E+01	5.55676698231E-05	-1.34252764871E+02	1.23096881966E-04	3.43289756364E+01	2.07486496662E-01	-3.33640700907E+01
7.52044088176E+10	1.94224253591E-01	-2.09085628942E+01	5.74129298286E-05	-1.57781266300E+02	7.90363651557E-05	1.20890378504E+01	2.07740912923E-01	-3.42369481413E+01
7.52104208417E+10	1.91394358984E-01	-2.08445539948E+01	3.73111412544E-05	-1.38446068110E+02	1.06373288946E-04	5.11870144055E+01	2.07667468558E-01	-3.49912547434E+01
7.52164328657E+10	1.92738670572E-01	-2.11194587335E+01	7.25803094001E-05	1.79447793384E+02	1.05960646996E-04	3.55617578439E+01	2.10591939974E-01	-3.65435586339E+01
7.52224448898E+10	1.92561617939E-01	-2.26586569917E+01	1.00703758229E-04	1.23061632490E+02	1.09494719997E-04	4.65868225890E+01	2.06811700743E-01	-3.52473844968E+01
7.52284569138E+10	1.94096937706E-01	-2.10428602345E+01	6.51058884004E-05	1.46547241038E+02	1.28571524020E-04	3.20407698797E+01	2.05540421550E-01	-3.55695541685E+01
7.52344689379E+10	1.90786399091E-01	-2.16383289261E+01	1.19482119944E-04	1.78304987558E+02	1.79386594458E-04	-5.36891080118E+00	2.08605503715E-01	-3.71122773643E+01
7.52404809619E+10	1.93759030043E-01	-2.15853863214E+01	4.36402138836E-05	1.25476039985E+02	2.06750496411E-04	2.59827240151E+01	2.07014132330E-01	-3.59524530840E+01
7.52464929860E+10	1.93250119375E-01	-2.29503864986E+01	1.06767678175E-04	1.08144269702E+02	1.41811317199E-04	-1.49519225412E+01	2.04460499364E-01	-3.51297103669E+01
7.52525050100E+10	1.89468361873E-01	-2.25687501019E+01	4.99699516413E-05	2.59533807817E+01	1.40988479293E-04	-2.30681686108E+00	2.05441297830E-01	-3.69483720507E+01
7.52585170341E+10	1.88700912392E-01	-2.08178654653E+01	4.86593335382E-05	5.68546875734E+01	1.56187053182E-04	-9.77397936733E+00	2.05863806428E-01	-3.66984135734E+01
7.52645290581E+10	1.94117632069E-01	-2.43815822704E+01	2.11618231081E-05	6.29203416276E+01	1.44644370849E-04	-4.17170729640E-02	2.07731290703E-01	-3.74199450863E+01
7.52705410822E+10	1.91311400730E-01	-2.31019499103E+01	6.54200088717E-05	1.19876426253E+02	1.82749661076E-04	-4.76031803113E+01	2.02932652484E-01	-3.65042488613E+01
7.52765531062E+10	1.89241061309E-01	-2.25856978270E+01	8.76666818212E-05	1.20466261003E+02	2.09863994310E-04	-3.79771080211E+01	2.01895360034E-01	-3.68271524797E+01
7.52825651303E+10	1.87331146758E-01	-2.24394517445E+01	7.70526655420E-05	5.23677016700E+01	2.15283778966E-04	-6.31416856445E+01	2.01244418872E-01	-3.65807385629E+01
7.52885771543E+10	1.90577861801E-01	-2.39092438684E+01	5.89301307024E-05	1.39583563127E+02	8.64724314334E-05	-4.45259599033E+01	2.04573022258E-01	-3.79259353313E+01
7.52945891784E+10	1.93057366647E-01	-2.43206226493E+01	8.07788417476E-05	5.78615208961E+01	1.28347547411E-04	-6.78725063112E+01	2.05974107943E-01	-3.84976401886E+01
7.53006012024E+10	1.92045969087E-01	-2.51074637891E+01	3.16913144272E-05	6.81760642433E+01	5.58290646047E-05	-5.75383213723E+01	2.04706770383E-01	-3.86085781994E+01
7.53066132265E+10	1.88691826605E-01	-2.42827889798E+01	3.52628760204E-05	1.76033085940E+01	9.80779660500E-05	-7.26414924417E+01	2.00875344045E-01	-3.75207035203E+01
7.53126252505E+10	1.87488327942E-01	-2.40630797189E+01	8.16573338233E-05	4.66830475325E+01	1.07579916520E-04	-4.23878094076E+01	1.99415293762E-01	-3.82148860366E+01
7.53186372745E+10	1.90974026967E-01	-2.50386872440E+01	2.79716119525E-05	3.04123250772E+00	1.21738764872E-04	-5.17746563413E+01	2.03972807356E-01	-4.02066225483E+01
7.53246492986E+10	1.88976014734E-01	-2.35989781110E+01	6.52860861674E-05	-1.17820455174E+01	1.59831357467E-04	-5.35740305328E+01	2.04803256682E-01	-3.95342031030E+01
7.53306613226E+10	1.90072632487E-01	-2.46268034111E+01	8.75882847477E-05	1.20524076848E+01	1.53136091955E-04	-8.48378872208E+01	2.03190781065E-01	-3.88726825464E+01
7.53366733467E+10	1.88276610430E-01	-2.61834074176E+01	4.43386377473E-05	9.68384620804E+01	1.09044200016E-04	-9.01838056985E+01	1.99889543178E-01	-3.98563964727E+01
7.53426853707E+10	1.88189410493E-01	-2.51067752782E+01	6.51599343920E-05	-1.97510068579E+01	1.45243370268E-04	-9.77008582302E+01	2.00880855679E-01	-3.97401895754E+01
7.53486973948E+10	1.93437209038E-01	-2.65589954985E+01	1.35090972344E-04	-1.95283431792E+01	1.42001700276E-04	-9.25654662545E+01	2.01168935738E-01	-4.02458070291E+01
7.53547094188E+10	1.86392913231E-01	-2.30287937649E+01	5.26824567444E-05	-9.37724311581E+01	1.11232279154E-04	-8.50224699346E+01	2.03643488746E-01	-4.15652594348E+01
7.53607214429E+10	1.88702076635E-01	-2.52949563265E+01	2.22493699397E-05	-1.17585014160E+02	1.13081602257E-04	-1.47339980112E+02	2.03542131775E-01	-4.21996265946E+01
7.53667334669E+10	1.87761625647E-01	-2.48534315671E+01	5.41410358181E-05	-7.48682349854E+01	6.90895136529E-05	-1.52428047549E+02	1.99591914493E-01	-4.08195379274E+01
7.53727454910E+10	1.89417963997E-01	-2.55789022703E+01	5.42131339389E-05	2.16311146526E+01	7.48022892679E-05	-1.17963985459E+02	1.98271354983E-01	-4.01858859302E+01
7.53787575150E+10	1.88221110444E-01	-2.66377236937E+01	1.18591356600E-04	8.93494527830E+00	1.16077217989E-04	-1.10937155408E+02	1.97785666601E-01	-4.03889688802E+01
7.53847695391E+10	1.89114491382E-01	-2.63895686169E+01	8.54225270281E-05	3.82346043336E+01	1.19785794692E-04	-8.72602731989E+01	1.99285942612E-01	-4.14806984313E+01
7.53907815631E+10	1.87375965399E-01	-2.51854782119E+01	1.05652664909E-04	3.87911036805E+00	1.20037152639E-04	-1.15519646603E+02	2.00500698183E-01	-4.32013420497E+01
7.53967935872E+10	1.87434674428E-01	-2.52441369253E+01	6.11736940836E-05	-9.25740466058E+01	1.33578845160E-04	-1.24298622065E+02	2.01455484268E-01	-4.26149927882E+01
7.54028056112E+10	1.90594792369E-01	-2.81939368912E+01	8.73550433230E-05	-3.89062862035E+01	1.45200330328E-04	-1.30037252978E+02	1.99345425805E-01	-4.19178660339E+01
7.54088176353E+10	1.87628916884E-01	-2.74983833251E+01	6.18443234735E-05	-1.04083650507E+02	1.10099125066E-04	-1.55115202410E+02	1.96539302552E-01	-4.14449217349E+01
7.54148296593E+10	1.88911568156E-01	-2.73288906264E+01	4.71208590211E-05	9.75924047514E+01	2.26430439693E-04	-1.53023447978E+02	1.94877401502E-01	-4.24081579650E+01
7.54208416834E+10	1.93774330178E-01	-2.87695516772E+01	2.68367128447E-05	-3.85000072530E+01	1.31123239513E-04	-1.54306030840E+02	1.98041389736E-01	-4.26533275855E+01
7.54268537074E+10	1.89016134796E-01	-2.70676531519E+01	6.53371985158E-05	-5.73871623403E+01	1.28606213371E-04	-1.35348651164E+02	1.99229598746E-01	-4.30089403401E+01
7.54328657315E+10	1.85519901677E-01	-2.62120734909E+01	9.45520198784E-05	-7.21960407667E+01	1.64169603077E-04	-1.38840024054E+02	1.96525072273E-01	-4.25466854517E+01
7.54388777555E+10	1.87553121253E-01	-2.83975020688E+01	1.17500546001E-04	-5.51352466580E+01	1.19749341858E-04	-1.61287113945E+02	1.95883846049E-01	-4.40382582408E+01
7.54448897796E+10	1.85894999636E-01	-2.83960528310E+01	9.92334804046E-05	-6.57349252164E+01	1.79290104733E-04	-1.67356124874E+02	1.96432392919E-01	-4.40730408423E+01
7.54509018036E+10	1.91810970720E-01	-2.95622174107E+01	9.50730528563E-05	-1.33103626851E+02	2.26786676748E-04	1.77971107172E+02	1.95104542636E-01	-4.35646058981E+01
7.54569138277E+10	1.85696282821E-01	-2.62646834450E+01	1.20170392569E-04	-1.42451723117E+02	1.79341169706E-04	1.70722695343E+02	1.96123915462E-01	-4.51319232368E+01
7.54629258517E+10	1.90006018517E-01	-2.85752486864E+01	1.59019795293E-04	-8.53219971433E+01	1.47439017237E-04	-1.78709106501E+02	1.97477276426E-01	-4.54832170394E+01
7.54689378758E+10	1.89860408645E-01	-3.06939217039E+01	7.15237937725E-05	-4.10595973760E+01	1.56228057903E-04	1.73749245232E+02	1.96396622834E-01	-4.44885485141E+01
7.54749498998E+10	1.90483036610E-01	-2.99796373724E+01	1.29001794495E-04	-9.22694538236E+01	2.09669741384E-04	-1.79624585923E+02	1.94748905217E-01	-4.37924500883E+01
7.54809619238E+10	1.84589955339E-01	-2.53962392906E+01	7.79396171190E-05	-1.26742938341E+02	1.95198154297E-04	1.63198097730E+02	1.95737705435E-01	-4.52922714372E+01
7.54869739479E+10	1.89493459414E-01	-2.89958632836E+01	1.64602358360E-04	-1.15713792076E+02	2.22251329201E-04	1.65480803083E+02	1.95907650942E-01	-4.66216527207E+01
7.54929859719E+10	1.86859299316E-01	-2.85541601620E+01	9.44516169934E-05	-1.66979734442E+02	1.81253703169E-04	1.45148431941E+02	1.96528955413E-01	-4.64461248104E+01
7.54989979960E+10	1.85331585645E-01	-2.92077884682E+01	1.09239568618E-04	-1.38824479238E+02	2.03773470968E-04	1.29752250882E+02	1.95386338380E-01	-4.57302674623E+01
7.55050100200E+10	1.87288754774E-01	-2.98014721365E+01	8.60865844022E-05	-1.31075566767E+02	1.36814692318E-04	1.21372748233E+02	1.95739767914E-01	-4.59962427785E+01
7.55110220441E+10	1.88577084908E-01	-2.95374464011E+01	1.33525820602E-04	-1.49199929099E+02	1.62271636957E-04	1.02867041606E+02	1.94764908626E-01	-4.68298856981E+01
7.55170340681E+10	1.89073590144E-01	-3.16195212527E+01	1.19737515910E-04	-1.46606604404E+02	1.19708177410E-04	1.17180902201E+02	1.96150372029E-01	-4.78858376955E+01
7.55230460922E+10	1.88205415010E-01	-3.17244571511E+01	1.10922596016E-04	-1.34891963313E+02	1.94516566915E-04	1.08800297127E+02	1.95566112100E-01	-4.76485260149E+01
7.55290581162E+10	1.86819408037E-01	-3.13580958649E+01	1.46665117775E-04	-1.76995519404E+02	1.94692870171E-04	1.09384183803E+02	1.93587469998E-01	-4.65017777984E+01
7.55350701403E+10	1.87753697525E-01	-3.08559065743E+01	9.28236395321E-05	-1.53890368881E+02	2.35645838415E-04	1.12108137277E+02	1.91163918881E-01	-4.63829916436E+01
7.55410821643E+10	1.85540388319E-01	-2.99310408846E+01	1.62418800494E-04	-1.70433563756E+02	1.15712805026E-04	9.28378216161E+01	1.94672679976E-01	-4.85769135587E+01
7.55470941884E+10	1.86770628572E-01	-3.03464940861E+01	1.64713692097E-04	1.67392495529E+02	2.89630016749E-04	1.01085991793E+02	1.94436716600E-01	-4.91424911524E+01
7.55531062124E+10	1.87761584230E-01	-3.15679985616E+01	1.07511374358E-04	1.44453585739E+02	2.34452892786E-04	8.59710969575E+01	1.94342227274E-01	-4.85830137157E+01
7.55591182365E+10	1.85066899466E-01	-3.21961459965E+01	1.49431707102E-04	1.40060372183E+02	2.83610081754E-04	7.38835982081E+01	1.92421579544E-01	-4.95732326796E+01
7.55651302605E+10	1.83413919940E-01	-3.03590137842E+01	1.31092797127E-04	1.23891519883E+02	1.86457420592E-04	5.45222393157E+01	1.92405148465E-01	-4.88196819878E+01
7.55711422846E+10	1.88210702528E-01	-3.16666299627E+01	5.58531779670E-05	1.04099777915E+02	2.02351981138E-04	3.90331728214E+01	1.94677724022E-01	-4.92002042725E+01
7.55771543086E+10	1.85309767113E-01	-3.11092713683E+01	1.44478228808E-04	1.61549904108E+02	1.92261219306E-04	3.79012095847E+01	1.93395338197E-01	-4.95780124963E+01
7.55831663327E+10	1.82217749490E-01	-3.15957767046E+01	7.30238867817E-05	1.14243314842E+02	1.55714902032E-04	4.70318833457E+01	1.90339534972E-01	-4.87628087756E+01
7.55891783567E+10	1.86491405084E-01	-3.31176456355E+01	9.16462536622E-05	1.46612735948E+02	1.79373280438E-04	4.71379090249E+01	1.92402256926E-01	-5.05465442139E+01
7.55951903808E+10	1.87823776965E-01	-3.44425867576E+01	8.03944614954E-05	8.62674340787E+01	2.05995241778E-04	4.14803052934E+01	1.94591168315E-01	-5.11348039952E+01
7.56012024048E+10	1.89814706012E-01	-3.41468477113E+01	1.01774959403E-04	1.18454958908E+02	1.68962557133E-04	3.46351683511E+01	1.91337850272E-01	-4.91504521512E+01
7.56072144289E+10	1.84235876674E-01	-3.15302413787E+01	1.18748313513E-04	7.96719206983E+01	1.94283442169E-04	2.69121021294E+00	1.89795744866E-01	-5.05073100230E+01
7.56132264529E+10	1.85526260738E-01	-3.30016229129E+01	1.02869959875E-04	1.19515819538E+02	1.44694080451E-04	6.31723852527E+00	1.92270235490E-01	-5.16312008579E+01
7.56192384770E+10	1.84623646616E-01	-3.41315670241E+01	7.70127841007E-05	7.68545606677E+01	1.40775331635E-04	1.61250928602E+01	1.90537391512E-01	-4.99212109714E+01
7.56252505010E+10	1.85365616016E-01	-3.39114736198E+01	1.16738738651E-04	8.74075600835E+01	1.42383558498E-04	2.14971897759E+01	1.91918273172E-01	-5.14914290629E+01
7.56312625251E+10	1.87135306057E-01	-3.37162520069E+01	1.05350149366E-04	6.94793583193E+01	1.87108385602E-04	1.65839422848E+01	1.90131864747E-01	-5.22113892045E+01
7.56372745491E+10	1.83021843253E-01	-3.21099755575E+01	1.43179679840E-04	5.40304787220E+01	2.21837392266E-04	3.31400320425E-02	1.89427320771E-01	-5.09977470492E+01
7.56432865731E+10	1.81944056213E-01	-3.31698032720E+01	8.26986232522E-05	5.56091912563E+01	2.06363448111E-04	1.03822968025E+01	1.91141487362E-01	-5.13814830631E+01
7.56492985972E+10	1.84237551121E-01	-3.41056650247E+01	7.47138765033E-05	4.85162725036E+01	1.59498462184E-04	-8.58122163854E+00	1.90599839066E-01	-5.31017459722E+01
7.56553106212E+10	1.86493781634E-01	-3.42789914012E+01	4.47022213133E-05	1.17746698823E+02	2.27001985940E-04	-2.96516359188E+01	1.90401068784E-01	-5.36677137002E+01
7.56613226453E+10	1.85770664513E-01	-3.31014953408E+01	6.86879290230E-05	1.37789048312E+02	1.67678380482E-04	-3.60914208154E+01	1.88839874869E-01	-5.16708664293E+01
7.56673346693E+10	1.84460246526E-01	-3.34572716733E+01	1.11803052620E-04	9.68842794849E+01	2.16994417291E-04	-2.06471301051E+01	1.90875852749E-01	-5.39261246786E+01
7.56733466934E+10	1.84253859310E-01	-3.45138501254E+01	1.08034901260E-04	4.99631324729E+01	2.01173615037E-04	-1.87645650768E+01	1.89405939504E-01	-5.42418202617E+01
7.56793587174E+10	1.82168901578E-01	-3.36221608650E+01	5.12862207152E-05	2.43840866884E+01	1.41953055186E-04	-3.22441906575E+01	1.86756761286E-01	-5.30977599077E+01
7.56853707415E+10	1.85281980253E-01	-3.58094364151E+01	5.65699032037E-05	5.95529412522E+01	1.94209974838E-04	-4.38708600580E+01	1.90358733084E-01	-5.40438578898E+01
7.56913827655E+10	1.84203334470E-01	-3.45811560810E+01	1.16383047655E-04	6.11302492072E+01	2.36618409745E-04	-6.76314076951E+01	1.88276021467E-01	-5.45703249924E+01
7.56973947896E+10	1.84495538473E-01	-3.47403923945E+01	4.95037050719E-05	5.49618498195E+01	1.96467296673E-04	-7.81213180828E+01	1.86203438814E-01	-5.30970919374E+01
7.57034068136E+10	1.86462855010E-01	-3.44322269061E+01	7.15102593634E-05	8.32473440833E+01	1.91385143414E-04	-6.52223219640E+01	1.86351212478E-01	-5.54869447631E+01
7.57094188377E+10	1.84936851105E-01	-3.62784844916E+01	8.61658712076E-05	6.30282866313E+01	1.70347241973E-04	-7.71763994311E+01	1.86870394678E-01	-5.47750232274E+01
7.57154308617E+10	1.85440064352E-01	-3.62123434412E+01	1.38753805941E-05	-1.11438786090E+01	1.75123791853E-04	-7.61006102425E+01	1.87487684026E-01	-5.41796494239E+01
7.57214428858E+10	1.85118316764E-01	-3.43245408673E+01	2.20265465249E-05	4.95283912267E+00	2.33807263664E-04	-7.18308404117E+01	1.89667510690E-01	-5.62971173420E+01
7.57274549098E+10	1.88986415498E-01	-3.69910983820E+01	2.54996854737E-05	-4.84102879994E+01	2.33864760978E-04	-8.19841719990E+01	1.87049245936E-01	-5.62215143942E+01
7.57334669339E+10	1.85966146535E-01	-3.74191288630E+01	7.77999733299E-05	4.13402907891E+01	1.43874509232E-04	-1.29415587860E+02	1.88350852583E-01	-5.60215624538E+01
7.57394789579E+10	1.81981359183E-01	-3.52311496560E+01	9.02953331964E-05	3.65018205479E+01	1.73430070692E-04	-1.32275807754E+02	1.87458135599E-01	-5.68162147580E+01
7.57454909820E+10	1.84487997477E-01	-3.58768886588E+01	6.75658807834E-05	-3.09336854016E+01	2.00560123107E-04	-1.14174173012E+02	1.85773756454E-01	-5.73406609417E+01
7.57515030060E+10	1.87004789394E-01	-3.64326412673E+01	9.00267631950E-05	4.32546067688E+01	1.92738650598E-04	-1.20061276812E+02	1.88721379836E-01	-5.69517380918E+01
7.57575150301E+10	1.84621762638E-01	-3.59192263766E+01	5.65223123258E-05	2.48571768966E+01	1.82143924378E-04	-9.67890731165E+01	1.85810649149E-01	-5.68783674770E+01
7.57635270541E+10	1.84284604344E-01	-3.74023879740E+01	1.38196708511E-04	-1.72362791283E+01	1.22220478264E-04	-1.20521286614E+02	1.84088154307E-01	-5.82006281694E+01
7.57695390782E+10	1.85912837111E-01	-3.79352934098E+01	6.87123668366E-05	7.01769539845E+00	1.16575456060E-04	-1.39952690773E+02	1.88104983659E-01	-5.72324728894E+01
7.57755511022E+10	1.86501492108E-01	-3.91911480937E+01	1.10053945763E-04	-5.24955098238E+01	2.16508632510E-04	-1.34516283286E+02	1.86298359849E-01	-5.85105078166E+01
7.57815631263E+10	1.83732138145E-01	-3.74066497212E+01	9.36048232100E-05	2.74204260747E+01	1.34868487252E-04	-1.47184625545E+02	1.85025693765E-01	-5.83509654632E+01
7.57875751503E+10	1.82619920480E-01	-3.72883941579E+01	6.77798390254E-05	3.85674191381E+01	1.25861876664E-04	-1.60089499000E+02	1.83604722456E-01	-5.86535955754E+01
7.57935871743E+10	1.86589473917E-01	-3.81901955656E+01	9.00058811381E-05	-1.75226166714E+01	9.41161043404E-05	-1.59242347167E+02	1.85000736666E-01	-5.85688699180E+01
7.57995991984E+10	1.82284018612E-01	-3.89962733100E+01	7.75031092224E-05	-2.74189870356E+01	1.18847290182E-04	-1.48920574926E+02	1.85446684217E-01	-6.02349495071E+01
7.58056112224E+10	1.85436746794E-01	-3.91078536910E+01	7.17928002292E-05	3.72974116223E+01	1.55137299154E-04	1.60634181389E+02	1.84948449657E-01	-6.04899719763E+01
7.58116232465E+10	1.87430003394E-01	-3.95358834000E+01	1.15374345506E-04	2.09484561735E+01	9.34255522166E-05	1.50014310774E+02	1.82913800462E-01	-5.96549245923E+01
7.58176352705E+10	1.82931113614E-01	-3.84356734433E+01	4.82636112162E-05	-3.18049242068E+01	7.58695375299E-05	1.60124396521E+02	1.81871687892E-01	-5.95122587548E+01
7.58236472946E+10	1.83736164802E-01	-3.93316352905E+01	9.76852049604E-05	-2.13438644302E+01	1.37014798501E-04	1.69718242300E+02	1.83540578540E-01	-6.05380703841E+01
7.58296593186E+10	1.84427863849E-01	-4.06854650748E+01	6.75774666178E-05	-3.44351080613E+01	8.21619988955E-05	1.58809319519E+02	1.85269695297E-01	-6.23539089647E+01
7.58356713427E+10	1.84245494821E-01	-4.03270902445E+01	1.34416331415E-04	-3.87792490671E+01	5.17003895136E-05	1.60166515477E+02	1.82329973018E-01	-6.07660594757E+01
7.58416833667E+10	1.81915749331E-01	-3.92119544731E+01	1.63568531507E-04	-4.53816021721E+01	1.16369287813E-06	3.74299618716E+01	1.80375272121E-01	-6.01147685687E+01
7.58476953908E+10	1.81001287427E-01	-3.97202826544E+01	9.90165487292E-05	-8.53483624679E+01	8.84091952060E-05	1.72760170679E+02	1.80672608643E-01	-6.26078023784E+01
7.58537074148E+10	1.84614652465E-01	-4.04116915063E+01	1.44275358324E-04	-4.28997525574E+01	1.18511382708E-04	1.72702414572E+02	1.83872366888E-01	-6.32958081474E+01
7.58597194389E+10	1.85119794014E-01	-4.08350445076E+01	7.70738036376E-05	-7.77631868102E+01	9.42235070635E-05	1.56602368080E+02	1.82035477230E-01	-6.44168550091E+01
7.58657314629E+10	1.83579627589E-01	-4.07258576478E+01	1.08800622009E-04	-1.01923955824E+02	1.21300590313E-04	1.74666783030E+02	1.82610637016E-01	-6.35098968996E+01
7.58717434870E+10	1.80523621131E-01	-4.12706273094E+01	1.61830089746E-04	-9.79978576396E+01	1.72346218530E-04	1.44795970319E+02	1.82095899883E-01	-6.33567071488E+01
7.58777555110E+10	1.80719930234E-01	-3.95060985176E+01	1.35464042789E-04	-1.07553355175E+02	9.16956394652E-05	-1.41054908550E+02	1.82772803494E-01	-6.40651324164E+01
7.58837675351E+10	1.78734088894E-01	-4.03323187080E+01	1.00466281099E-04	-1.48497045888E+02	1.36838150538E-04	1.59227493256E+02	1.80014071689E-01	-6.34324711668E+01
7.58897795591E+10	1.80253152466E-01	-4.01616588555E+01	6.60967964576E-05	-1.13705084136E+02	1.22786708104E-04	1.52860625805E+02	1.79071041778E-01	-6.35187355892E+01
7.58957915832E+10	1.82134435360E-01	-4.27209249315E+01	1.55313262992E-05	-1.15064851673E+02	1.52409633867E-04	1.32538472886E+02	1.78458134374E-01	-6.50135090859E+01
7.59018036072E+10	1.81780286721E-01	-4.13190660041E+01	2.63341021195E-05	-2.41631295586E+01	1.24303366840E-04	1.47642383343E+02	1.78673607821E-01	-6.39693022894E+01
7.59078156313E+10	1.79928019795E-01	-4.01363985029E+01	1.21526663588E-04	-1.14619950608E+02	1.21730808619E-04	1.15136374342E+02	1.80287089310E-01	-6.58864083619E+01
7.59138276553E+10	1.79876371936E-01	-4.18315225533E+01	1.28485644933E-04	-1.46226074761E+02	6.80415764650E-05	1.33700846514E+02	1.79167593652E-01	-6.59525251065E+01
7.59198396794E+10	1.84054331519E-01	-4.26610485130E+01	1.11894731624E-04	-1.65769565257E+02	1.16655089518E-04	1.40432635898E+02	1.77742814491E-01	-6.48368794605E+01
7.59258517034E+10	1.80916823510E-01	-4.07826632126E+01	1.02355532117E-04	-1.60068107195E+02	1.00175298524E-04	1.18177945910E+02	1.78639009409E-01	-6.60887258049E+01
7.59318637275E+10	1.80449653669E-01	-4.13593162608E+01	1.00891128394E-04	-1.30796432298E+02	1.42685937020E-04	1.34068528148E+02	1.78806168721E-01	-6.64550002384E+01
7.59378757515E+10	1.79177414174E-01	-4.26763756264E+01	8.00122647881E-05	-1.49116738104E+02	1.31412034700E-04	1.21554022611E+02	1.76236471140E-01	-6.55592881530E+01
7.59438877756E+10	1.83130492448E-01	-4.29374672465E+01	3.87669225514E-05	-1.65156435167E+02	1.37933915262E-04	8.99527570420E+01	1.77025495714E-01	-6.60119854039E+01
7.59498997996E+10	1.82939675065E-01	-4.24404391276E+01	6.73884293360E-05	-1.34066312329E+02	1.17735929390E-04	7.91982101841E+01	1.76385503894E-01	-6.71923800221E+01
7.59559118236E+10	1.81796447008E-01	-4.22260263321E+01	1.31199703911E-04	-1.62871781056E+02	8.23386460829E-05	9.78782435634E+01	1.75799919317E-01	-6.71875649841E+01
7.59619238477E+10	1.80464541308E-01	-4.31531684428E+01	2.64966759104E-05	-1.57914715121E+02	1.58662211971E-04	1.14469232346E+02	1.75452248686E-01	-6.82415938009E+01
7.59679358717E+10	1.80546215857E-01	-4.23873898353E+01	6.16792412455E-05	1.46505140835E+02	1.50743531901E-04	1.01919622080E+02	1.74777354991E-01	-6.84478337749E+01
7.59739478958E+10	1.83515867844E-01	-4.39030457231E+01	8.34054626152E-05	-1.37522498076E+02	1.98148069752E-04	1.01899958572E+02	1.74507218690E-01	-6.79691315436E+01
7.59799599198E+10	1.82417087942E-01	-4.27281207741E+01	8.08041591412E-05	1.15467210442E+02	1.99866961296E-04	7.19409246253E+01	1.75328963310E-01	-6.80871502948E+01
7.59859719439E+10	1.78099206248E-01	-4.31483658076E+01	7.14847874879E-05	-1.43519817539E+02	2.03292343349E-04	6.18647651007E+01	1.73261025013E-01	-6.89090381985E+01
7.59919839679E+10	1.81881019047E-01	-4.38688313078E+01	1.07669717057E-04	1.75133697834E+02	1.62054767435E-04	5.06119417193E+01	1.75187143585E-01	-7.06855140727E+01
7.59979959920E+10	1.82779514399E-01	-4.36335482262E+01	1.00912778630E-04	-1.39965032998E+02	2.47655596310E-04	4.59542731010E+01	1.70500479045E-01	-6.82146570724E+01
7.60040080160E+10	1.80802652899E-01	-4.38779278670E+01	6.80941742517E-05	1.79310086390E+02	1.52380993621E-04	4.04699570842E+01	1.74094788334E-01	-7.07013383246E+01
7.60100200401E+10	1.80998056507E-01	-4.45070488915E+01	9.92288993398E-05	1.50729638251E+02	1.79954746527E-04	2.96868568444E+01	1.71935009536E-01	-7.09800057170E+01
7.60160320641E+10	1.79326154953E-01	-4.38290795289E+01	1.14918582339E-04	1.25460745053E+02	1.40053924430E-04	3.97341333004E+01	1.73167693874E-01	-7.06660541247E+01
7.60220440882E+10	1.79964345626E-01	-4.52583707823E+01	7.45638661549E-05	1.60248618028E+02	1.27259512640E-04	4.20200227320E+01	1.72115134906E-01	-7.04485637363E+01
7.60280561122E+10	1.80597541629E-01	-4.53448907895E+01	1.01758428049E-04	1.76580068745E+02	1.58799569945E-04	2.99914861420E+01	1.68809977121E-01	-6.99818249880E+01
7.60340681363E+10	1.79278641498E-01	-4.32888026228E+01	1.09539416759E-04	1.66408571598E+02	1.70404264616E-04	3.28338137855E+01	1.68249067658E-01	-7.03888030383E+01
7.60400801603E+10	1.78475017715E-01	-4.30156312924E+01	2.00167692580E-04	1.44202805695E+02	2.16476677661E-04	2.89753170991E+01	1.70612541198E-01	-7.22901128995E+01
7.60460921844E+10	1.79444529968E-01	-4.51920656823E+01	1.40035383059E-04	1.02411122542E+02	2.20253687559E-04	7.93872953558E+00	1.70707404514E-01	-7.26396577831E+01
7.60521042084E+10	1.77732715879E-01	-4.56043946573E+01	1.23805375222E-04	1.15835945190E+02	2.29239936517E-04	1.22110051202E+01	1.67827238419E-01	-7.06403029926E+01
7.60581162325E+10	1.78231097297E-01	-4.51158889701E+01	1.25386163066E-04	1.12416628763E+02	1.91854579754E-04	-8.78949274759E+00	1.70954178637E-01	-7.38795858463E+01
7.60641282565E+10	1.81164319692E-01	-4.70254894854E+01	9.38920089227E-05	9.02400386782E+01	2.16691896322E-04	-1.46474569174E+01	1.69257094101E-01	-7.44374865110E+01
7.60701402806E+10	1.77177977780E-01	-4.40712134437E+01	8.40401359886E-05	1.06863440699E+02	1.78337712002E-04	-1.36880928138E+01	1.68050516371E-01	-7.31213194593E+01
7.60761523046E+10	1.79672122322E-01	-4.83021720147E+01	9.84972729943E-05	9.71857125955E+01	2.33075342402E-04	-2.22444874977E+01	1.65776363824E-01	-7.14249523183E+01
7.60821643287E+10	1.80106937122E-01	-4.57622806429E+01	9.58592619565E-05	7.28560005215E+01	1.81067430815E-04	-2.93597169577E+01	1.67618195069E-01	-7.38273774815E+01
7.60881763527E+10	1.79394986658E-01	-4.62125025978E+01	8.88975903531E-05	6.38119952214E+01	2.17024187709E-04	-5.76617490655E+01	1.67110381232E-01	-7.39234131141E+01
7.60941883768E+10	1.76436117896E-01	-4.69863398003E+01	5.14079760603E-05	4.81030390140E+01	1.83833575697E-04	-5.47387063251E+01	1.66937365566E-01	-7.51494386747E+01
7.61002004008E+10	1.77199876354E-01	-4.66388878421E+01	6.50629565481E-05	9.19422373443E+01	2.16171504337E-04	-7.07727693339E+01	1.65093639065E-01	-7.41768911762E+01
7.61062124248E+10	1.78945997697E-01	-4.61492035314E+01	3.13350200226E-05	7.86326737271E+01	1.79718173202E-04	-6.93541343694E+01	1.62848158381E-01	-7.29066343373E+01
7.61122244489E+10	1.74975948458E-01	-4.62347474876E+01	5.02430043800E-05	-1.08864493345E+01	1.80755092742E-04	-6.24907922176E+01	1.65163247667E-01	-7.58622521261E+01
7.61182364729E+10	1.79265343170E-01	-4.86648558153E+01	3.14944780252E-05	-5.04510471300E+01	1.93268011076E-04	-7.14699674910E+01	1.65767659311E-01	-7.64332655949E+01
7.61242484970E+10	1.74221842667E-01	-4.76450550841E+01	5.29329359736E-05	1.00522562235E+02	1.63508298718E-04	-7.04237472845E+01	1.64863455541E-01	-7.64750582776E+01
7.61302605210E+10	1.75535200622E-01	-4.73097317815E+01	9.99871676347E-05	7.79203026336E+00	1.42098905272E-04	-8.45737116385E+01	1.63088723751E-01	-7.52372305617E+01
7.61362725451E+10	1.75230277213E-01	-4.84520631598E+01	4.58169902725E-05	8.90895701735E+01	2.41035406801E-04	-9.24663477186E+01	1.61453255748E-01	-7.55150455808E+01
7.61422845691E+10	1.77558753287E-01	-4.86669681019E+01	4.68547968705E-05	1.42018762212E+02	2.24175820466E-04	-1.05470781751E+02	1.61161080884E-01	-7.61112693189E+01
7.61482965932E+10	1.73305483129E-01	-4.81837839097E+01	2.07907203165E-05	-3.65152517844E+01	2.19928392940E-04	-1.08164012837E+02	1.63641199777E-01	-7.74514607264E+01
7.61543086172E+10	1.77942802944E-01	-4.91587834664E+01	4.66775097919E-05	-1.69793662485E+02	1.73464054840E-04	-1.23419359051E+02	1.60881708857E-01	-7.56212166372E+01
7.61603206413E+10	1.74336489307E-01	-4.65516105701E+01	3.93218699270E-05	7.80884636142E+01	2.20403726934E-04	-1.36779057878E+02	1.63901441102E-01	-7.84772690829E+01
7.61663326653E+10	1.74284037857E-01	-4.83137763119E+01	9.05393474296E-05	8.03560253091E+01	8.53223515460E-05	-1.13800383029E+02	1.61598549369E-01	-7.80223152725E+01
7.61723446894E+10	1.77013173928E-01	-5.01494600028E+01	3.83595698329E-05	5.66121401189E+01	8.82743978486E-05	-1.03627139526E+02	1.60072308335E-01	-7.74930407309E+01
7.61783567134E+10	1.75888121429E-01	-4.98780882041E+01	3.83955287251E-05	-8.92250402746E+00	1.01336781765E-04	-1.10889465740E+02	1.60138289462E-01	-7.79070637661E+01
7.61843687375E+10	1.73931299528E-01	-4.95328979710E+01	9.41659308901E-05	9.56688276452E+00	2.06051904299E-04	-1.16219637472E+02	1.60856164477E-01	-7.97371209237E+01
7.61903807615E+10	1.74336228283E-01	-4.99843223173E+01	6.28557905904E-05	1.37258257965E+01	1.68670001625E-04	-1.45426401326E+02	1.60182442289E-01	-7.92207552768E+01
7.61963927856E+10	1.74381737201E-01	-4.79972630060E+01	4.89739360887E-05	1.04855479847E+02	2.11325532268E-04	-1.56744706296E+02	1.58159466571E-01	-7.85531236256E+01
7.62024048096E+10	1.71449251345E-01	-4.99644474382E+01	1.33805038266E-04	5.59706999879E+01	1.35743968040E-04	-1.52350402253E+02	1.58778812689E-01	-7.89174574069E+01
7.62084168337E+10	1.71228589801E-01	-4.81122821041E+01	3.96676082735E-05	7.27862111566E+01	1.50932929795E-04	-1.72665710634E+02	1.57303117596E-01	-7.91176008837E+01
7.62144288577E+10	1.72850566579E-01	-4.99742102508E+01	5.99656415295E-05	4.89031669715E+01	9.22106945921E-05	-1.64743209941E+02	1.58111548317E-01	-7.96552346770E+01
7.62204408818E+10	1.74260090272E-01	-5.10836998246E+01	8.11163919623E-05	6.66911749571E+01	1.18437452212E-04	-1.76363801952E+02	1.58946463914E-01	-8.10233468955E+01
7.62264529058E+10	1.74844353323E-01	-5.20405256846E+01	1.15162264341E-05	5.31223092832E+01	1.47122850293E-04	-1.73988467341E+02	1.55208899098E-01	-7.91646809033E+01
7.62324649299E+10	1.72855066774E-01	-5.13256221724E+01	9.75768925472E-06	-2.12320136960E+01	1.21718562195E-04	-1.68647493775E+02	1.57309316108E-01	-8.06042701737E+01
7.62384769539E+10	1.72030016897E-01	-5.01931602193E+01	6.05167777267E-05	-2.78771787402E+01	1.67049664248E-04	1.72496904708E+02	1.56782718549E-01	-8.16823476978E+01
7.62444889780E+10	1.71770423199E-01	-4.98468122519E+01	3.75737357996E-05	9.25984824083E+00	1.51801961920E-04	-1.79110581065E+02	1.56966621101E-01	-8.22486386207E+01
7.62505010020E+10	1.73470518773E-01	-4.93508241504E+01	5.51325043681E-05	-6.05876231486E+01	1.26647343830E-04	1.59939906215E+02	1.56885326216E-01	-8.26907854476E+01
7.62565130261E+10	1.73147677707E-01	-5.09495135135E+01	7.81837459283E-05	4.72574881935E+01	1.58166173946E-04	1.65800315973E+02	1.54433226367E-01	-8.16672753988E+01
7.62625250501E+10	1.72927390569E-01	-5.31198177642E+01	7.27447455728E-05	3.35255617701E+01	1.06310905660E-04	1.54788204873E+02	1.55847877869E-01	-8.19713852169E+01
7.62685370741E+10	1.72490327103E-01	-5.21097025320E+01	4.82498602766E-05	-7.56624987834E+01	1.50317942097E-04	1.70930597665E+02	1.53312526119E-01	-8.17940968324E+01
7.62745490982E+10	1.70948983917E-01	-5.11046885912E+01	6.26391213976E-05	-7.90235951859E+01	2.08300565021E-04	1.62321778911E+02	1.55177383128E-01	-8.28127755574E+01
7.62805611222E+10	1.72877465027E-01	-5.06435256949E+01	4.00884771906E-05	-3.16172261279E+01	1.30417847943E-04	1.32219345075E+02	1.54048949624E-01	-8.36125821340E+01
7.62865731463E+10	1.71961805234E-01	-4.99881693432E+01	3.53096519897E-05	7.06845297624E+01	1.36160272022E-04	1.32900580954E+02	1.53776346730E-01	-8.39936751944E+01
7.62925851703E+10	1.70799286724E-01	-5.20933656994E+01	1.99840375558E-05	1.63317072639E+02	1.21050056698E-04	1.20160024701E+02	1.50571040541E-01	-8.22297681936E+01
7.62985971944E+10	1.72791577923E-01	-5.34457342210E+01	3.88810566772E-05	-1.52419625621E+00	2.11492193835E-04	1.23461082256E+02	1.51058056723E-01	-8.30358453208E+01
7.63046092184E+10	1.71169039861E-01	-5.49860429399E+01	7.37987969385E-05	-2.92766463226E+01	2.01664956408E-04	9.91738946038E+01	1.52749526560E-01	-8.44997735905E+01
7.63106212425E+10	1.71919554477E-01	-5.37662257332E+01	3.81180300090E-05	-5.58239502802E+01	1.59285594437E-04	9.45162169079E+01	1.53888194991E-01	-8.59143639379E+01
7.63166332665E+10	1.68414552205E-01	-5.22729799060E+01	7.71613280190E-05	1.40733118145E+01	9.41119584230E-05	9.23189065993E+01	1.52346730903E-01	-8.58187697237E+01
7.63226452906E+10	1.72509521122E-01	-5.22912928220E+01	5.62710824205E-05	-1.14187332182E+02	1.35655119882E-04	1.12657333176E+02	1.49191062784E-01	-8.43329064117E+01
7.63286573146E+10	1.68879151987E-01	-5.19520790498E+01	1.63595718776E-04	2.66320844111E+01	1.99497551401E-04	8.25178726369E+01	1.49689410469E-01	-8.50476483856E+01
7.63346693387E+10	1.68877045087E-01	-5.41088632662E+01	9.11569348077E-05	1.15232130987E+00	1.24243549341E-04	5.61832909128E+01	1.52642514228E-01	-8.71344322624E+01
7.63406813627E+10	1.69173462673E-01	-5.39037403656E+01	1.28531925837E-04	-3.19065926607E+01	9.09167736030E-05	5.89039408924E+01	1.49302000342E-01	-8.69641890598E+01
7.63466933868E+10	1.71300264859E-01	-5.13931963446E+01	9.94232656803E-05	-7.87761448075E+00	1.00215309649E-04	3.91364578338E+01	1.48831512457E-01	-8.65885787749E+01
7.63527054108E+10	1.68927597071E-01	-5.37188331511E+01	4.43039699756E-05	-4.97012446958E+01	1.14093298635E-04	8.71368096330E+01	1.49775320910E-01	-8.73318322386E+01
7.63587174349E+10	1.67698579883E-01	-5.33175338522E+01	3.51952526193E-05	-5.94265084804E+01	1.45356274700E-04	5.47758216525E+01	1.48665657894E-01	-8.67381936688E+01
7.63647294589E+10	1.68884992915E-01	-5.24735534902E+01	9.99138094638E-05	-4.99770838068E+01	1.09189844181E-04	4.92821612249E+01	1.46849003892E-01	-8.66805365722E+01
7.63707414830E+10	1.69069193920E-01	-5.33230657766E+01	1.20884785551E-04	-4.30700444423E+01	1.14506794739E-04	5.87658597618E+01	1.47095677998E-01	-8.83689576998E+01
7.63767535070E+10	1.69234075218E-01	-5.47723941483E+01	1.64631679195E-04	-2.78260856936E+01	9.49499613318E-05	2.84212725909E+01	1.48403430800E-01	-8.89226175282E+01
7.63827655311E+10	1.68368399134E-01	-5.55221130933E+01	1.10700060143E-04	-8.82973314268E+01	2.69848127867E-05	-4.17120455905E+01	1.47577980920E-01	-8.91848124685E+01
7.63887775551E+10	1.67831741434E-01	-5.35798591033E+01	9.34364196036E-05	-6.48029622597E+01	9.26172873574E-05	-1.06014422510E+01	1.45173735890E-01	-8.77393883495E+01
7.63947895792E+10	1.66961644501E-01	-5.36363514216E+01	7.78503312339E-05	-1.06264254990E+02	6.82162987915E-05	2.51138591373E+01	1.45213085573E-01	-8.83222674336E+01
7.64008016032E+10	1.64234781054E-01	-5.44173896761E+01	7.78716299263E-05	-4.43010645976E+01	8.35269338374E-05	1.66435038613E+01	1.45032491732E-01	-8.96637399449E+01
7.64068136273E+10	1.69503615612E-01	-5.58176175869E+01	1.44369166114E-05	3.56422954741E+01	1.11985465963E-04	3.93958384611E+01	1.43059306441E-01	-8.93836425026E+01
7.64128256513E+10	1.68177341810E-01	-5.68427598529E+01	1.01865375888E-04	-1.24544852262E+02	1.27944533297E-04	1.60600003766E+01	1.45778096531E-01	-9.21085616324E+01
7.64188376754E+10	1.65484336826E-01	-5.38046101944E+01	1.75444090169E-04	-1.05126772920E+02	5.42906890803E-05	1.40413607609E+01	1.42935634041E-01	-8.97319570387E+01
7.64248496994E+10	1.65454793571E-01	-5.40169463671E+01	1.22405951489E-04	-1.18760516699E+02	6.12983102990E-05	-1.61997425463E+01	1.41856361004E-01	-9.07312845134E+01
7.64308617234E+10	1.66754285836E-01	-5.52450211011E+01	1.01047622454E-04	-9.37588537369E+01	7.66447418591E-05	-6.69174434926E+00	1.42090177322E-01	-9.11139797635E+01
7.64368737475E+10	1.67825202089E-01	-5.67896364147E+01	1.57422031140E-04	-1.13973425919E+02	8.29935066124E-05	-2.91465792525E+01	1.43733466390E-01	-9.24017365624E+01
7.64428857715E+10	1.68107505319E-01	-5.71853638552E+01	7.09291439730E-05	-1.28852600846E+02	1.38607356153E-04	-4.43687880957E+01	1.42693212519E-01	-9.23116642267E+01
7.64488977956E+10	1.66588468283E-01	-5.76411451650E+01	6.68425567720E-05	-1.29450019039E+02	9.85391290191E-05	-5.01981093419E+01	1.41745884973E-01	-9.19705798677E+01
7.64549098196E+10	1.63208744233E-01	-5.44136100240E+01	1.36905172683E-04	-1.29088865468E+02	8.68249082859E-05	-5.13188495104E+01	1.41009180352E-01	-9.22482434917E+01
7.64609218437E+10	1.62937263994E-01	-5.44322453598E+01	1.31887964644E-04	-1.49795231291E+02	4.42357758396E-05	1.55076370388E+01	1.39689210902E-01	-9.24454167579E+01
7.64669338677E+10	1.65005857335E-01	-5.65874911041E+01	1.24690298662E-04	-1.40686352635E+02	7.30387623045E-05	-7.98493241630E+01	1.39943577970E-01	-9.41265664130E+01
7.64729458918E+10	1.65638826101E-01	-5.61128952530E+01	4.15636821996E-05	1.66862819473E+02	9.05800256305E-05	1.78892598465E+01	1.40454191125E-01	-9.45739265559E+01
7.64789579158E+10	1.65976262787E-01	-5.57509106499E+01	4.92863899085E-05	-1.18920675151E+02	8.81547732684E-05	-3.10206638486E+01	1.39128003753E-01	-9.41818820566E+01
7.64849699399E+10	1.66025268077E-01	-5.61706043133E+01	9.13250992457E-05	1.63766822876E+02	1.18742719615E-04	-7.72761741397E+00	1.38117884816E-01	-9.36445319504E+01
7.64909819639E+10	1.64833415417E-01	-5.68337841288E+01	1.07950176440E-04	-1.38286397450E+02	1.06187654287E-04	-4.39679696820E+01	1.37879066453E-01	-9.51296426779E+01
7.64969939880E+10	1.65770252052E-01	-5.83220414092E+01	7.43525413305E-05	-1.45637524688E+02	1.02416007590E-04	-2.91354318771E+01	1.36057242235E-01	-9.49569855042E+01
7.65030060120E+10	1.64968657385E-01	-5.88542620314E+01	1.11872747837E-04	-1.77454755299E+02	7.38899863913E-05	-9.72609344991E+00	1.35822735190E-01	-9.51824765808E+01
7.65090180361E+10	1.65018015265E-01	-5.62735692570E+01	1.12618121037E-04	1.68474234366E+02	2.44662216402E-05	-3.51206512381E+01	1.35158548841E-01	-9.55655271883E+01
7.65150300601E+10	1.66028116795E-01	-5.85058230249E+01	8.33028783926E-05	-1.67504093099E+02	3.84391027661E-05	-7.24798844379E+01	1.35274231421E-01	-9.67967423374E+01
7.65210420842E+10	1.62946095396E-01	-5.70104431717E+01	1.12602067141E-04	1.61712139682E+02	4.20850905716E-05	-1.11727572906E+02	1.35721076042E-01	-9.74782284793E+01
7.65270541082E+10	1.63509949399E-01	-5.80022885615E+01	1.81435539036E-04	1.74612255907E+02	8.55650003309E-05	-4.53374342081E+01	1.33778682878E-01	-9.63555432064E+01
7.65330661323E+10	1.66598178991E-01	-5.93990700954E+01	2.45025054296E-05	1.10372563935E+02	8.85803717843E-05	-7.02298284938E+01	1.34111366648E-01	-9.79394723575E+01
7.65390781563E+10	1.66144084681E-01	-5.94521029022E+01	1.29465971254E-04	1.46902753828E+02	1.54794069915E-04	-9.23707563749E+01	1.32507028776E-01	-9.83215007514E+01
7.65450901804E+10	1.65763252373E-01	-5.75295748060E+01	1.08066583859E-04	1.54488751096E+02	1.24441672338E-04	-6.49405787894E+01	1.31381933653E-01	-9.78954847771E+01
7.65511022044E+10	1.63519190450E-01	-5.74912934133E+01	1.06718545660E-04	1.54282137099E+02	1.21066337769E-04	-8.40675987711E+01	1.30124808929E-01	-9.76295732206E+01
7.65571142285E+10	1.63760201968E-01	-5.90684734829E+01	9.47347909024E-05	1.77229881845E+02	5.89349436443E-05	-8.56131225625E+01	1.31107175453E-01	-9.87888434680E+01
7.65631262525E+10	1.63717783100E-01	-5.86797888130E+01	9.18418120527E-05	1.59268495391E+02	8.26635443573E-05	-6.91899443226E+01	1.31725465464E-01	-1.00421740845E+02
7.65691382766E+10	1.63138172531E-01	-5.88373254732E+01	8.23764846004E-05	1.25218355852E+02	2.02990183518E-04	-9.27773683077E+01	1.29283510046E-01	-1.00345260057E+02
7.65751503006E+10	1.64775401968E-01	-6.09265902711E+01	8.99475657259E-05	1.53804280602E+02	1.41170385487E-04	-1.10894929475E+02	1.28753934344E-01	-9.98435927114E+01
7.65811623246E+10	1.63737556009E-01	-5.99060819545E+01	1.40582775269E-04	1.29674744584E+02	6.35264626011E-05	-1.54252422840E+02	1.26993401602E-01	-9.88904330088E+01
7.65871743487E+10	1.60820376442E-01	-5.71659672687E+01	1.22391466597E-04	1.19520660122E+02	6.29042884745E-05	-1.20529092647E+02	1.27898842297E-01	-1.01472303950E+02
7.65931863727E+10	1.61150001611E-01	-5.79850796709E+01	1.00388246771E-04	8.35273152227E+01	4.35719108397E-05	6.39566285704E+01	1.27270397406E-01	-1.02094083727E+02
7.65991983968E+10	1.64238492737E-01	-6.09602680783E+01	1.03180707769E-04	7.54091432313E+01	5.88553907322E-05	-1.20157438194E+02	1.26327553472E-01	-1.01654209175E+02
7.66052104208E+10	1.61579147135E-01	-5.93883619468E+01	4.92565567967E-05	1.26750225800E+02	1.78594342441E-04	-8.59219845772E+01	1.23986622251E-01	-1.00512859983E+02
7.66112224449E+10	1.60566743982E-01	-6.04326935441E+01	8.26053084695E-05	7.74663772134E+01	1.23443625357E-04	-8.21986718644E+01	1.25356986147E-01	-1.03058799358E+02
7.66172344689E+10	1.62432839707E-01	-6.09166279118E+01	7.32948788917E-05	7.93749086259E+01	1.34765667525E-04	-1.13127530383E+02	1.24116239351E-01	-1.02100674870E+02
7.66232464930E+10	1.63054177432E-01	-6.12411709270E+01	1.07391289169E-04	5.38420635975E+01	1.64694243766E-04	-1.34828325774E+02	1.23676099098E-01	-1.03154832595E+02
7.66292585170E+10	1.61231803210E-01	-5.95916842823E+01	2.41314354988E-05	1.10699964919E+02	1.78838659124E-04	-1.39620362333E+02	1.22661275415E-01	-1.03697323400E+02
7.66352705411E+10	1.60855375514E-01	-6.02758595397E+01	9.91411281895E-05	8.45180917803E+01	1.29504490918E-04	-1.70967343978E+02	1.21502732127E-01	-1.03695665568E+02
7.66412825651E+10	1.62089574187E-01	-6.24270741211E+01	5.20464858640E-05	1.25437642199E+02	1.40213700875E-04	-1.53372812030E+02	1.19962394002E-01	-1.02496941455E+02
7.66472945892E+10	1.59520051953E-01	-6.07970528835E+01	7.58528060962E-05	6.63416461904E+01	1.93426382076E-04	-1.75175093507E+02	1.19963151408E-01	-1.02934707047E+02
7.66533066132E+10	1.59681676163E-01	-6.04359834826E+01	6.56936300682E-05	9.84046788752E+01	5.84341981964E-05	1.77785351773E+02	1.20244911121E-01	-1.04293494155E+02
7.66593186373E+10	1.57891882658E-01	-6.12091089622E+01	9.11531653856E-05	5.77158168704E+01	1.21034486742E-04	-1.68908686800E+02	1.19208913115E-01	-1.05476193991E+02
7.66653306613E+10	1.62144204617E-01	-6.36526600013E+01	1.33098927402E-04	2.28488844043E+01	1.43161621692E-04	1.75546139022E+02	1.18881421300E-01	-1.05286238155E+02
7.66713426854E+10	1.62183392936E-01	-6.34546159509E+01	5.81668527610E-05	2.61345610436E+01	7.34693776372E-05	1.60206220773E+02	1.16929999270E-01	-1.04199116968E+02
7.66773547094E+10	1.59217920295E-01	-6.06430096582E+01	8.72559657279E-05	2.05630480575E+01	1.03295836945E-04	1.46986915503E+02	1.16465166180E-01	-1.06153349860E+02
7.66833667335E+10	1.57750772350E-01	-6.02777943699E+01	6.91489065632E-05	2.56077492148E+01	5.97595785567E-05	1.57618242024E+02	1.17548595310E-01	-1.06606987545E+02
7.66893787575E+10	1.60288370958E-01	-6.42024626928E+01	9.44985482925E-05	3.09975949722E+01	1.07803729149E-04	-1.60342081335E+02	1.15989158589E-01	-1.06169546163E+02
7.66953907816E+10	1.60049878695E-01	-6.31288895721E+01	2.33528773757E-05	1.28293927882E+02	1.84608499226E-04	-1.79744522732E+02	1.15631830529E-01	-1.06268662795E+02
7.67014028056E+10	1.59746336097E-01	-6.21406665025E+01	1.07774069644E-04	3.26585812148E+01	1.92901533511E-04	1.61981410629E+02	1.14964641018E-01	-1.07152585251E+02
7.67074148297E+10	1.58462580110E-01	-6.20159664134E+01	1.00074167026E-04	3.27208101984E+01	1.93805782642E-04	1.26504141133E+02	1.14406058760E-01	-1.07736343167E+02
7.67134268537E+10	1.57564340297E-01	-6.26317343831E+01	4.48796685474E-05	7.44907122369E+01	9.19364201139E-05	1.24863623194E+02	1.12984825308E-01	-1.08160327671E+02
7.67194388778E+10	1.60630588548E-01	-6.47550310009E+01	4.73516593460E-05	1.81687167235E+01	1.41275731151E-04	1.18295468874E+02	1.12139020015E-01	-1.07738385713E+02
7.67254509018E+10	1.60011281859E-01	-6.47984688733E+01	1.25699694130E-04	2.15425277683E+01	8.19253094313E-05	1.21338809958E+02	1.11974211890E-01	-1.07463823155E+02
7.67314629259E+10	1.57637625669E-01	-6.40071171541E+01	1.14061289002E-04	-1.62510305390E+00	6.36100126740E-05	9.21973023437E+01	1.12089921621E-01	-1.08682670991E+02
7.67374749499E+10	1.58372568749E-01	-6.30803270680E+01	6.53531057699E-05	-5.52950383783E+00	8.03287344717E-05	1.43690092511E+02	1.10128472835E-01	-1.09342734138E+02
7.67434869739E+10	1.56794951005E-01	-6.14158954163E+01	1.23959624402E-04	1.10302038006E+01	1.79835901110E-04	1.42963208470E+02	1.09561067634E-01	-1.09392377564E+02
7.67494989980E+10	1.56939796348E-01	-6.31754839973E+01	5.40447671034E-05	-4.70851328362E+01	1.38213650929E-04	1.41124138794E+02	1.09161130359E-01	-1.10056357141E+02
7.67555110220E+10	1.56229874060E-01	-6.50652582660E+01	5.83066576287E-06	-1.15796631657E+01	2.09436253474E-04	1.21416658051E+02	1.09072491857E-01	-1.09990243145E+02
7.67615230461E+10	1.57761857340E-01	-6.55781702341E+01	4.87374362648E-05	2.57734104238E+01	1.82705217472E-04	9.94497731073E+01	1.07900320646E-01	-1.10743622638E+02
7.67675350701E+10	1.56141829882E-01	-6.43902265934E+01	4.61364023140E-05	3.89948231571E+01	2.24737246825E-04	8.46946565326E+01	1.06786045271E-01	-1.12271639483E+02
7.67735470942E+10	1.55907572918E-01	-6.35944815152E+01	5.18451607518E-05	6.80644062332E+01	1.80520893160E-04	9.13789943649E+01	1.06098987744E-01	-1.11234254647E+02
7.67795591182E+10	1.58703427907E-01	-6.51440300419E+01	4.31584744513E-05	-2.82389208252E+01	2.69211506742E-04	6.90712025631E+01	1.05621989804E-01	-1.10633182794E+02
7.67855711423E+10	1.56754096279E-01	-6.38255399677E+01	7.64193185599E-05	-1.40047289746E+01	1.77455243508E-04	6.71543247800E+01	1.04817863411E-01	-1.11299913357E+02
7.67915831663E+10	1.56034572028E-01	-6.63197298834E+01	5.45574810827E-05	-2.53675413179E+00	2.11771612425E-04	4.93395228647E+01	1.05267903892E-01	-1.13030092063E+02
7.67975951904E+10	1.55805412633E-01	-6.44968014605E+01	1.41089123066E-04	4.67546382663E+00	2.34289493040E-04	4.63430408073E+01	1.03926991245E-01	-1.13092356493E+02
7.68036072144E+10	1.53686907385E-01	-6.56295047110E+01	1.42910717229E-04	4.99946738636E+00	2.13679653143E-04	5.25903083081E+01	1.03207016636E-01	-1.13705966374E+02
7.68096192385E+10	1.56385647835E-01	-6.62115241464E+01	1.26653176718E-04	-5.42672607318E+00	1.95833973284E-04	2.13461151808E+01	1.02535186898E-01	-1.14143557107E+02
7.68156312625E+10	1.55809976682E-01	-6.59021583661E+01	1.45903506690E-04	-2.36376518956E+01	1.50285880863E-04	3.34125789305E+01	1.01185066256E-01	-1.12893153598E+02
7.68216432866E+10	1.54633407151E-01	-6.59253494848E+01	1.32465941414E-04	-3.41694889221E+01	1.42337559982E-04	3.17734487129E+01	1.00296422845E-01	-1.14976050517E+02
7.68276553106E+10	1.54387431247E-01	-6.63500437748E+01	5.41654997816E-05	-6.18563145849E+01	1.39346196186E-04	1.48127826140E+01	1.00050821481E-01	-1.14599525250E+02
7.68336673347E+10	1.55442757183E-01	-6.70523504973E+01	6.28744306092E-05	-6.60408646210E+01	1.45404949696E-04	-5.22686617214E+00	9.95654181004E-02	-1.13391807581E+02
7.68396793587E+10	1.56406595237E-01	-6.66075252683E+01	4.01552072719E-05	-1.01080795778E+02	2.09619788486E-04	-1.18111326287E+01	9.85348119884E-02	-1.15353463010E+02
7.68456913828E+10	1.55337854707E-01	-6.63741197569E+01	5.41222940488E-05	-8.15977899655E+01	1.80193873144E-04	-1.45963115843E+01	9.82201171939E-02	-1.16826039667E+02
7.68517034068E+10	1.54944130669E-01	-6.64878916167E+01	6.53185672868E-06	1.19196955657E+01	1.70403943885E-04	1.02340666942E+01	9.66717175139E-02	-1.16294053780E+02
7.68577154309E+10	1.53438278606E-01	-6.85454835895E+01	1.07336215268E-04	-8.13942845077E+01	1.62671940646E-04	-2.24902347101E+01	9.64492820337E-02	-1.15673951120E+02
7.68637274549E+10	1.57373407705E-01	-6.94273743445E+01	6.07908081807E-05	-1.02495684753E+02	1.10511709551E-04	-2.29193486903E+01	9.60814539887E-02	-1.15969396562E+02
7.68697394790E+10	1.54672070010E-01	-6.80827052329E+01	8.93455282596E-05	-6.93291177977E+01	1.51004445095E-04	-3.01298824473E+01	9.58559799743E-02	-1.16796333671E+02
7.68757515030E+10	1.55210134727E-01	-6.78772631145E+01	1.73484230560E-04	-8.87685082471E+01	2.22649422408E-04	-4.88610615931E+01	9.41504275941E-02	-1.16813162990E+02
7.68817635271E+10	1.55715156716E-01	-6.78607955519E+01	8.10338067735E-05	-1.25057882010E+02	1.06371383306E-04	-8.38083255182E+01	9.28104104669E-02	-1.18637279069E+02
7.68877755511E+10	1.53019896949E-01	-6.74541345088E+01	1.06527506284E-04	-1.20704330295E+02	1.57973944583E-04	-4.90622540628E+01	9.24442629320E-02	-1.18034576521E+02
7.68937875752E+10	1.55251036639E-01	-6.84939719719E+01	1.03075689173E-04	-1.46394973766E+02	8.36736405967E-05	-8.40436741533E+00	9.16621762391E-02	-1.17070506434E+02
7.68997995992E+10	1.52578821004E-01	-6.82168203850E+01	4.76373596861E-05	-1.04005690255E+02	7.14369238622E-05	-7.44835910509E+00	9.14158990399E-02	-1.19724422003E+02
7.69058116232E+10	1.54121613397E-01	-6.91203562221E+01	9.29086173630E-05	-8.83818932997E+01	1.17454223392E-04	-2.97915667165E+01	9.04693021589E-02	-1.20666292362E+02
7.69118236473E+10	1.52907386384E-01	-6.99779592114E+01	6.01555928703E-05	-1.30806781458E+02	1.23002794199E-04	-5.46069127281E+01	8.91078486298E-02	-1.18591478054E+02
7.69178356713E+10	1.55782028897E-01	-7.08110677446E+01	1.49357209598E-04	-1.02967346483E+02	1.57799308540E-04	-6.04295487869E+01	8.81817591367E-02	-1.18546633140E+02
7.69238476954E+10	1.53786258299E-01	-6.98875823705E+01	9.48446057361E-05	-1.39176639080E+02	2.03359860241E-04	-7.96152979595E+01	8.85370707923E-02	-1.21051862233E+02
7.69298597194E+10	1.55142780398E-01	-6.99066739840E+01	9.30675168635E-05	-1.48803480332E+02	1.48473547459E-04	-8.47527276737E+01	8.77438025762E-02	-1.22079316057E+02
7.69358717435E+10	1.50538377460E-01	-6.90393360218E+01	1.03730204903E-04	-1.15940492133E+02	1.61575382551E-04	-9.83070685090E+01	8.70892869203E-02	-1.21891445971E+02
7.69418837675E+10	1.50418893762E-01	-6.90141691074E+01	1.01670877202E-04	-1.22212066728E+02	1.13302534237E-04	-1.08906938556E+02	8.54492484599E-02	-1.20463543196E+02
7.69478957916E+10	1.53618294158E-01	-7.02357827469E+01	9.58553713708E-05	1.68939668653E+02	1.00595494364E-04	-7.93382643403E+01	8.46777909605E-02	-1.21504721529E+02
7.69539078156E+10	1.51084583505E-01	-6.89576168650E+01	8.81983727643E-05	-1.36176319252E+02	2.31069964005E-05	-4.29723189793E+01	8.48522313185E-02	-1.22087820273E+02
7.69599198397E+10	1.50481591336E-01	-6.98126374449E+01	5.29622661672E-05	-1.56800887895E+02	7.18875301478E-05	-8.80461679164E+01	8.43860787639E-02	-1.22480389085E+02
7.69659318637E+10	1.53173194540E-01	-7.12255348648E+01	6.21196659363E-05	-1.72179011945E+02	7.99712458939E-05	-8.75113401188E+01	8.25259294531E-02	-1.22318623345E+02
7.69719438878E+10	1.50544748796E-01	-7.08160149582E+01	6.24129668633E-05	-1.63240276034E+02	1.20825532681E-04	-1.12585251222E+02	8.16990088055E-02	-1.22594060224E+02
7.69779559118E+10	1.51090205835E-01	-7.08541748447E+01	9.59586394389E-05	-1.54534055664E+02	6.99567386157E-05	-1.24514552219E+02	8.07920076545E-02	-1.24437756770E+02
7.69839679359E+10	1.51456806483E-01	-7.17824702798E+01	9.40891159089E-05	-1.73361608886E+02	1.10038462285E-04	-1.16002294892E+02	7.93925224646E-02	-1.21626538598E+02
7.69899799599E+10	1.49727788015E-01	-7.01991574421E+01	6.49194322186E-05	-1.03769533907E+02	7.47188233528E-05	-1.14906848392E+02	7.91878642825E-02	-1.25156543363E+02
7.69959919840E+10	1.49512828916E-01	-7.08943842074E+01	1.26993339220E-04	-1.78422044939E+02	1.08915444294E-04	-1.29850450203E+02	7.87888330962E-02	-1.25476580414E+02
7.70020040080E+10	1.50429920582E-01	-7.18427842545E+01	9.57144125802E-05	1.61316575079E+02	9.67400443875E-05	-1.26695372663E+02	7.80897324991E-02	-1.23290635817E+02
7.70080160321E+10	1.51694075898E-01	-7.29763724056E+01	1.66066917141E-04	1.52783232738E+02	6.18467876857E-05	-1.50222560752E+02	7.75785491289E-02	-1.25210342260E+02
7.70140280561E+10	1.53684219800E-01	-7.34817225336E+01	1.31654122497E-04	1.50612003358E+02	1.23110890600E-04	-1.65084382885E+02	7.63720721738E-02	-1.24391921329E+02
7.70200400802E+10	1.52366947130E-01	-7.34632126477E+01	1.36245971554E-04	1.24475745120E+02	1.29851240979E-04	-1.59891200262E+02	7.58365827493E-02	-1.24036635814E+02
7.70260521042E+10	1.49000420033E-01	-7.29004667941E+01	1.11498708656E-04	1.64690871099E+02	9.67133323073E-05	1.75243739139E+02	7.45084868460E-02	-1.25168741156E+02
7.70320641283E+10	1.49142411785E-01	-7.28826801008E+01	1.39101433273E-04	1.42948052299E+02	1.37240064918E-04	-1.61894655936E+02	7.37945045634E-02	-1.26328840886E+02
7.70380761523E+10	1.51025848582E-01	-7.34719327107E+01	1.27009377206E-04	1.29656427131E+02	1.43559811322E-04	-1.78707327281E+02	7.42406641959E-02	-1.27214567531E+02
7.70440881764E+10	1.48699957443E-01	-7.37985177833E+01	1.13141092467E-04	1.03500272432E+02	1.25831557725E-04	1.65224582779E+02	7.29015964896E-02	-1.26943525465E+02
7.70501002004E+10	1.49488077529E-01	-7.35454491221E+01	6.95702013354E-05	1.17140212485E+02	1.01560093771E-04	1.21398699729E+02	7.18043427046E-02	-1.27594531946E+02
7.70561122244E+10	1.51817227350E-01	-7.45797887345E+01	6.79000741291E-05	8.78454799067E+01	5.05563776060E-05	-1.69236346691E+02	7.02280106945E-02	-1.25631494936E+02
7.70621242485E+10	1.50533354935E-01	-7.47042073208E+01	9.35721433817E-05	1.27359390621E+02	8.26636958494E-05	1.79421424119E+02	7.01308720954E-02	-1.29730884412E+02
7.70681362725E+10	1.48298383189E-01	-7.42444737148E+01	1.26144381057E-04	9.52462325400E+01	6.97804416643E-05	-1.38394124398E+02	6.97603945016E-02	-1.27645400507E+02
7.70741482966E+10	1.48179088794E-01	-7.39849475082E+01	1.79655935411E-04	1.08662400015E+02	3.81060691820E-05	8.62017687238E+01	6.93243989091E-02	-1.28305561697E+02
7.70801603206E+10	1.48829157961E-01	-7.45038520045E+01	1.28528804410E-04	8.13387119284E+01	6.87584033151E-05	1.24293735477E+02	6.84026284662E-02	-1.29279269369E+02
7.70861723447E+10	1.46919407152E-01	-7.44491834716E+01	1.36537638578E-04	7.12596118283E+01	1.25414231467E-04	1.34567426855E+02	6.73333313834E-02	-1.27646690287E+02
7.70921843687E+10	1.46451605078E-01	-7.44795589635E+01	1.43305579783E-04	6.53129670636E+01	3.99514671625E-05	1.62794274537E+02	6.71415873068E-02	-1.31836696588E+02
7.70981963928E+10	1.49867623008E-01	-7.53872425374E+01	9.43077200355E-05	5.37118327076E+01	6.38564397198E-05	1.16182982907E+02	6.55301081508E-02	-1.28979553691E+02
7.71042084168E+10	1.50353764022E-01	-7.61132491322E+01	2.67830711065E-05	9.61937574858E+01	4.79289263952E-05	1.43613673569E+02	6.47318676114E-02	-1.29407644029E+02
7.71102204409E+10	1.49275705437E-01	-7.53010406201E+01	6.15975396556E-05	1.24438030894E+02	7.47914748380E-05	1.79317243783E+02	6.44352052613E-02	-1.30722014661E+02
7.71162324649E+10	1.48012002283E-01	-7.65938908271E+01	3.53175659127E-05	1.28907136717E+02	1.56198942223E-04	1.63385497121E+02	6.37926476426E-02	-1.33472969745E+02
7.71222444890E+10	1.44268450770E-01	-7.52569559172E+01	3.10426740157E-05	3.56287621654E+01	1.65818356006E-04	1.39068002938E+02	6.33124181565E-02	-1.33293097142E+02
7.71282565130E+10	1.46000129641E-01	-7.57324579840E+01	2.90955208333E-05	6.99407657574E+01	1.45474359748E-04	1.22526771587E+02	6.14793330844E-02	-1.31023468778E+02
7.71342685371E+10	1.46090231658E-01	-7.62162011680E+01	6.46081914805E-05	6.98704289504E+01	1.61074414629E-04	1.19975721516E+02	6.07977201111E-02	-1.32640652795E+02
7.71402805611E+10	1.50406257250E-01	-7.82519191685E+01	3.76454585820E-05	5.79907207373E+01	1.13484807178E-04	1.03408621370E+02	6.07722442615E-02	-1.34328361525E+02
7.71462925852E+10	1.45021914974E-01	-7.81494593750E+01	1.05656617694E-04	5.76328223120E+01	1.35614484179E-04	9.11946281583E+01	5.97254637693E-02	-1.33054225786E+02
7.71523046092E+10	1.44947538847E-01	-7.67374919604E+01	7.26809217626E-05	2.73005848608E+01	7.70579056955E-05	8.70121493518E+01	5.82471758050E-02	-1.33270106090E+02
7.71583166333E+10	1.47650714078E-01	-7.74301687421E+01	4.87830438322E-05	5.14095861991E+01	7.48898002460E-05	1.24554642930E+02	5.81853188640E-02	-1.34576107280E+02
7.71643286573E+10	1.45148339572E-01	-7.63266072615E+01	1.10973015441E-04	2.04403961909E+01	1.06223538753E-04	4.43725930671E+01	5.77696042803E-02	-1.36171396245E+02
7.71703406814E+10	1.44769460153E-01	-7.82814047337E+01	1.13442442689E-04	-9.83911259394E+00	1.04000161451E-04	5.91442921524E+01	5.61281021373E-02	-1.36012124594E+02
7.71763527054E+10	1.43254585456E-01	-7.72197159582E+01	5.77126895841E-05	-3.39935430568E+01	4.21747185198E-05	1.03963794569E+02	5.52105692466E-02	-1.32608104044E+02
7.71823647295E+10	1.43618367027E-01	-7.65937620232E+01	5.16998165414E-05	4.06778460083E+01	1.05459869498E-04	9.96287457729E+01	5.38261762697E-02	-1.32599863009E+02
7.71883767535E+10	1.44484578400E-01	-7.82449605424E+01	4.59092648884E-05	4.45798712852E+01	9.36714080688E-05	7.97016487296E+01	5.39153530025E-02	-1.36493924238E+02
7.71943887776E+10	1.43661060288E-01	-7.92232350973E+01	4.22385625363E-05	2.08770140681E+01	1.09425988187E-04	4.31157901383E+01	5.29038567432E-02	-1.36076637812E+02
7.72004008016E+10	1.43558782960E-01	-7.97884816983E+01	5.85906905061E-05	2.88997771252E+01	5.06349732955E-05	8.04077316956E+01	5.26568327354E-02	-1.37114707656E+02
7.72064128257E+10	1.44207351401E-01	-7.91747630892E+01	3.21648959258E-05	-1.68631949166E+01	4.86034918573E-05	9.43873542926E+01	5.09486553879E-02	-1.35315859576E+02
7.72124248497E+10	1.43318389683E-01	-7.81739295754E+01	1.24026347115E-04	-4.04288973480E+00	8.76044999922E-05	6.44091097245E+01	5.02414962907E-02	-1.37669789313E+02
7.72184368737E+10	1.44697632647E-01	-7.98422943221E+01	1.40998204963E-04	-4.07352360752E+00	9.63800232335E-05	1.06730361980E+01	4.95717455651E-02	-1.38587219653E+02
7.72244488978E+10	1.45318330671E-01	-8.04720807507E+01	4.24239840175E-05	-1.61903930533E+01	8.62632303320E-05	4.50250787635E+01	4.90752647333E-02	-1.38645734325E+02
7.72304609218E+10	1.42890707004E-01	-7.79959809712E+01	1.35109345567E-04	-4.48815403728E+00	7.50689514476E-05	-5.94963531742E+01	4.74278856075E-02	-1.36106122555E+02
7.72364729459E+10	1.44223649020E-01	-8.04879755987E+01	9.96465933839E-05	-2.91270637119E+01	1.16975095540E-04	1.13552248349E+01	4.70569993709E-02	-1.38707926972E+02
7.72424849699E+10	1.44010234739E-01	-8.06557419232E+01	8.79906642259E-05	-6.58571663985E+01	4.05861894226E-05	-4.39038905605E+01	4.60049080387E-02	-1.36686800274E+02
7.72484969940E+10	1.43720104300E-01	-8.12092261054E+01	3.91381475736E-05	-7.47561221551E+01	2.11188808041E-05	-1.47063086781E+01	4.52484904469E-02	-1.38391667682E+02
7.72545090180E+10	1.42383270111E-01	-7.94760618063E+01	7.22053765272E-05	-7.32783050869E+01	1.96045176286E-05	1.00683690697E+02	4.47341300755E-02	-1.39561743693E+02
7.72605210421E+10	1.41605609944E-01	-8.10187665174E+01	4.47684527539E-05	8.99992492261E+00	1.11520647576E-04	2.85689605063E+01	4.39062480203E-02	-1.40788367828E+02
7.72665330661E+10	1.43840527784E-01	-8.13766915268E+01	8.25876589774E-05	-6.18475422551E+00	1.66304719506E-04	2.88909914489E+01	4.28586348367E-02	-1.38198882630E+02
7.72725450902E+10	1.42908127018E-01	-8.07482977411E+01	7.42950316975E-05	-1.17738357853E+02	1.07485863988E-04	1.82711230857E+00	4.29098030643E-02	-1.41955367804E+02
7.72785571142E+10	1.43914778555E-01	-8.04084349686E+01	3.87382912928E-05	1.80896157233E+01	1.41910002223E-04	9.71895765402E+00	4.18993633780E-02	-1.41897252352E+02
7.72845691383E+10	1.42542032364E-01	-8.31864116867E+01	7.55287917939E-05	-1.92928130806E+01	1.29687577713E-04	-4.08414059431E+01	4.02503038502E-02	-1.40583977852E+02
7.72905811623E+10	1.40707099083E-01	-8.01823832295E+01	7.30951919182E-05	-3.66583885245E+01	8.77230101824E-05	-9.84305646789E+00	4.04599028335E-02	-1.43275927687E+02
7.72965931864E+10	1.40765795672E-01	-8.13623639905E+01	1.09236316569E-04	-8.64364798196E+01	9.45520068693E-05	-2.36227784259E+01	3.85357331158E-02	-1.40965231549E+02
7.73026052104E+10	1.40680044171E-01	-8.01879399457E+01	9.25062226788E-05	-9.15426363484E+01	1.16158632840E-04	-4.68507115736E+01	3.83745793637E-02	-1.43469419099E+02
7.73086172345E+10	1.40965749778E-01	-8.07989078222E+01	1.28764230102E-04	-1.30226085011E+02	4.79592729406E-05	-7.79896894103E+01	3.67246019833E-02	-1.42422744790E+02
7.73146292585E+10	1.41852582943E-01	-8.23414880657E+01	4.97520603177E-05	-1.41433841119E+02	9.33176296121E-05	-4.79822513738E+01	3.60984441629E-02	-1.42666381318E+02
7.73206412826E+10	1.42576337806E-01	-8.32124069741E+01	5.09984433202E-05	1.71829232111E+02	5.71254595570E-05	3.25128918061E+01	3.53112731139E-02	-1.43774412820E+02
7.73266533066E+10	1.39773781801E-01	-8.31687715042E+01	2.95934256607E-05	1.21410638572E+02	1.45581066142E-04	5.22627267330E+00	3.49546093367E-02	-1.44301288641E+02
7.73326653307E+10	1.41067513135E-01	-8.26491434683E+01	6.82887798649E-05	9.67348354289E+01	1.26285889579E-04	-3.41639173316E+01	3.46307579201E-02	-1.45964414491E+02
7.73386773547E+10	1.41568911389E-01	-8.41196943813E+01	5.34654320250E-05	7.62569222717E+01	1.72578265160E-04	-2.93317731679E+01	3.22104152667E-02	-1.42377020474E+02
7.73446893788E+10	1.39972849873E-01	-8.48837704222E+01	8.05744796029E-05	-4.18261600606E+01	1.39070817837E-04	-5.13605251071E+01	3.32092532198E-02	-1.48082161171E+02
7.73507014028E+10	1.41188682530E-01	-8.47800096645E+01	8.01753601772E-05	-3.84959612274E+01	1.57158125455E-04	-6.25021549733E+01	3.21024020684E-02	-1.46939966212E+02
7.73567134269E+10	1.38131052084E-01	-8.40401413918E+01	7.96887501976E-05	-9.91972909476E+01	1.72946979736E-04	-7.96009209331E+01	3.02437285293E-02	-1.43868398231E+02
7.73627254509E+10	1.38058762946E-01	-8.30207905811E+01	5.11300407084E-05	-1.09957371718E+02	1.46354990101E-04	-9.11721809437E+01	2.95124888729E-02	-1.45401453721E+02
7.73687374749E+10	1.41088582698E-01	-8.34278864384E+01	6.60049110495E-05	1.02043889512E+02	8.68865454175E-05	-1.07496388714E+02	2.90601398527E-02	-1.47801832719E+02
7.73747494990E+10	1.40492321501E-01	-8.44833067592E+01	5.91654938977E-05	-1.74647879425E+02	1.15895248188E-04	-1.10452768736E+02	2.82299357552E-02	-1.47214966168E+02
7.73807615230E+10	1.37840373749E-01	-8.57129574649E+01	5.39772921045E-05	9.90099098277E+01	1.16625665919E-04	-1.19780579647E+02	2.74809325489E-02	-1.48301571024E+02
7.73867735471E+10	1.39211564387E-01	-8.55287880529E+01	2.40246966859E-05	8.80579254786E+01	9.53447654623E-05	-1.27679087140E+02	2.66652496412E-02	-1.49264153756E+02
7.73927855711E+10	1.38978714394E-01	-8.48008260346E+01	1.39419111867E-05	1.09566735076E+01	1.18581118796E-04	-1.13086583191E+02	2.55915803552E-02	-1.50591183086E+02
7.73987975952E+10	1.37892409947E-01	-8.48800930592E+01	5.32360662503E-05	-9.85800335394E+01	1.27433459853E-04	-1.32092084604E+02	2.45418131872E-02	-1.50846171670E+02
7.74048096192E+10	1.37798424798E-01	-8.38329000834E+01	5.43754677915E-05	1.85391487847E+01	9.44607424356E-05	-9.65278187449E+01	2.43162897803E-02	-1.51346587483E+02
7.74108216433E+10	1.37667647398E-01	-8.45947533641E+01	5.35221663121E-05	-7.43268126043E+01	1.12025846016E-04	-1.23495461927E+02	2.22188257933E-02	-1.48081668159E+02
7.74168336673E+10	1.36500160803E-01	-8.41222721003E+01	1.08170953744E-04	-1.26030997156E+02	1.48674056120E-04	-1.48332214135E+02	2.16798081813E-02	-1.49970218738E+02
7.74228456914E+10	1.36456578729E-01	-8.59038401105E+01	4.33230645968E-05	-1.33508732941E+02	9.23782758505E-05	-1.63811626230E+02	2.16479413702E-02	-1.51184601660E+02
7.74288577154E+10	1.37489782738E-01	-8.68039408791E+01	3.38803418345E-05	-5.54496542657E+01	6.54028850548E-05	1.77097751487E+02	2.10000501068E-02	-1.53026615874E+02
7.74348697395E+10	1.36303175810E-01	-8.65796934134E+01	4.42991391550E-05	-6.93617600936E+01	8.95996796748E-05	-1.28657186111E+02	2.01919980650E-02	-1.53830846307E+02
7.74408817635E+10	1.36559127177E-01	-8.65906390421E+01	8.22262550075E-05	-1.06997901083E+02	1.17161279339E-04	-1.52816830338E+02	1.79377072857E-02	-1.49641053886E+02
7.74468937876E+10	1.35670965656E-01	-8.63655177060E+01	9.65397177493E-05	-9.18479694799E+01	1.72456609598E-04	-1.55551856279E+02	1.73594017909E-02	-1.51273789408E+02
7.74529058116E+10	1.35244399526E-01	-8.48865831332E+01	6.22878819204E-05	-6.69850626422E+01	2.27677712786E-04	-1.59613823762E+02	1.69873868802E-02	-1.52634419071E+02
7.74589178357E+10	1.34199237469E-01	-8.42999012725E+01	8.43964840621E-05	-1.18990173027E+02	2.27232090410E-04	1.60130168197E+02	1.62556957024E-02	-1.54120840012E+02
7.74649298597E+10	1.34782369860E-01	-8.73931423393E+01	6.42073303284E-05	-1.38756962413E+02	1.31393137220E-04	1.53560766106E+02	1.45116933170E-02	-1.51639863195E+02
7.74709418838E+10	1.37588028392E-01	-8.79871179706E+01	4.73962009567E-05	-1.60557359442E+02	1.22197800843E-04	1.62522234132E+02	1.49631785767E-02	-1.56130990936E+02
7.74769539078E+10	1.39070665538E-01	-8.67029029224E+01	8.01240755446E-05	1.52559631284E+02	1.03465523630E-04	1.62646110481E+02	1.38316327019E-02	-1.55998027681E+02
7.74829659319E+10	1.36119831375E-01	-8.76102738313E+01	7.93296864857E-05	-1.38104762074E+02	1.02241916861E-04	1.49142131537E+02	1.28646401735E-02	-1.55500381088E+02
7.74889779559E+10	1.35296386029E-01	-8.73116390969E+01	2.87858338815E-05	1.41119211879E+01	1.49444689516E-04	1.52168580550E+02	1.19575150248E-02	-1.55049532338E+02
7.74949899800E+10	1.34362939434E-01	-8.65338043445E+01	1.35225129455E-04	-1.57500788932E+02	1.08514548200E-04	1.32444208380E+02	1.11082251650E-02	-1.56094958732E+02
7.75010020040E+10	1.32743281966E-01	-8.73058635290E+01	1.40297004490E-04	-1.77087755896E+02	7.15212026873E-05	1.09535008852E+02	1.02528967055E-02	-1.54950432578E+02
7.75070140281E+10	1.36417581995E-01	-8.83785779376E+01	1.20822609247E-04	1.58931171141E+02	1.67254372449E-04	1.27866521856E+02	9.34254593841E-03	-1.55654309052E+02
7.75130260521E+10	1.35554887155E-01	-8.83068885957E+01	1.02354519720E-04	1.51124337539E+02	1.17833917543E-04	1.29754619378E+02	8.60750771664E-03	-1.57078550653E+02
7.75190380762E+10	1.33820635610E-01	-8.85625894135E+01	5.90340267161E-05	9.15635221487E+01	1.73948979353E-04	1.13532724805E+02	7.81058693464E-03	-1.59317760690E+02
7.75250501002E+10	1.35936805714E-01	-8.77852547498E+01	6.26204416184E-05	1.28268438568E+02	1.83364873804E-04	1.03200691063E+02	6.62043887674E-03	-1.57151666506E+02
7.75310621242E+10	1.33287471568E-01	-8.92685600751E+01	6.66222865857E-05	9.99919088504E+01	2.20431820608E-04	7.87006946440E+01	6.06941698345E-03	-1.58994855365E+02
7.75370741483E+10	1.33278979693E-01	-9.00226408621E+01	3.80365362787E-05	1.71673392318E+02	1.72590603673E-04	6.34271553921E+01	5.39307356762E-03	-1.59932942488E+02
7.75430861723E+10	1.34913201689E-01	-8.93499099367E+01	2.93897234941E-05	3.79738325751E+00	1.89402260561E-04	5.52706379524E+01	4.33102922977E-03	-1.60128851083E+02
7.75490981964E+10	1.35600328428E-01	-8.95658766284E+01	5.50688630896E-05	-1.38113835991E+02	1.41731737078E-04	6.82704283026E+01	3.19844568014E-03	-1.61639718619E+02
7.75551102204E+10	1.34647639511E-01	-8.93693352097E+01	8.97824812872E-05	-1.65144077596E+02	1.20392881160E-04	8.99279992449E+01	2.77999660576E-03	-1.64245295161E+02
7.75611222445E+10	1.33543997291E-01	-8.79036202730E+01	1.47807250301E-04	1.69765374265E+02	1.16563343015E-04	7.14536659264E+01	2.59661618412E-03	-1.65362906869E+02
7.75671342685E+10	1.34254422927E-01	-9.03103730266E+01	1.51680486533E-05	1.41477172670E+02	1.34864133627E-04	6.76777327112E+01	1.17649718858E-03	-1.63301677550E+02
7.75731462926E+10	1.32076317442E-01	-9.04564293004E+01	1.53623819053E-05	-2.31468376058E+00	1.48039843814E-04	5.18410524294E+01	3.29957418935E-04	3.46102927184E+01
7.75791583166E+10	1.31679764400E-01	-8.84521794128E+01	4.84869003249E-05	7.14166758476E+01	9.51669522936E-05	2.66390184997E+01	7.51983592677E-05	1.15280526297E+02
7.75851703407E+10	1.31948491405E-01	-8.99724067534E+01	1.02641636798E-05	-8.94780783128E+01	1.62124967422E-04	3.37449566044E+01	1.23384386197E-03	2.70875415778E+01
7.75911823647E+10	1.32904783820E-01	-9.05583283886E+01	8.37642312365E-05	-1.45773292375E+02	1.28873380365E-04	1.93500125781E+01	2.01940176722E-03	2.16817605128E+01
7.75971943888E+10	1.30757519412E-01	-8.93272959607E+01	8.70981858084E-05	-1.72166016454E+02	1.10335809408E-04	2.91750508900E+01	3.66286140555E-03	2.56235368248E+01
7.76032064128E+10	1.29454014939E-01	-8.58313297829E+01	5.39064988751E-05	1.46735694667E+02	9.59122633705E-05	3.02440429336E+01	3.77689358290E-03	2.29940279385E+01
7.76092184369E+10	1.31194359192E-01	-8.97071010615E+01	8.33160263126E-05	1.67735748002E+02	6.84728331631E-05	-2.69229359308E+01	4.71041445863E-03	2.17348237128E+01
7.76152304609E+10	1.33569729774E-01	-9.09628547189E+01	1.08909767736E-04	1.43925937004E+02	8.16398458851E-05	-1.93131213482E+01	5.85717200820E-03	2.05785146372E+01
7.76212424850E+10	1.31665488687E-01	-9.25108990814E+01	1.54210019895E-04	1.11410906499E+02	1.14350602379E-04	1.27484004312E+01	6.42186609070E-03	1.77477945567E+01
7.76272545090E+10	1.31436157889E-01	-9.29588358898E+01	1.71117619434E-04	1.04593168840E+02	6.40617294485E-05	-5.71777405773E+00	7.47291939448E-03	1.98435880151E+01
7.76332665331E+10	1.31962630209E-01	-9.07218620748E+01	1.29282295998E-04	6.30505697568E+01	1.28330315445E-04	-3.22454351826E+00	7.63272998734E-03	1.47359690975E+01
7.76392785571E+10	1.31112505362E-01	-9.10467181884E+01	9.74742938446E-05	8.35344662386E+01	1.29035847773E-04	-4.15559761618E+01	8.32520406146E-03	1.55360447487E+01
7.76452905812E+10	1.31482718015E-01	-9.12470212367E+01	8.93190046802E-05	8.60001938467E+01	4.34398752333E-05	-1.23376567591E+01	9.73391975110E-03	1.74751377113E+01
7.76513026052E+10	1.29725183524E-01	-8.95287300326E+01	9.90666750491E-05	3.55931333468E+01	1.64572015765E-04	-3.51983665021E+01	1.09022683649E-02	1.93692343484E+01
7.76573146293E+10	1.32605563400E-01	-9.06806661954E+01	6.81709625008E-05	6.93805538248E+01	1.08090364974E-04	-8.81019882727E+01	1.12787233711E-02	1.67668882435E+01
7.76633266533E+10	1.31459650279E-01	-9.22618741977E+01	6.60826001296E-05	7.87180845202E+01	1.07704073381E-04	-6.88744462956E+01	1.21915163199E-02	1.51616371141E+01
7.76693386774E+10	1.31672610130E-01	-9.28276465007E+01	1.50810391624E-04	5.94354364562E+01	9.84364134846E-05	-1.22542653933E+02	1.30547422674E-02	1.46127168009E+01
7.76753507014E+10	1.30482405253E-01	-9.37519342468E+01	1.56361145056E-04	5.70368849348E+01	7.41706986322E-05	-1.25223707596E+01	1.35794441189E-02	1.44379015437E+01
7.76813627255E+10	1.30260550586E-01	-9.25638472341E+01	1.09375917994E-04	4.19043789120E+01	1.12337397065E-04	2.44994167832E+00	1.44545098494E-02	1.51730760436E+01
7.76873747495E+10	1.33855415718E-01	-9.43475590662E+01	7.92784290485E-05	2.33190557553E+01	9.63085615073E-05	-3.43476346673E+01	1.53216327015E-02	1.36444560636E+01
7.76933867735E+10	1.29863503200E-01	-9.37517434122E+01	5.07991742191E-05	1.47441589813E+01	6.07368586540E-05	-8.10121765826E+01	1.59628072514E-02	1.28078293963E+01
7.76993987976E+10	1.31119685776E-01	-9.34704717434E+01	9.67295781845E-05	4.06298655392E+01	1.04517813320E-04	-6.75974108280E+01	1.66786514666E-02	1.36546905243E+01
7.77054108216E+10	1.29492223604E-01	-9.21371379480E+01	1.23953480878E-04	5.20466201819E+01	1.01551287557E-04	-1.14913579794E+02	1.75900089016E-02	1.42499722758E+01
7.77114228457E+10	1.31040933732E-01	-9.34450644746E+01	1.13063892592E-04	2.09646440146E+00	2.28230033021E-05	-5.02951810194E+01	1.83499121008E-02	1.24962060600E+01
7.77174348697E+10	1.29220742768E-01	-9.41633297544E+01	1.25239287909E-04	-5.55314097100E+00	3.60925723176E-05	-6.48130990562E+01	1.94533300615E-02	1.39047693626E+01
7.77234468938E+10	1.28450139758E-01	-9.46069285932E+01	5.33014753733E-05	1.26890991208E+01	1.17753128144E-04	-6.68646944299E+01	2.02039388115E-02	1.02634687054E+01
7.77294589178E+10	1.30042598757E-01	-9.29235827195E+01	7.02093086964E-05	9.27978095637E+00	1.14671672886E-04	-6.63168540182E+01	2.11611937322E-02	1.33929918099E+01
7.77354709419E+10	1.28734612794E-01	-9.46935410888E+01	1.44886299904E-04	1.58294198728E+01	7.66307761511E-05	-7.81986307525E+01	2.17234411183E-02	1.16099461945E+01
7.77414829659E+10	1.28737449266E-01	-9.36496880343E+01	7.91603205202E-05	-1.07546223359E+01	3.16099186775E-05	-1.00239249222E+02	2.23812276165E-02	9.06629082544E+00
7.77474949900E+10	1.28739476642E-01	-9.38944227691E+01	1.22004330310E-04	-1.29680760202E+01	5.04500866535E-05	-7.85829027430E+01	2.31559504438E-02	8.30690131273E+00
7.77535070140E+10	1.29392236085E-01	-9.53190436397E+01	1.18136915327E-04	-6.00577697410E+01	2.76282659498E-05	-3.21867954000E+01	2.38856924042E-02	1.05048526839E+01
7.77595190381E+10	1.29112360851E-01	-9.57008095534E+01	1.27462984597E-04	-2.16182654297E+01	3.67181209643E-05	-1.29669805345E+02	2.47308659346E-02	1.07335610090E+01
7.77655310621E+10	1.26939515971E-01	-9.41132257334E+01	7.49055131061E-05	-4.46858021178E+01	6.77275361179E-05	-1.06914960046E+02	2.55904048104E-02	1.02264280446E+01
7.77715430862E+10	1.27708397068E-01	-9.33721526071E+01	9.04504784217E-05	-4.16093581233E+01	4.13941887237E-05	-7.48061488139E+01	2.64611450129E-02	8.69973595904E+00
7.77775551102E+10	1.29747472224E-01	-9.60116869333E+01	1.09139481596E-04	-7.85381564946E+01	8.43464480406E-05	-8.88688802985E+01	2.72490550599E-02	8.50700445455E+00
7.77835671343E+10	1.29724336925E-01	-9.68051266704E+01	1.36704501453E-04	-1.11886257371E+02	6.35674336910E-05	-9.01881326509E+01	2.83822857202E-02	8.47964128307E+00
7.77895791583E+10	1.28288717006E-01	-9.60539928128E+01	1.08090645358E-04	-7.94011548262E+01	5.86802600593E-05	-5.72224579026E+01	2.90781866354E-02	8.66167083673E+00
7.77955911824E+10	1.29607842090E-01	-9.68750916759E+01	7.23126465623E-05	-8.38696567757E+01	2.36791577425E-05	-8.99416370279E+01	2.96984232846E-02	5.37390468525E+00
7.78016032064E+10	1.26550575566E-01	-9.46275816009E+01	3.68964087888E-05	8.33314251105E+01	8.59442800463E-05	-1.33541571965E+02	3.04281818330E-02	5.84064651616E+00
7.78076152305E+10	1.27578151099E-01	-9.69909868826E+01	5.21358733322E-05	-5.58538555371E+01	1.37522248066E-04	-1.23580296616E+02	3.12601406908E-02	6.01373677694E+00
7.78136272545E+10	1.28028052634E-01	-9.52409450723E+01	8.97307646999E-05	-4.84760189970E+01	9.51085382070E-05	-1.59062709369E+02	3.22462989247E-02	6.72052347389E+00
7.78196392786E+10	1.29320321944E-01	-9.74005651119E+01	1.16936299132E-04	-1.05418696069E+02	9.45999194552E-05	-1.54768080188E+02	3.28624960383E-02	5.60500652587E+00
7.78256513026E+10	1.29273859561E-01	-9.72508466155E+01	1.12189073591E-04	-6.64119811817E+01	7.17907455678E-05	1.02712546831E+02	3.34899134041E-02	4.80560926056E+00
7.78316633267E+10	1.25170222996E-01	-9.51124993123E+01	1.37044516575E-04	-1.34557415569E+02	3.92308781124E-05	1.23435394827E+02	3.47283429156E-02	2.69638509903E+00
7.78376753507E+10	1.27498360386E-01	-9.73414147100E+01	1.05888725210E-04	-1.11762199349E+02	7.39123498600E-05	-1.37351837585E+02	3.50419599563E-02	5.32523028607E+00
7.78436873747E+10	1.27262428185E-01	-9.57775504902E+01	5.36189215462E-05	-1.00230729820E+02	1.20400829098E-04	-1.37330878267E+02	3.60110636937E-02	3.82604579024E+00
7.78496993988E+10	1.28046355842E-01	-9.66552777948E+01	1.12366148614E-04	-1.30994869466E+02	1.38113270829E-04	-1.38722944568E+02	3.65191858779E-02	4.36373919468E+00
7.78557114228E+10	1.25252072808E-01	-9.65592315069E+01	1.21324252668E-04	-1.56685256866E+02	2.03421700018E-04	1.68127242154E+02	3.75120188482E-02	2.58646185221E+00
7.78617234469E+10	1.25871231685E-01	-9.64305622695E+01	7.30156615208E-05	-1.67676021228E+02	1.77855236495E-04	1.73985464766E+02	3.81937334888E-02	2.25871776633E+00
7.78677354709E+10	1.28021064055E-01	-9.85773550392E+01	3.17113116031E-05	-1.55191180296E+02	1.12749151846E-04	1.60281469424E+02	3.85891286853E-02	3.34851662116E+00
7.78737474950E+10	1.26685523598E-01	-9.70525271286E+01	1.00478747128E-04	-1.76474328173E+02	1.23093972612E-04	1.42808637854E+02	3.93326298179E-02	2.64058424610E+00
7.78797595190E+10	1.25386468465E-01	-9.60823861580E+01	3.81320998813E-05	-1.17230302090E+02	1.36429595121E-04	-1.77474625691E+02	4.02057764694E-02	1.49792082917E+00
7.78857715431E+10	1.25465595151E-01	-9.87331158872E+01	5.27475398329E-05	-1.71372306319E+02	7.12898386590E-05	-1.63164911757E+02	4.07400746816E-02	3.04445035687E+00
7.78917835671E+10	1.27733422564E-01	-9.94569549592E+01	9.89776286212E-05	-1.59801907492E+02	1.30236031214E-04	1.54412881725E+02	4.19426594693E-02	8.32249329218E-01
7.78977955912E+10	1.27760804432E-01	-9.99581577334E+01	4.63211837913E-05	-1.38060432653E+02	8.66535816599E-05	1.59690460985E+02	4.25371047981E-02	2.05023515970E+00
7.79038076152E+10	1.26972709827E-01	-9.98102851826E+01	7.83475747736E-05	1.40278377537E+02	1.36323553044E-04	1.36324307226E+02	4.30398720970E-02	1.51239868473E+00
7.79098196393E+10	1.25183513340E-01	-9.70433884112E+01	7.21747659263E-05	-1.50627320650E+02	1.62520048349E-04	1.63176414075E+02	4.29486793487E-02	1.81928240239E+00
7.79158316633E+10	1.25901347911E-01	-9.82379183099E+01	9.59817589708E-05	1.57363460891E+02	1.29922485013E-04	1.30633123831E+02	4.46489973340E-02	-4.25688978162E-01
7.79218436874E+10	1.25795201180E-01	-9.89973361020E+01	1.07263078898E-04	1.70301496827E+02	1.58420575312E-04	9.32235615619E+01	4.48921420140E-02	1.82745634452E+00
7.79278557114E+10	1.26359831745E-01	-9.94597688262E+01	1.11332163298E-04	1.56665478306E+02	1.47358659217E-04	1.08476805284E+02	4.69418035365E-02	-1.07460376667E+00
7.79338677355E+10	1.28485260662E-01	-9.99379360950E+01	1.10119435832E-04	-1.71899813178E+02	1.42918677524E-04	9.29704984808E+01	4.72490432476E-02	-2.45183757789E+00
7.79398797595E+10	1.26678400388E-01	-9.98944431235E+01	1.68375742002E-04	1.41255639718E+02	2.22436494413E-04	6.97847764221E+01	4.67099257744E-02	7.99949739074E-01
7.79458917836E+10	1.26106302232E-01	-9.95323358447E+01	1.31110070885E-04	1.08833783619E+02	1.16112275301E-04	8.34496861227E+01	4.84717040670E-02	-1.08785752310E+00
7.79519038076E+10	1.25340220844E-01	-1.00420210957E+02	7.46885917211E-05	1.27146217577E+02	1.22398242583E-04	9.15455075868E+01	4.95154108097E-02	-2.56339675391E+00
7.79579158317E+10	1.26025146132E-01	-9.96197324011E+01	7.23144697799E-05	1.68328608491E+02	1.48726113041E-04	8.14047064613E+01	5.09732778444E-02	-3.74230181142E+00
7.79639278557E+10	1.25881453174E-01	-9.91893625914E+01	5.70123049159E-05	1.09582096213E+02	9.24472530646E-05	5.42183541845E+01	5.00502218257E-02	-6.03365455468E-01
7.79699398798E+10	1.24935766968E-01	-1.00732850967E+02	8.06308265434E-05	7.91278332867E+01	1.29542725421E-04	9.52887198339E+01	5.21674430448E-02	-4.10669055213E+00
7.79759519038E+10	1.23938374963E-01	-9.97458473494E+01	7.51451172163E-05	1.24176072734E+02	1.38995262624E-04	7.60145215706E+01	5.26395084406E-02	-3.71341936163E+00
7.79819639279E+10	1.26853920285E-01	-1.01218331697E+02	7.72080697198E-05	1.12008326600E+02	2.06122785064E-04	6.81383127648E+01	5.30352386727E-02	-2.74804184348E+00
7.79879759519E+10	1.25856359556E-01	-1.01299774024E+02	5.09819321432E-05	1.26983828479E+02	1.84910241825E-04	4.50264733676E+01	5.42965505795E-02	-4.57716064488E+00
7.79939879760E+10	1.25695710396E-01	-1.00783002139E+02	6.46398469747E-05	1.34433983919E+02	2.01722130194E-04	4.19604833413E+01	5.38529378512E-02	-4.06293796583E+00
7.80000000000E+10	1.24835391404E-01	-1.01656414521E+02	1.07305086170E-04	8.68274942111E+01	1.94662757984E-04	3.41009180157E+01	5.43613030493E-02	-4.23214057232E+00
