# Hz S MA R 50
! CMT, C4420, 21421029, 25.1.2/3
! Date: 8/7/2025 12:43:21 PM
! Data: Format (Calibration Info)
! Freq	S33:Mag/Ang(F2)	S43:Mag/Ang(F2)	S34:Mag/Ang(F2)	S44:Mag/Ang(F2)
7.50000000000E+10	1.98960066694E-01	-1.39939921030E+01	6.14396998366E-05	-1.45091238369E+02	3.13923783932E-05	1.69338492314E+02	2.16015379761E-01	-2.64717183743E+01
7.50060120240E+10	1.99372261755E-01	-1.38455776454E+01	1.52656829852E-05	1.73924499148E+02	1.70421803330E-05	-3.44840745617E+01	2.16394690342E-01	-2.73257286114E+01
7.50120240481E+10	2.01418595200E-01	-1.40122894762E+01	3.71412550828E-05	7.89703227533E+01	2.15066290021E-05	-1.51938361035E+02	2.15020155251E-01	-2.69346111503E+01
7.50180360721E+10	2.00413220602E-01	-1.45357469124E+01	1.85617891432E-05	-1.55512411050E+01	1.65292664552E-05	3.08124291585E+01	2.12543676565E-01	-2.60639128986E+01
7.50240480962E+10	1.99769145302E-01	-1.44538127057E+01	1.06127888695E-04	3.90309142265E+01	6.27115740458E-05	7.61966370216E+01	2.15959801504E-01	-2.91579879727E+01
7.50300601202E+10	1.99595751313E-01	-1.49313920542E+01	6.68212043499E-05	4.88665463134E+01	5.83493082545E-05	7.24503978795E+01	2.15683294400E-01	-2.87034475796E+01
7.50360721443E+10	2.00986961676E-01	-1.55208934632E+01	5.45672961378E-05	1.53424915897E+02	1.07481547540E-04	2.03112154339E+00	2.11696976020E-01	-2.69097954176E+01
7.50420841683E+10	1.99964162585E-01	-1.53496102172E+01	4.28933380193E-05	3.25029982675E+00	4.33532455641E-05	-9.38025054942E+01	2.12040807269E-01	-2.72608764923E+01
7.50480961924E+10	1.98527525008E-01	-1.61801422366E+01	7.22034248684E-05	-1.57893778698E+02	1.38353087447E-04	-1.10534452197E+02	2.08365331329E-01	-2.73197322524E+01
7.50541082164E+10	1.96280904352E-01	-1.54358596111E+01	4.31047764081E-05	-1.72264309627E+02	5.51709472666E-05	-1.76864384472E+02	2.13174947972E-01	-2.94600670343E+01
7.50601202405E+10	1.99074561072E-01	-1.46474346751E+01	8.58478984981E-05	1.35273294160E+02	1.31866844385E-04	1.61469766121E+02	2.12494932781E-01	-2.81823479160E+01
7.50661322645E+10	2.00989208850E-01	-1.54323401917E+01	2.47974309746E-05	6.94905567832E+01	9.83717597257E-05	1.64844602455E+02	2.11268907763E-01	-2.88621853896E+01
7.50721442886E+10	1.97383434513E-01	-1.51654976850E+01	5.45799429913E-05	7.27671996667E+01	1.30749808266E-05	8.82741652723E+01	2.13373370776E-01	-3.04050012599E+01
7.50781563126E+10	1.99096156318E-01	-1.72704812988E+01	6.55716021442E-05	3.30553866304E+01	7.09241495592E-05	1.09975305904E+02	2.11768972520E-01	-2.94220221454E+01
7.50841683367E+10	1.95479602017E-01	-1.50899313093E+01	4.32071303339E-05	6.97963681759E+01	3.70090763449E-05	1.18219428088E+02	2.10906700290E-01	-2.86841754638E+01
7.50901803607E+10	1.99181997200E-01	-1.74294676635E+01	2.47414369010E-05	6.20906887423E+01	7.28537629442E-05	1.72058302031E+02	2.13423334676E-01	-2.95894606218E+01
7.50961923848E+10	1.99864841162E-01	-1.68323125841E+01	1.79592771840E-05	-3.29770965718E+01	4.40839041128E-05	3.13991731194E+01	2.11671131563E-01	-3.13263418006E+01
7.51022044088E+10	1.96078403100E-01	-1.50140320949E+01	1.00563852963E-04	4.70108798075E+00	4.25942123628E-05	-3.11134698839E+01	2.10802055092E-01	-3.01347352821E+01
7.51082164329E+10	1.95596255186E-01	-1.68433535958E+01	6.63964959421E-05	4.43050490532E+00	4.72541340182E-05	5.40712577356E+01	2.09441732007E-01	-2.98079778572E+01
7.51142284569E+10	1.95838739527E-01	-1.78413936995E+01	4.33847139116E-05	-5.39830181911E+01	3.33575007496E-05	-4.69730844628E+01	2.10086062532E-01	-3.10122419031E+01
7.51202404810E+10	1.98540967381E-01	-1.88068070689E+01	3.81026250028E-05	-4.07486685742E+01	4.94338166545E-05	1.78843396612E+01	2.10334053577E-01	-3.10732369341E+01
7.51262525050E+10	1.95442694054E-01	-1.84456382550E+01	4.67289539505E-05	-5.12512786593E+01	5.09799042302E-05	3.71914773276E+01	2.06909430211E-01	-3.10448927015E+01
7.51322645291E+10	1.95830457289E-01	-1.77591124382E+01	3.23160374616E-05	-1.15080535721E+02	4.02263793296E-05	8.30738034113E+01	2.11364294167E-01	-3.20024570386E+01
7.51382765531E+10	1.94602365855E-01	-1.67712596076E+01	4.97302492182E-05	-1.69268717882E+02	4.02170057375E-05	9.38169072294E+01	2.07456741684E-01	-3.14659456810E+01
7.51442885772E+10	1.95098791045E-01	-1.82642321861E+01	2.22156542120E-05	-1.42604151535E+02	3.15678837311E-05	8.71697423192E+01	2.10576011104E-01	-3.17015091150E+01
7.51503006012E+10	1.90458702640E-01	-1.38515072067E+01	1.07875105189E-04	4.04689941993E+01	2.84046027378E-05	-5.30028915995E+00	2.10579311324E-01	-3.37325166836E+01
7.51563126253E+10	1.92109535977E-01	-1.83539003731E+01	2.30387441420E-05	-8.70545669920E+01	1.82105330769E-05	4.40168773286E+01	2.09351304363E-01	-3.30499122088E+01
7.51623246493E+10	1.96730732960E-01	-1.98120244666E+01	4.89264408655E-05	1.18500663589E+02	1.52335629588E-05	9.65333109761E+01	2.06338779313E-01	-3.13930511968E+01
7.51683366733E+10	1.93227256778E-01	-1.90880400080E+01	3.30047275971E-05	7.10992452813E+01	4.42228359225E-05	-9.26663645636E+01	2.12177328903E-01	-3.38767594773E+01
7.51743486974E+10	1.98432374631E-01	-2.08621200739E+01	5.65301589268E-05	-1.71359189270E+02	2.46203966547E-05	1.65762222991E+00	2.10184519370E-01	-3.42381506743E+01
7.51803607214E+10	1.95750130152E-01	-2.01054656280E+01	6.27820863162E-05	-9.28293311805E+01	5.72066125328E-05	-1.31794930340E+01	2.06618048504E-01	-3.36789290965E+01
7.51863727455E+10	1.95274855781E-01	-1.89509015136E+01	7.12266549937E-05	-9.80749013361E+01	4.82445898250E-05	3.77110200067E+01	2.06277991101E-01	-3.29762281712E+01
7.51923847695E+10	1.92432093805E-01	-1.97505946700E+01	5.75018497487E-05	-1.11930793613E+02	2.22652862622E-05	-1.26932560532E+02	2.08597236839E-01	-3.35287351497E+01
7.51983967936E+10	1.92734693952E-01	-1.89771025470E+01	2.07950478104E-05	-9.43457378705E+01	6.88860674377E-05	9.54585716554E+01	2.08372972223E-01	-3.39097256320E+01
7.52044088176E+10	1.97827404532E-01	-2.17484777577E+01	5.07322757193E-05	1.11705017919E+02	5.61571052922E-05	1.60140256400E+02	2.09016445291E-01	-3.50522040917E+01
7.52104208417E+10	1.92296761187E-01	-1.88748053786E+01	3.97494028644E-05	-1.41458999954E+02	6.08955084775E-05	-2.43909062872E+01	2.07938925257E-01	-3.54372663475E+01
7.52164328657E+10	1.95917809176E-01	-2.20075211604E+01	6.65858463622E-05	1.62610651055E+02	7.69261703208E-05	-6.14724024647E+01	2.09289785177E-01	-3.59529050068E+01
7.52224448898E+10	1.94914708272E-01	-2.21810596763E+01	3.15869624838E-05	6.93199450519E+01	3.31130232973E-05	1.02630031246E+02	2.04140872261E-01	-3.41076010910E+01
7.52284569138E+10	1.97529877260E-01	-2.18811961009E+01	4.90375879190E-05	1.78471042649E+02	8.01158077723E-05	1.55996052063E+02	2.03152202474E-01	-3.46015786766E+01
7.52344689379E+10	1.93518383014E-01	-2.19523734130E+01	2.66784364972E-05	-6.53814428475E+01	6.73249216223E-05	-2.27332997361E+01	2.07335453434E-01	-3.65233539115E+01
7.52404809619E+10	1.96184090579E-01	-2.16508875277E+01	9.88946346180E-05	-1.75025193472E+02	2.30144090132E-05	3.97141343090E+01	2.04757888821E-01	-3.49600434566E+01
7.52464929860E+10	1.92986661077E-01	-1.99365187347E+01	8.18499176013E-05	1.64615103857E+02	2.79445842229E-05	4.84313048906E+01	2.06169214956E-01	-3.61808481163E+01
7.52525050100E+10	1.92511241712E-01	-2.29885392817E+01	2.64163215897E-05	-1.88130255082E+01	2.07355644846E-05	-5.82564471005E+01	2.03991079462E-01	-3.62801329525E+01
7.52585170341E+10	1.92284588611E-01	-2.18464717690E+01	4.36099871225E-05	2.47534358556E+01	8.70096558213E-05	1.28870762815E+01	2.07861051461E-01	-3.77057320785E+01
7.52645290581E+10	1.94712898111E-01	-2.23262835622E+01	4.52395431214E-05	-9.72395781675E+01	9.70035853293E-05	-3.67181606905E+01	2.07030798561E-01	-3.72765527603E+01
7.52705410822E+10	1.92584005196E-01	-2.22485743209E+01	3.30566916372E-05	-9.71394431327E+00	5.89346460222E-05	-3.93232168509E+01	2.04380174240E-01	-3.73450825059E+01
7.52765531062E+10	1.91133431901E-01	-2.19054353350E+01	8.20155799282E-05	-3.33221179165E+01	9.13246162860E-05	-8.22603148593E+01	2.02888973226E-01	-3.73857341413E+01
7.52825651303E+10	1.88552678251E-01	-2.10956173918E+01	6.12435636420E-05	-7.28789352378E+01	8.26474341884E-05	-1.07709024964E+02	2.02404688123E-01	-3.72623030632E+01
7.52885771543E+10	1.91958567195E-01	-2.23378171112E+01	5.29787577280E-05	1.62315097076E+02	1.49938165197E-04	-1.46978405244E+02	2.04245053695E-01	-3.77687425603E+01
7.52945891784E+10	1.94234522134E-01	-2.30239747562E+01	1.19736774909E-04	-1.79195341516E+02	1.17542279975E-04	1.77002092491E+02	2.06092718676E-01	-3.86049206316E+01
7.53006012024E+10	1.93892121221E-01	-2.38871867779E+01	3.57248144550E-05	-1.69578739855E+02	1.10345840016E-04	1.60810077870E+02	2.04354298533E-01	-3.85005247021E+01
7.53066132265E+10	1.89291209526E-01	-2.21517645120E+01	4.01329274173E-05	1.52165860085E+02	8.68607185565E-05	1.58353320558E+02	2.01692130882E-01	-3.78107148703E+01
7.53126252505E+10	1.89590347728E-01	-2.28005770581E+01	6.48635107628E-05	1.24948225908E+02	1.42272701929E-04	1.30803106965E+02	1.99836198360E-01	-3.84773431211E+01
7.53186372745E+10	1.91979144539E-01	-2.31965351636E+01	5.37286313638E-05	1.18584412051E+02	2.91804856936E-05	1.26764484039E+02	2.01664989035E-01	-3.91509385582E+01
7.53246492986E+10	1.93125771620E-01	-2.46649210763E+01	6.01555503905E-05	1.05746551602E+02	1.68967577514E-05	-1.94987089350E+01	2.04065779340E-01	-3.94132506312E+01
7.53306613226E+10	1.92369148709E-01	-2.42939794366E+01	9.51777761908E-05	4.03489505360E+01	1.57355165793E-05	-6.36273586860E+01	2.05509634280E-01	-4.02414069181E+01
7.53366733467E+10	1.87116696447E-01	-2.25156223267E+01	8.10949946919E-05	-3.21981745793E+00	5.87204273164E-05	6.27120012979E-01	2.01399898484E-01	-4.07255589572E+01
7.53426853707E+10	1.89283470967E-01	-2.31759934683E+01	1.51409595863E-05	-5.54889882096E+01	5.80270389882E-05	-2.78152638293E+01	1.98859208592E-01	-3.87032595860E+01
7.53486973948E+10	1.95085845459E-01	-2.57158030675E+01	1.21759356820E-04	-5.50746533510E+01	7.91944575018E-06	-1.21805943646E+02	2.00573746322E-01	-3.99631746253E+01
7.53547094188E+10	1.89336553364E-01	-2.31663595210E+01	3.36216322790E-05	-1.68232873756E+02	4.89193837320E-05	4.92064653194E+01	2.03621201869E-01	-4.16825599803E+01
7.53607214429E+10	1.87980288399E-01	-2.23896122660E+01	6.23234909181E-05	1.08945347762E+02	4.46550890271E-05	9.11898656561E+01	2.03203641749E-01	-4.21291931906E+01
7.53667334669E+10	1.90194949368E-01	-2.46313348532E+01	5.45400695199E-05	1.07779671196E+01	5.47475304346E-05	1.32970569912E+02	1.97569657838E-01	-3.99150188332E+01
7.53727454910E+10	1.92122973905E-01	-2.56950191958E+01	6.54400560761E-05	2.55229074529E+01	6.95649841909E-05	9.33192035772E+01	1.98727633452E-01	-4.03587270599E+01
7.53787575150E+10	1.89066459173E-01	-2.53630585539E+01	2.93588844108E-05	-4.40618921235E+00	5.05019384062E-05	-9.82745788403E+01	1.97179694999E-01	-4.00733270251E+01
7.53847695391E+10	1.88911265936E-01	-2.40299703664E+01	3.58709598113E-05	-1.39794413142E+02	3.67310113014E-05	5.54685661127E+00	2.00130117669E-01	-4.20158145326E+01
7.53907815631E+10	1.87078156969E-01	-2.31338896930E+01	3.90161823743E-05	-1.71350616876E+01	5.39594436758E-05	-6.20836503402E+01	1.99611105473E-01	-4.27187212302E+01
7.53967935872E+10	1.90232348456E-01	-2.56749002642E+01	4.02493305024E-05	-8.39443165817E+01	4.10749738711E-05	-2.42729626100E+01	2.00233101567E-01	-4.18967936033E+01
7.54028056112E+10	1.92541657755E-01	-2.81050524995E+01	6.47039144418E-05	-6.58715437404E+01	3.36019964623E-05	5.45932175640E+01	1.99034307672E-01	-4.17446573264E+01
7.54088176353E+10	1.88757219613E-01	-2.70329283906E+01	3.24395213554E-05	-4.48850787555E+01	5.05914234113E-05	-6.18756221025E+01	1.96423843996E-01	-4.14893726187E+01
7.54148296593E+10	1.88933613167E-01	-2.56263661094E+01	3.10683234866E-05	-2.87019745258E+01	9.27906118741E-05	-3.23487484329E+01	1.96170412304E-01	-4.34848256300E+01
7.54208416834E+10	1.92660620619E-01	-2.69836436813E+01	2.98188586467E-05	-7.57501613662E+01	1.00210340725E-04	-8.74243206844E+01	1.97143545969E-01	-4.20658448506E+01
7.54268537074E+10	1.88251212047E-01	-2.54471585256E+01	7.62634186654E-05	-4.41916203765E+01	6.47041043557E-05	-1.31468234116E+02	1.98990609563E-01	-4.29580904392E+01
7.54328657315E+10	1.87865330034E-01	-2.70868415657E+01	5.97967376680E-05	-6.07614839929E+01	8.72486875712E-05	-1.01398534722E+01	1.98134334840E-01	-4.37959676702E+01
7.54388777555E+10	1.87496187518E-01	-2.73391842501E+01	7.87890486656E-05	-6.77924509394E+01	1.11073986562E-04	-8.25296299406E+01	1.96361925184E-01	-4.43907336863E+01
7.54448897796E+10	1.85433034009E-01	-2.73608097372E+01	1.08737515172E-04	-8.80033193773E+01	1.36146983794E-04	-1.04026308759E+02	1.95204255163E-01	-4.33464286585E+01
7.54509018036E+10	1.91438113723E-01	-2.84521062040E+01	8.75621390876E-05	-1.37328576219E+02	1.42848749826E-04	-1.64809504450E+02	1.96400534787E-01	-4.44144836331E+01
7.54569138277E+10	1.85424138614E-01	-2.54999560770E+01	5.81803951679E-05	-1.57491346492E+02	1.40331694188E-04	-1.56950364660E+02	1.96646306387E-01	-4.55719788978E+01
7.54629258517E+10	1.88835825769E-01	-2.72486441836E+01	6.55033289918E-05	-9.67650709519E+01	3.78642317844E-05	-1.90043025733E+01	1.97982708116E-01	-4.57907893916E+01
7.54689378758E+10	1.88492809882E-01	-2.93252900825E+01	8.47552306438E-05	-1.07317862531E+02	7.17817868990E-05	-3.84873267919E+01	1.97218018347E-01	-4.51034824601E+01
7.54749498998E+10	1.90144967401E-01	-2.88663639115E+01	5.65659222981E-05	-8.25421134395E+01	1.22430866975E-04	-1.05405112588E+02	1.96187996167E-01	-4.49121814439E+01
7.54809619238E+10	1.89166185292E-01	-2.86029593774E+01	1.21861210291E-04	-1.13745350789E+02	9.89337494673E-05	1.60626232102E+02	1.94878387902E-01	-4.46991614487E+01
7.54869739479E+10	1.89269770464E-01	-2.83362566168E+01	6.37067835395E-05	-1.37798581003E+02	9.57702225851E-05	1.66773913907E+02	1.94763918865E-01	-4.57206163824E+01
7.54929859719E+10	1.84240762925E-01	-2.63093618101E+01	8.77516324108E-05	-1.76327743039E+02	5.00909771619E-05	1.42624864603E+02	1.97330810030E-01	-4.67334102012E+01
7.54989979960E+10	1.83457038846E-01	-2.75429963925E+01	3.50195842536E-05	1.52966503402E+02	1.94646772459E-05	-9.21677223732E+01	1.96144501277E-01	-4.64905434336E+01
7.55050100200E+10	1.85854012761E-01	-2.81416034832E+01	5.37355546355E-05	-1.16706695901E+02	5.51040029542E-05	-1.34340009945E+02	1.97113502801E-01	-4.70895304593E+01
7.55110220441E+10	1.89657267384E-01	-2.97496798396E+01	7.84063286287E-05	-1.60461405555E+02	8.15069649340E-05	-1.37293843180E+02	1.96111025429E-01	-4.79947110490E+01
7.55170340681E+10	1.84715296132E-01	-2.81709397852E+01	6.83190026515E-05	1.66845931558E+02	5.76854812597E-05	-1.27765853166E+02	1.95282069527E-01	-4.69567459510E+01
7.55230460922E+10	1.84579703003E-01	-2.86639720022E+01	1.38290618094E-04	1.43703770004E+02	1.10913765312E-04	-1.61931805999E+02	1.94582406915E-01	-4.67060478242E+01
7.55290581162E+10	1.85156122805E-01	-2.94410510455E+01	6.51888329842E-05	-1.72581266227E+02	5.58729579819E-05	1.33489289494E+02	1.93368283759E-01	-4.64901923011E+01
7.55350701403E+10	1.88712714411E-01	-3.09454053731E+01	7.59689594903E-05	8.69144975606E+01	1.18423450443E-04	1.57727982469E+02	1.92560104212E-01	-4.79235837570E+01
7.55410821643E+10	1.88332961072E-01	-3.10053890432E+01	1.07958216094E-04	1.62096294329E+02	1.82498774460E-04	1.39580655575E+02	1.94949788808E-01	-4.88065260150E+01
7.55470941884E+10	1.88304584711E-01	-3.08597742349E+01	7.83164140708E-05	1.07513925179E+02	1.42168629239E-04	1.49300621718E+02	1.93312462479E-01	-4.79375815625E+01
7.55531062124E+10	1.86657421260E-01	-3.02448066128E+01	7.18069557009E-05	1.24671408014E+02	1.29092519045E-04	1.54370301035E+02	1.93104024463E-01	-4.75208135291E+01
7.55591182365E+10	1.82916146309E-01	-2.98100778873E+01	1.30470929351E-04	7.73235213025E+01	5.27833348151E-05	1.67157270771E+02	1.92457820798E-01	-4.95388165014E+01
7.55651302605E+10	1.83781495848E-01	-3.00103270435E+01	1.34709946791E-04	5.92976873789E+01	1.13891360797E-05	7.52891153143E+01	1.91966881471E-01	-4.84924744356E+01
7.55711422846E+10	1.87897888890E-01	-3.07270162431E+01	5.52266461315E-05	4.36542174882E+01	7.59824083054E-06	-1.79481935829E+02	1.94022835515E-01	-4.84982556916E+01
7.55771543086E+10	1.86212457840E-01	-3.13257598258E+01	8.53851721924E-05	7.82646753934E+01	9.35665683578E-06	-2.18834241647E+01	1.93138970822E-01	-4.94745824570E+01
7.55831663327E+10	1.82799265627E-01	-3.12066156148E+01	3.64493877037E-05	-1.45419678992E+02	4.26774164602E-05	1.15619327392E+02	1.90992149934E-01	-4.91775778116E+01
7.55891783567E+10	1.85079966832E-01	-3.15785037642E+01	8.20750530627E-05	8.35686928652E+01	1.13135400206E-04	1.15711473434E+02	1.91681155043E-01	-4.95379247978E+01
7.55951903808E+10	1.85398688199E-01	-3.21019604538E+01	9.57514844789E-05	7.33978706779E+01	4.75018920857E-05	9.84409593058E+01	1.93815851651E-01	-5.02878145212E+01
7.56012024048E+10	1.88889861091E-01	-3.27891520123E+01	1.27363816387E-04	6.17166972826E+01	5.59139777985E-05	1.42067120051E+02	1.91969175107E-01	-4.99833908265E+01
7.56072144289E+10	1.84206715900E-01	-3.10498511335E+01	1.33226047748E-04	3.21647894207E+01	1.05848023655E-04	1.13972538990E+02	1.89813102710E-01	-5.06984060108E+01
7.56132264529E+10	1.85048153901E-01	-3.24929007696E+01	1.10917871923E-04	2.09114415390E+01	7.23033080292E-05	6.67258201656E+01	1.91605325266E-01	-5.07026951983E+01
7.56192384770E+10	1.83796447216E-01	-3.32831253262E+01	9.20302271477E-05	-1.49198939277E+01	9.26245436300E-05	7.90725389527E+01	1.91595209897E-01	-5.18181067559E+01
7.56252505010E+10	1.82896606824E-01	-3.17358182549E+01	7.33610595234E-05	4.32775614575E+01	7.91381266257E-05	7.32389956745E+01	1.92621020725E-01	-5.23839434737E+01
7.56312625251E+10	1.85338202727E-01	-3.23842772710E+01	5.46033077263E-05	7.90377188571E+01	1.22323076265E-04	2.98654595483E+01	1.90535907942E-01	-5.27229931721E+01
7.56372745491E+10	1.83078304059E-01	-3.19852324177E+01	1.08530678692E-04	1.74657399858E+01	1.21791505989E-04	1.18677719465E+01	1.89105644008E-01	-5.02169499903E+01
7.56432865731E+10	1.82841041944E-01	-3.37782599300E+01	1.18148662606E-04	-5.45858650790E+01	9.59512955670E-05	5.70801849290E+00	1.91162032089E-01	-5.11518024822E+01
7.56492985972E+10	1.83693675708E-01	-3.36091231197E+01	4.51790449759E-05	-7.15388752474E+01	5.10574372123E-05	-1.16236771023E+01	1.90768227873E-01	-5.35584608213E+01
7.56553106212E+10	1.85756122328E-01	-3.41536281298E+01	9.84164647465E-05	-6.13977826033E+01	7.42104283706E-05	-8.25498521794E+01	1.90334359886E-01	-5.36622320736E+01
7.56613226453E+10	1.83834504351E-01	-3.21690202693E+01	5.67635410972E-05	-9.32486101068E+01	4.03614551416E-05	1.52140383044E+02	1.89916930721E-01	-5.37861873778E+01
7.56673346693E+10	1.82816046585E-01	-3.27723199043E+01	1.19417515965E-04	-6.98405593434E+01	4.85952038140E-05	4.31098196136E+01	1.90873865136E-01	-5.43148129946E+01
7.56733466934E+10	1.82203256318E-01	-3.37600794934E+01	4.39418077104E-05	1.58447933277E+01	1.85028365068E-05	6.58840693548E+01	1.88881129086E-01	-5.31186713580E+01
7.56793587174E+10	1.83159627745E-01	-3.49165041641E+01	3.71409740818E-05	-5.28001097381E+01	9.63546995166E-05	1.58506709435E+01	1.86935382309E-01	-5.36925269473E+01
7.56853707415E+10	1.81165080199E-01	-3.35952847417E+01	8.00512672234E-05	-1.50366651881E+02	1.07098946207E-04	-5.29895414855E+01	1.90859913017E-01	-5.55949307393E+01
7.56913827655E+10	1.83380402695E-01	-3.49174027455E+01	3.76171476623E-05	4.85879077966E+01	1.34219742161E-04	-4.19586210522E+01	1.87605418315E-01	-5.39764531439E+01
7.56973947896E+10	1.82886109739E-01	-3.43488409173E+01	3.83167510667E-05	-1.42430507038E+02	7.00765726920E-05	-9.73556178683E+01	1.86488939804E-01	-5.42187768982E+01
7.57034068136E+10	1.84771065657E-01	-3.42444991905E+01	4.51481435186E-05	-4.21657322879E+01	2.20965848547E-05	-1.00099062005E+02	1.85487351709E-01	-5.38942542933E+01
7.57094188377E+10	1.80405972673E-01	-3.40798193565E+01	5.06722452824E-05	-9.38191442775E+01	4.54196054559E-05	-1.97827682566E+01	1.87059804149E-01	-5.51172751553E+01
7.57154308617E+10	1.82160037861E-01	-3.49424193868E+01	3.40703243160E-05	-8.27095041028E+01	4.86789755818E-05	-6.58240301517E+01	1.88147085084E-01	-5.57893603123E+01
7.57214428858E+10	1.84494935440E-01	-3.48454711196E+01	1.58440839766E-05	1.41600697670E+02	5.08826024836E-05	-7.81467355923E+01	1.89773273670E-01	-5.63971653569E+01
7.57274549098E+10	1.86156241065E-01	-3.59410517480E+01	3.06476684254E-05	-1.02720006516E+02	6.77372114490E-05	-1.10500284329E+02	1.86305593252E-01	-5.48881003898E+01
7.57334669339E+10	1.84352648004E-01	-3.70053733717E+01	7.06808914174E-05	-1.66435123852E+02	1.01139983148E-04	-1.10676539740E+02	1.88834843543E-01	-5.66526883434E+01
7.57394789579E+10	1.82336597459E-01	-3.65842409351E+01	1.09446951408E-04	1.63287755397E+02	1.14339250129E-04	-1.36843753222E+02	1.87663361980E-01	-5.77377270005E+01
7.57454909820E+10	1.80637842731E-01	-3.42519866636E+01	4.82705842946E-05	1.06379748326E+02	5.49137134493E-05	-9.97831952816E+01	1.84912681179E-01	-5.54859892799E+01
7.57515030060E+10	1.86621216862E-01	-3.72275787890E+01	3.75372086616E-05	1.09212656181E+02	4.52686097705E-05	-4.07362793524E+01	1.88946653839E-01	-5.77975656295E+01
7.57575150301E+10	1.84358394002E-01	-3.68568664344E+01	2.54277328034E-05	1.02660957347E+02	7.02538455237E-05	-3.46838922272E+01	1.85672509151E-01	-5.65820900521E+01
7.57635270541E+10	1.79325388021E-01	-3.51833172199E+01	8.63325495630E-05	-9.28741214128E+01	5.97054450297E-05	-8.88167105886E+01	1.83761389291E-01	-5.75991444514E+01
7.57695390782E+10	1.81786504583E-01	-3.67463626332E+01	2.59834075101E-05	-4.32394832077E-01	1.14285350201E-04	-1.05988104198E+02	1.88746227517E-01	-5.88392712395E+01
7.57755511022E+10	1.82955623558E-01	-3.74955888358E+01	5.85596398416E-05	-5.57724476189E+01	1.69207669996E-04	-1.57801682068E+02	1.86017561930E-01	-5.78977664109E+01
7.57815631263E+10	1.81014593772E-01	-3.63735654287E+01	7.15042915725E-05	3.37756045044E+01	4.08877196828E-05	-1.37314199433E+02	1.84283894055E-01	-5.69966102482E+01
7.57875751503E+10	1.80444704627E-01	-3.68154736666E+01	8.72792720348E-05	5.80539725807E+01	2.94032025140E-05	-1.62804859667E+02	1.84375545953E-01	-6.01653142048E+01
7.57935871743E+10	1.83070346516E-01	-3.67864146159E+01	4.13703425147E-05	1.43806565305E+02	1.35759010157E-05	2.08376264734E+01	1.85618286587E-01	-5.99882669979E+01
7.57995991984E+10	1.80655373784E-01	-3.90041284261E+01	4.90001512952E-05	7.17371556414E+01	5.06503982632E-05	-8.13883100924E+01	1.84415315552E-01	-5.80509320324E+01
7.58056112224E+10	1.83521154988E-01	-3.88837247160E+01	2.53406232628E-05	-1.15126667984E+02	3.74672647451E-05	5.17354909259E+01	1.84303190907E-01	-5.89949231315E+01
7.58116232465E+10	1.85271732062E-01	-3.90556738324E+01	3.46249097911E-05	-1.57931460771E+02	9.43729681824E-06	1.45823640254E+02	1.83846626731E-01	-6.13063708081E+01
7.58176352705E+10	1.80897044169E-01	-3.81911470594E+01	7.18239694147E-05	-1.43616693485E+02	6.63916545120E-05	-1.20663169098E+02	1.82293818197E-01	-5.99711587203E+01
7.58236472946E+10	1.82475859472E-01	-3.98563078529E+01	3.01597819440E-05	1.49763330146E+02	1.42092647532E-05	-1.18134885531E+02	1.82880618935E-01	-5.92914090410E+01
7.58296593186E+10	1.80769590929E-01	-3.90798906844E+01	6.59081810950E-05	-1.26323094419E+02	3.12446537666E-05	1.78087377587E+02	1.84744330039E-01	-6.17247971923E+01
7.58356713427E+10	1.80198165470E-01	-3.86000931446E+01	3.57378992220E-05	-1.70206492380E+01	2.53406179547E-05	-1.06208494804E+02	1.82509305416E-01	-6.12612175050E+01
7.58416833667E+10	1.79575632020E-01	-3.83084654507E+01	2.74515799025E-05	-6.52261789911E+01	5.64864224082E-05	-6.15712880852E+01	1.80403759815E-01	-6.04097531433E+01
7.58476953908E+10	1.79317312183E-01	-4.00185040972E+01	7.39009141610E-05	-1.56255077889E+02	7.26913273623E-05	6.60449505934E+01	1.79821879229E-01	-6.15600786360E+01
7.58537074148E+10	1.82365878170E-01	-4.03752663412E+01	1.60189669812E-05	-8.81619355723E+01	8.43022900282E-05	1.19600581151E+02	1.83647608657E-01	-6.30092473223E+01
7.58597194389E+10	1.80579699519E-01	-3.85448438548E+01	4.36438388614E-05	-1.72123638745E+02	3.71924716671E-05	-9.44793929196E+01	1.81776945009E-01	-6.42899655947E+01
7.58657314629E+10	1.80060718843E-01	-3.93476760261E+01	1.53001433976E-05	1.71684877410E+02	3.37098876538E-05	-2.06125790508E+00	1.82280735960E-01	-6.30507534595E+01
7.58717434870E+10	1.78865852500E-01	-4.15608441553E+01	6.50222313384E-05	-1.39159329128E+02	2.08533561458E-05	-1.04111495743E+02	1.80809819978E-01	-6.14801223800E+01
7.58777555110E+10	1.78025838455E-01	-3.90607835875E+01	9.45737171050E-05	-1.12591733077E+02	6.72713468831E-05	-1.08077964578E+02	1.82650147272E-01	-6.36973621214E+01
7.58837675351E+10	1.77059572022E-01	-4.07912465094E+01	9.19945689055E-05	-1.27115901664E+02	1.31869187898E-04	-1.20654101463E+02	1.80715730724E-01	-6.46943051527E+01
7.58897795591E+10	1.77594404693E-01	-3.98768630564E+01	7.23581576529E-05	1.51028591464E+02	2.55297617335E-05	7.22671483963E+01	1.78670524910E-01	-6.27532330708E+01
7.58957915832E+10	1.79401278791E-01	-4.18710572123E+01	9.04868142301E-05	-1.31529577079E+02	3.98338380624E-05	-3.19174208897E+01	1.78256403216E-01	-6.48363920781E+01
7.59018036072E+10	1.79516735171E-01	-4.14233828571E+01	7.26737824173E-05	-1.39248887245E+02	4.92776134289E-05	-1.62963802117E+02	1.80099503561E-01	-6.62935648953E+01
7.59078156313E+10	1.78622989179E-01	-4.15435902448E+01	1.04050705899E-04	-1.63522255345E+02	5.58095370269E-05	1.45435839820E+02	1.79735073860E-01	-6.51233607082E+01
7.59138276553E+10	1.76520081405E-01	-4.10755250169E+01	6.27082049962E-05	-1.36631024044E+02	1.59709909737E-05	-1.19488975396E+02	1.78285276208E-01	-6.50350366247E+01
7.59198396794E+10	1.80955291941E-01	-4.23836575451E+01	1.11884670999E-04	1.74805508128E+02	1.05539955714E-04	1.01853643594E+02	1.78728888115E-01	-6.63922260935E+01
7.59258517034E+10	1.78047074731E-01	-4.06248109924E+01	1.38656202566E-04	1.15483797145E+02	4.77429788207E-05	1.26200981680E+02	1.79759046594E-01	-6.71422931242E+01
7.59318637275E+10	1.77794120674E-01	-4.17102422638E+01	1.37236092115E-04	1.09326022960E+02	2.23774076882E-05	7.65039016784E+01	1.79488385358E-01	-6.70034247818E+01
7.59378757515E+10	1.76014572179E-01	-4.24424073217E+01	1.23260390505E-04	1.00282840363E+02	6.91393424018E-05	1.43248352800E+02	1.77461602012E-01	-6.71888315073E+01
7.59438877756E+10	1.79353917486E-01	-4.25778001750E+01	6.40810991166E-05	4.60734149148E+01	5.27774114574E-05	-2.80036541056E+00	1.76955242893E-01	-6.57417266311E+01
7.59498997996E+10	1.80076274247E-01	-4.32041080335E+01	4.65631207896E-05	8.98586128260E+01	2.18827133552E-05	1.76164601654E+02	1.77638802337E-01	-6.85605534259E+01
7.59559118236E+10	1.78767475957E-01	-4.30365210550E+01	4.89945337839E-05	9.98914557831E+01	3.44444476792E-05	-1.04555407873E+02	1.75811988723E-01	-6.72823940792E+01
7.59619238477E+10	1.77494413612E-01	-4.43161529623E+01	5.78038342839E-05	1.63557733886E+02	6.85386224695E-05	-1.62052837774E+02	1.73932006829E-01	-6.64630085419E+01
7.59679358717E+10	1.76751046487E-01	-4.24529727389E+01	7.59588271641E-05	1.00859102026E+02	5.44697506184E-05	1.49026449947E+02	1.75475877261E-01	-6.92700152503E+01
7.59739478958E+10	1.78703837365E-01	-4.27735516728E+01	9.89937412000E-05	1.02736371092E+02	1.34585532662E-04	1.51458384474E+02	1.75615809709E-01	-6.93213875979E+01
7.59799599198E+10	1.79817119321E-01	-4.48665124805E+01	9.70825888737E-05	9.51479634743E+01	6.04156126420E-05	1.20932258175E+02	1.75625578290E-01	-6.87891650251E+01
7.59859719439E+10	1.75002571189E-01	-4.47329764143E+01	1.10098398441E-04	4.67048408408E+01	3.42060853786E-05	1.44605171871E+02	1.73393853608E-01	-6.88964825401E+01
7.59919839679E+10	1.78060882503E-01	-4.52565124613E+01	7.70902590246E-05	3.87478358147E+01	1.26011971215E-04	9.38135748183E+01	1.74130755588E-01	-6.94187031206E+01
7.59979959920E+10	1.78676628482E-01	-4.45456224802E+01	1.69054997843E-05	1.44304320530E+02	8.91882118118E-05	1.20582256974E+02	1.70460943009E-01	-6.81701533041E+01
7.60040080160E+10	1.76077113475E-01	-4.40260382700E+01	1.30473853764E-04	2.69688745529E+01	1.31515495854E-04	7.29236171944E+01	1.74650251503E-01	-7.09727952880E+01
7.60100200401E+10	1.76690978459E-01	-4.50927965374E+01	4.93972122493E-05	4.03358048200E+01	1.12747826706E-04	8.34395546630E+01	1.72198992229E-01	-7.08579366354E+01
7.60160320641E+10	1.74734432441E-01	-4.42350767388E+01	4.12563410732E-05	-5.93219577241E+00	6.03542877132E-05	6.21847872285E+01	1.73557933508E-01	-7.06581945938E+01
7.60220440882E+10	1.75647356051E-01	-4.59328765751E+01	5.68961106068E-05	-2.80107290505E+00	8.28312342130E-05	7.31793018928E+01	1.71306178891E-01	-6.92984161999E+01
7.60280561122E+10	1.76024914475E-01	-4.55870224746E+01	8.71340110210E-05	-7.99593639084E+01	3.68387175906E-05	6.95552979216E+01	1.70645068148E-01	-7.19686750919E+01
7.60340681363E+10	1.74333948326E-01	-4.35251639945E+01	3.52532751733E-05	-4.66075703625E+01	6.77100596329E-05	9.52997325926E+01	1.69614776765E-01	-7.20143347045E+01
7.60400801603E+10	1.74529820561E-01	-4.47275683800E+01	7.39939686747E-05	-5.74688737169E+01	8.19338179129E-05	6.27135297015E+01	1.69957899274E-01	-7.17277275042E+01
7.60460921844E+10	1.74527038687E-01	-4.53190547645E+01	3.15079817696E-05	4.77338619813E+01	1.17319724874E-04	6.52764322841E+01	1.68764704842E-01	-7.10733555780E+01
7.60521042084E+10	1.71807400176E-01	-4.41691488257E+01	6.82692142616E-05	-6.45385319593E+01	8.78741362939E-05	1.77313869100E+01	1.68525286817E-01	-7.14719598736E+01
7.60581162325E+10	1.74117815178E-01	-4.68068400409E+01	4.05458780001E-05	-1.64518687674E+01	4.55322130309E-05	3.61242952781E+01	1.70165468680E-01	-7.33566094648E+01
7.60641282565E+10	1.75524564631E-01	-4.64581973850E+01	8.50544205993E-05	-5.49233840406E+01	7.39157291770E-05	3.11878374206E+01	1.69104526334E-01	-7.41665540876E+01
7.60701402806E+10	1.72331217362E-01	-4.48959393385E+01	6.20510136905E-05	-3.50043695874E+01	1.04153761261E-04	1.06228765954E+00	1.68240201964E-01	-7.31303783008E+01
7.60761523046E+10	1.73764422678E-01	-4.67220152296E+01	2.70556114638E-05	-1.49512526956E+02	6.20661653064E-05	-3.90329998027E+01	1.65908091483E-01	-7.17138096574E+01
7.60821643287E+10	1.75567117292E-01	-4.63152577267E+01	3.56805525651E-05	1.57580557199E+02	6.47488063084E-05	-2.27135778435E+00	1.66846905900E-01	-7.32121454675E+01
7.60881763527E+10	1.75102647226E-01	-4.68392380436E+01	4.07755076724E-05	-2.72443064674E+01	1.64783476025E-04	3.99395691946E+00	1.69220643971E-01	-7.60739409867E+01
7.60941883768E+10	1.72158387336E-01	-4.78643771015E+01	3.92043124751E-05	-3.37646082787E+01	1.69985875838E-04	-1.64425858239E+01	1.66446523208E-01	-7.49609059227E+01
7.61002004008E+10	1.73229272896E-01	-4.72320230668E+01	7.02829709129E-05	-5.69943444753E+01	1.55565817302E-04	-3.20294141167E+01	1.64381352946E-01	-7.38517757153E+01
7.61062124248E+10	1.74950394556E-01	-4.70849985171E+01	3.09851514647E-05	-2.14919673379E+01	9.67947636854E-05	-6.12794472523E+01	1.63258463691E-01	-7.32414006960E+01
7.61122244489E+10	1.71566761238E-01	-4.73713538573E+01	9.31054626205E-06	-5.03600665197E+01	1.37413578073E-04	-5.99800775479E+01	1.64526436491E-01	-7.57112605792E+01
7.61182364729E+10	1.74637899382E-01	-4.76022486313E+01	7.86699987638E-05	7.04968485244E+01	8.20402945476E-05	-5.74257686335E+01	1.65898928155E-01	-7.66235644258E+01
7.61242484970E+10	1.70487948270E-01	-4.69909007275E+01	8.75712887097E-05	-2.92629566390E+01	4.61121574096E-05	-1.42252057664E+02	1.64492891565E-01	-7.63867701458E+01
7.61302605210E+10	1.71727144613E-01	-4.76694990260E+01	6.69858931339E-05	-1.70003795822E+01	1.02360680400E-04	-8.52248934102E+01	1.62979671293E-01	-7.53980343321E+01
7.61362725451E+10	1.71190943572E-01	-4.79341695162E+01	1.08242776610E-04	-5.36786022541E+01	4.41908653005E-05	-1.16590125736E+02	1.61387272338E-01	-7.55322710888E+01
7.61422845691E+10	1.73905199208E-01	-4.89954586854E+01	4.94213150610E-05	-8.46102680424E+01	1.64694591928E-04	-1.03159813855E+02	1.61977726927E-01	-7.67109107608E+01
7.61482965932E+10	1.69895842881E-01	-4.82721453113E+01	6.01791523343E-05	-1.04433994951E+02	1.16449590128E-04	-1.26357223697E+02	1.64694509822E-01	-7.82700711062E+01
7.61543086172E+10	1.74673290524E-01	-4.92196925638E+01	8.70517319167E-05	-9.11565757162E+01	9.41894222005E-05	-1.30283108677E+02	1.61470383173E-01	-7.62468924252E+01
7.61603206413E+10	1.71191855040E-01	-4.67497035146E+01	6.23964457350E-05	-1.51452932077E+02	1.36174050190E-04	1.42231750977E+02	1.62477227562E-01	-7.75132301824E+01
7.61663326653E+10	1.71490287760E-01	-4.90057369517E+01	1.75635347329E-05	-7.01678683966E+01	7.22071039460E-05	-1.64629105641E+02	1.60821315590E-01	-7.74598584699E+01
7.61723446894E+10	1.73808623857E-01	-5.05200729843E+01	7.61154468046E-05	7.61926787008E+01	2.86627941268E-05	-1.79702263848E+02	1.61639040255E-01	-7.90121971674E+01
7.61783567134E+10	1.73506375233E-01	-5.07032469393E+01	6.03120065760E-05	-1.13507325843E+02	6.37112252670E-05	1.75306170474E+02	1.59200632146E-01	-7.74440784521E+01
7.61843687375E+10	1.71143992318E-01	-5.10022683424E+01	1.08916509196E-04	-1.07491824123E+02	1.24103559469E-04	-1.59785109535E+02	1.60205897487E-01	-7.93425835364E+01
7.61903807615E+10	1.71468236644E-01	-5.00270707676E+01	1.29869731180E-04	-1.33667134480E+02	1.06058158839E-04	-1.60526569187E+02	1.59781289270E-01	-7.95306804899E+01
7.61963927856E+10	1.71366140044E-01	-4.88849834663E+01	6.02225870640E-05	-1.13830905212E+02	1.22559830968E-05	2.71982418653E+01	1.56606453017E-01	-7.75025555421E+01
7.62024048096E+10	1.68283975353E-01	-5.00544706811E+01	1.01141496818E-04	-1.13702954074E+02	2.58880793142E-05	-5.06843605801E+01	1.59090999527E-01	-7.93734359034E+01
7.62084168337E+10	1.68954623783E-01	-5.05443516281E+01	6.94758406658E-05	-1.53657561592E+02	2.98026308086E-05	1.01588648989E+02	1.58581623412E-01	-8.02961938665E+01
7.62144288577E+10	1.69018523850E-01	-4.84820113275E+01	4.69060756744E-05	-1.63027529668E+02	4.67266132564E-05	-1.79942825396E+02	1.58628241955E-01	-8.00230694103E+01
7.62204408818E+10	1.71114066713E-01	-5.17285787249E+01	1.10161435371E-04	-1.74201596566E+02	6.70906474263E-05	1.60518917451E+02	1.57047491379E-01	-7.99303095575E+01
7.62264529058E+10	1.70816655022E-01	-5.25389776182E+01	1.14507806220E-04	1.71240317742E+02	7.94001350907E-05	9.28310900974E+01	1.57573536289E-01	-8.08844956781E+01
7.62324649299E+10	1.68828958461E-01	-5.02138445288E+01	1.18996830899E-04	1.71243681647E+02	9.74973723750E-05	9.72732786999E+01	1.54794423688E-01	-7.91452181700E+01
7.62384769539E+10	1.68566258109E-01	-5.02261513087E+01	7.02056200882E-05	-1.65943357076E+02	5.27905031731E-05	8.63367236631E+01	1.55751356110E-01	-8.13655437344E+01
7.62444889780E+10	1.67322477094E-01	-4.92999874264E+01	1.07014780462E-04	1.63935536857E+02	3.54691120102E-06	3.70834263079E+01	1.56440259791E-01	-8.21613834067E+01
7.62505010020E+10	1.70493071922E-01	-5.13482949646E+01	1.36303493345E-04	1.53999278676E+02	6.56233466544E-05	1.05718233962E+02	1.57009950706E-01	-8.27821056206E+01
7.62565130261E+10	1.70103793066E-01	-5.24280881982E+01	1.22075364565E-04	-1.57564105089E+02	6.44962972246E-05	1.49559992189E+02	1.54643211880E-01	-8.20765519884E+01
7.62625250501E+10	1.68634756101E-01	-5.14066307355E+01	9.17254519753E-05	1.79342885659E+02	1.25751241032E-04	8.11735629616E+01	1.55614148275E-01	-8.19691703442E+01
7.62685370741E+10	1.68601041632E-01	-5.21809239260E+01	1.35514025185E-04	1.01291826627E+02	3.32320583474E-05	-7.70493998540E+00	1.53075925490E-01	-8.17658011854E+01
7.62745490982E+10	1.68547811036E-01	-5.35053631262E+01	1.46630725425E-04	1.16226279144E+02	1.20149031907E-04	1.77301555103E+01	1.53962211453E-01	-8.21343546952E+01
7.62805611222E+10	1.69306008443E-01	-5.10111971466E+01	5.11222477553E-05	1.21633103957E+02	6.07236232539E-05	6.62760407350E+01	1.54571948672E-01	-8.41768086163E+01
7.62865731463E+10	1.68880910867E-01	-5.17037425006E+01	1.02343249050E-04	9.46503796151E+01	5.62131771665E-05	9.76235122311E+00	1.51314656905E-01	-8.25625334205E+01
7.62925851703E+10	1.67384716654E-01	-5.29756938159E+01	1.36369547206E-04	7.97549701481E+01	7.28092014385E-05	9.73142435805E+00	1.51918348792E-01	-8.32300354919E+01
7.62985971944E+10	1.69313405138E-01	-5.42306211099E+01	6.60235287602E-05	8.51126501127E+01	2.71889367521E-05	-3.65820982088E+01	1.51906871740E-01	-8.38049489780E+01
7.63046092184E+10	1.68360157026E-01	-5.56829033940E+01	8.99324952762E-05	9.36144621338E+01	1.45135269994E-04	1.99052715207E+00	1.52485515874E-01	-8.45175213224E+01
7.63106212425E+10	1.68409018889E-01	-5.43076893474E+01	1.16637671226E-04	5.36462960519E+01	5.98573148569E-05	-4.65124421182E+01	1.52079221698E-01	-8.49392641625E+01
7.63166332665E+10	1.65817028187E-01	-5.35837449296E+01	7.89419979140E-05	5.16610337897E+01	4.52627659399E-05	-8.71014343631E+01	1.50804695259E-01	-8.49766236268E+01
7.63226452906E+10	1.69928741265E-01	-5.31214116902E+01	3.97571467451E-05	2.60080698933E+01	3.52030971451E-05	3.39233658863E+01	1.49893695827E-01	-8.50510617368E+01
7.63286573146E+10	1.65924257441E-01	-5.22670630348E+01	6.17819243557E-05	8.43278701725E+01	1.37918110597E-05	1.40188774219E+02	1.50009048826E-01	-8.57414191391E+01
7.63346693387E+10	1.66133299900E-01	-5.40500764054E+01	1.47496464106E-04	1.26974841056E+00	5.51133937827E-05	3.39011072890E+01	1.51017085355E-01	-8.63232025475E+01
7.63406813627E+10	1.66679824190E-01	-5.45532462076E+01	6.21074706254E-05	2.97258065683E+01	2.02872898871E-05	2.91779864300E+00	1.47910287538E-01	-8.61483449923E+01
7.63466933868E+10	1.69804624162E-01	-5.56180674198E+01	1.47948446606E-04	5.60461672030E+00	1.26009532904E-05	2.69564076343E+00	1.47234223503E-01	-8.55984265871E+01
7.63527054108E+10	1.66430789898E-01	-5.40453533083E+01	1.19887951677E-04	-2.01357046154E+01	6.81946989594E-05	-1.00888289482E+01	1.50649911431E-01	-8.80842931837E+01
7.63587174349E+10	1.65029041006E-01	-5.24586019566E+01	9.12097494217E-05	-2.97199053327E+01	3.70899123127E-05	-1.00670515157E+02	1.50001055380E-01	-8.78938362123E+01
7.63647294589E+10	1.68036832127E-01	-5.53178164843E+01	1.07679706755E-04	-6.91264752499E+01	5.03629322986E-05	-5.56646848052E+00	1.47961221250E-01	-8.76042813756E+01
7.63707414830E+10	1.67961696090E-01	-5.61078284503E+01	5.79767924690E-05	-2.73923403793E+01	8.61278396745E-05	1.66291026662E+02	1.47092787579E-01	-8.85855643339E+01
7.63767535070E+10	1.66713851816E-01	-5.45845630724E+01	2.59500717944E-05	4.65517947534E+01	2.21843253196E-05	-1.16080942848E+02	1.47250017757E-01	-8.83648500744E+01
7.63827655311E+10	1.66239175595E-01	-5.57338972115E+01	7.15377086033E-05	-6.44603379757E+01	5.32855864678E-05	1.50356883451E+02	1.46003193968E-01	-8.82191940174E+01
7.63887775551E+10	1.66756887537E-01	-5.61351843345E+01	7.54267226317E-05	-1.18712854599E+02	1.15651353196E-04	1.75751701745E+02	1.46161681202E-01	-8.89722115622E+01
7.63947895792E+10	1.64596108335E-01	-5.37883509520E+01	8.27572480540E-05	-1.45531186249E+02	6.69498359653E-05	9.50661355925E+01	1.45832719967E-01	-8.90808104202E+01
7.64008016032E+10	1.63425251526E-01	-5.72372950237E+01	4.07228487398E-05	1.75351163925E+02	7.26325076080E-05	1.35924077594E+02	1.43130294754E-01	-8.85678941889E+01
7.64068136273E+10	1.67229223314E-01	-5.68231527101E+01	3.31935744742E-05	1.14591554210E+02	8.05964712306E-05	9.09310362658E+01	1.42850744668E-01	-8.95249284054E+01
7.64128256513E+10	1.66794751228E-01	-5.81632644035E+01	8.16329828870E-05	1.64106597406E+02	7.12046102058E-05	5.19213933191E+01	1.44478087281E-01	-9.15063574629E+01
7.64188376754E+10	1.64016176496E-01	-5.59386548223E+01	5.65963630943E-05	1.09805550818E+02	9.54466841897E-05	3.59452023525E+01	1.43600287156E-01	-9.05192765670E+01
7.64248496994E+10	1.62992603523E-01	-5.48708216109E+01	1.01408801853E-04	1.50879944273E+02	1.44950240004E-04	3.25993655480E+01	1.42759244741E-01	-9.16332681937E+01
7.64308617234E+10	1.64979248215E-01	-5.60341885046E+01	4.91668052802E-05	1.49453648455E+02	7.02055666876E-05	4.95151345136E+01	1.41452721820E-01	-9.09894903937E+01
7.64368737475E+10	1.65642767605E-01	-5.74574732443E+01	8.87623365377E-05	-2.00301281628E+01	1.18609928256E-04	1.61841578591E+01	1.42637857356E-01	-9.17405823350E+01
7.64428857715E+10	1.66003130421E-01	-5.83293583300E+01	2.39397227602E-05	-9.95342325805E+01	1.32331770455E-04	6.59090268083E+00	1.42424773389E-01	-9.23720140586E+01
7.64488977956E+10	1.64846122052E-01	-5.91257730648E+01	3.25545224653E-05	1.26912233308E+02	8.03004210302E-05	-4.75260578197E+01	1.40412929823E-01	-9.12097387856E+01
7.64549098196E+10	1.61846799407E-01	-5.71717232188E+01	4.71227815145E-05	1.41515828620E+02	1.16818683876E-04	-1.92840354713E+01	1.39835750625E-01	-9.13502419972E+01
7.64609218437E+10	1.61631937542E-01	-5.70853729624E+01	8.30923932590E-05	-1.76146574792E+02	2.94868063585E-05	2.87808460638E+01	1.39919871995E-01	-9.31137307328E+01
7.64669338677E+10	1.61875068126E-01	-5.69886927449E+01	3.89996116589E-05	1.11961383644E+02	3.82891471560E-05	1.86257046678E+01	1.39353684002E-01	-9.38849236330E+01
7.64729458918E+10	1.63679133087E-01	-5.79724905731E+01	8.94497085098E-05	3.15972179191E+01	4.77688304780E-05	7.49755508988E+00	1.40274094165E-01	-9.47237375745E+01
7.64789579158E+10	1.63966087963E-01	-5.75483064149E+01	2.66775073287E-05	6.70528004142E+00	1.40403901957E-04	-4.82292234295E+01	1.37929737219E-01	-9.32400801699E+01
7.64849699399E+10	1.63178351590E-01	-5.74180452801E+01	6.60157415994E-05	2.99179321392E+01	2.11950432331E-04	-2.67303270797E+01	1.37890100649E-01	-9.39029484195E+01
7.64909819639E+10	1.60562424263E-01	-5.55226547982E+01	3.22047313618E-05	-5.04662826227E+01	1.72676560604E-04	-3.15430342927E+01	1.38856755987E-01	-9.62089678986E+01
7.64969939880E+10	1.63281363070E-01	-5.97063178987E+01	9.71341839349E-05	-4.93023828584E+01	1.56447823297E-04	-7.73364194733E+01	1.37071729887E-01	-9.61703197107E+01
7.65030060120E+10	1.62367538376E-01	-5.99154949830E+01	8.54500726246E-05	-2.44034956724E+01	6.18860132712E-05	-1.15339981450E+02	1.34999630216E-01	-9.47496923128E+01
7.65090180361E+10	1.63032500944E-01	-5.81825152600E+01	6.67585679936E-05	-9.09776974073E+01	8.53446493572E-05	-9.41701762009E+01	1.34570518170E-01	-9.53221078453E+01
7.65150300601E+10	1.61241363529E-01	-5.69490405448E+01	5.48606270284E-05	-5.68314945219E+01	1.56128216640E-04	-1.12729423316E+02	1.34379200818E-01	-9.63133350136E+01
7.65210420842E+10	1.60063888386E-01	-5.78171807329E+01	4.34839783767E-05	-4.66463618013E+01	1.68213171999E-04	-9.55033110367E+01	1.34998975272E-01	-9.71436360070E+01
7.65270541082E+10	1.60792479616E-01	-5.94768330236E+01	1.00264240107E-04	-8.23768185149E+01	1.13932316828E-04	-1.23407804075E+02	1.34456602350E-01	-9.74883195275E+01
7.65330661323E+10	1.64159339308E-01	-6.10479603271E+01	3.74923380236E-05	-1.03613245217E+02	1.22029359415E-04	-1.16939383756E+02	1.33320075720E-01	-9.74188508552E+01
7.65390781563E+10	1.62324705712E-01	-5.94729232078E+01	7.21283804999E-05	-8.44712478950E+01	1.25731113409E-04	-1.29270919977E+02	1.31495190763E-01	-9.76005585188E+01
7.65450901804E+10	1.63300643095E-01	-5.90576297352E+01	8.31140126924E-05	-8.65417753123E+01	1.17820906520E-04	-1.34167153569E+02	1.30930640512E-01	-9.79106722417E+01
7.65511022044E+10	1.61395487233E-01	-5.94038196602E+01	5.86516098233E-05	-8.33672911222E+01	1.53155158027E-04	-1.68474543993E+02	1.30677685535E-01	-9.87222535339E+01
7.65571142285E+10	1.60710685073E-01	-5.95565588823E+01	1.39625566277E-05	1.42126849617E+02	1.40653037043E-04	1.70763427380E+02	1.30035712460E-01	-9.80490892244E+01
7.65631262525E+10	1.62156984661E-01	-6.09654441703E+01	7.05613557999E-05	1.24626306860E+02	1.37146550464E-04	1.75269127990E+02	1.30753452614E-01	-9.97282537927E+01
7.65691382766E+10	1.61464433745E-01	-6.07463944794E+01	7.03327449795E-05	-1.44374302449E+02	1.49608602542E-04	1.32900358633E+02	1.28779577811E-01	-1.00310162397E+02
7.65751503006E+10	1.60671733701E-01	-6.00430707093E+01	1.12056143138E-05	9.80280397274E+01	8.40883865256E-05	1.13746713798E+02	1.28734896963E-01	-1.00195771649E+02
7.65811623246E+10	1.59851974632E-01	-5.95398962378E+01	1.30887666101E-05	7.60833699333E+00	1.02781858962E-04	1.40887559261E+02	1.27566478157E-01	-1.00196945789E+02
7.65871743487E+10	1.60790938748E-01	-6.11494442277E+01	1.23659480594E-04	-1.39885653598E+02	9.94714117303E-05	1.35999802566E+02	1.27278865086E-01	-1.01142375901E+02
7.65931863727E+10	1.59394440089E-01	-5.96830987541E+01	4.16691714815E-05	-7.73002887127E+01	1.59460425100E-04	1.21453705635E+02	1.26655843646E-01	-1.01581015108E+02
7.65991983968E+10	1.61824473463E-01	-6.14051537974E+01	4.32852341696E-05	-1.38794764467E+02	1.43367820872E-04	1.06420456409E+02	1.25428989686E-01	-1.01172937968E+02
7.66052104208E+10	1.60528695792E-01	-6.10963695965E+01	4.25723105506E-05	1.19156476355E+02	1.43738498624E-04	1.20969407677E+02	1.23743098351E-01	-1.00821431872E+02
7.66112224449E+10	1.60136278480E-01	-6.24878374530E+01	2.98934298634E-05	1.34475782893E+02	1.19996967826E-04	8.99086417444E+01	1.24928198553E-01	-1.02844295547E+02
7.66172344689E+10	1.61317903289E-01	-6.24041179206E+01	4.44699859591E-05	-7.25699528131E+01	9.09312364907E-05	1.05877901793E+02	1.24652867197E-01	-1.03403863829E+02
7.66232464930E+10	1.61660868903E-01	-6.26814450656E+01	1.06579768465E-04	-1.60717763628E+02	3.85008434201E-05	-1.13861156220E+02	1.23867052608E-01	-1.03702392138E+02
7.66292585170E+10	1.61961878935E-01	-6.27363251154E+01	7.17865850621E-05	-1.72121629356E+02	4.34770863130E-05	1.46765065136E+02	1.22518507170E-01	-1.03859680724E+02
7.66352705411E+10	1.60661406557E-01	-6.25552978809E+01	6.43470111528E-05	1.26140005162E+02	1.80968300319E-04	1.36295658374E+02	1.21191427525E-01	-1.03575673867E+02
7.66412825651E+10	1.59175713674E-01	-6.17742359047E+01	1.70452812936E-04	1.40093454909E+02	1.32331635647E-04	9.69695186702E+01	1.19776759209E-01	-1.02778908462E+02
7.66472945892E+10	1.60799106448E-01	-6.39423588313E+01	7.35165181112E-05	1.21786828907E+02	8.91674410790E-05	5.81934994187E+01	1.19788655966E-01	-1.03334914808E+02
7.66533066132E+10	1.60915349058E-01	-6.36670997365E+01	6.58723771679E-05	-4.45388202098E-01	4.96687907140E-05	5.00559162007E+01	1.19817216879E-01	-1.04182633696E+02
7.66593186373E+10	1.58817733152E-01	-6.40855177649E+01	6.41565044342E-05	9.55653634891E+01	8.89188628498E-05	1.68431930682E+01	1.19187990799E-01	-1.05991426107E+02
7.66653306613E+10	1.58920072678E-01	-6.26946086638E+01	6.29802789982E-05	1.07953290936E+02	5.98182346106E-05	4.64023064357E+01	1.19004269712E-01	-1.06296712204E+02
7.66713426854E+10	1.59935066851E-01	-6.33180689016E+01	7.46881149223E-05	8.92592639711E+01	6.55346752682E-05	3.41367102186E+01	1.16982811128E-01	-1.04965275152E+02
7.66773547094E+10	1.61222164099E-01	-6.42490411538E+01	5.58576516292E-05	5.67261370814E+01	7.82321141759E-05	7.85726840749E+00	1.15818618328E-01	-1.05459861667E+02
7.66833667335E+10	1.57621728643E-01	-6.18842603477E+01	7.94484708903E-05	1.36927352333E+00	9.07180631936E-05	-1.91844276999E+01	1.17269551763E-01	-1.06074040872E+02
7.66893787575E+10	1.58122617953E-01	-6.40600921154E+01	5.43246921817E-05	-2.90596037416E+01	9.84844190196E-05	-4.60852162989E+01	1.15728981356E-01	-1.05890409788E+02
7.66953907816E+10	1.60483571107E-01	-6.49507280136E+01	3.31002961436E-05	-1.16791896030E+02	5.81739606344E-05	-1.09669547236E+02	1.15458661309E-01	-1.06856222226E+02
7.67014028056E+10	1.60179784445E-01	-6.39851293812E+01	8.39219118182E-05	1.72930562477E+02	1.04409234136E-04	-1.00660310533E+02	1.14812134875E-01	-1.07907511075E+02
7.67074148297E+10	1.58010978464E-01	-6.30472914504E+01	1.20389056613E-04	1.31154079788E+02	9.76008090409E-06	4.60598860023E+01	1.14297481657E-01	-1.08426985880E+02
7.67134268537E+10	1.57288377554E-01	-6.37831557296E+01	1.07312395485E-04	9.27529894504E+01	4.29246844853E-06	-1.57553022367E+02	1.12316370180E-01	-1.07059693501E+02
7.67194388778E+10	1.59643072334E-01	-6.51559557456E+01	6.82432006574E-05	7.35661345616E+01	6.22477523302E-06	1.40915378278E+02	1.11712460329E-01	-1.07912812418E+02
7.67254509018E+10	1.61021200546E-01	-6.68071829334E+01	8.44633467270E-05	4.85722400810E+01	4.93344709223E-05	-1.01258537810E+02	1.11902328620E-01	-1.08403001247E+02
7.67314629259E+10	1.56416079387E-01	-6.42174408501E+01	1.02847512174E-04	1.12878148650E+01	9.26491095146E-05	-8.53731822663E+01	1.11913674285E-01	-1.09562426747E+02
7.67374749499E+10	1.58423513395E-01	-6.44726889571E+01	9.34045515025E-05	-1.49153351376E+01	9.03096807537E-05	-1.43181939031E+02	1.09913877403E-01	-1.09806266293E+02
7.67434869739E+10	1.60026317427E-01	-6.52946923568E+01	3.61217875781E-05	-4.53497092585E+01	1.16349501854E-04	-1.30470459973E+02	1.09157185969E-01	-1.09864911452E+02
7.67494989980E+10	1.58374244382E-01	-6.52334193064E+01	6.06852557297E-05	-9.32739859907E+01	1.45909587604E-04	1.74160898058E+02	1.08862818955E-01	-1.09597123262E+02
7.67555110220E+10	1.55345434614E-01	-6.55541482002E+01	5.75967744850E-05	1.70851918117E+02	1.02349843853E-04	1.62152198347E+02	1.09050730893E-01	-1.11145710765E+02
7.67615230461E+10	1.56760995296E-01	-6.56764434831E+01	2.00367126718E-05	6.34188526251E+01	8.72760472914E-05	1.33892365497E+02	1.07968409677E-01	-1.11811754245E+02
7.67675350701E+10	1.56786176293E-01	-6.56190444936E+01	8.33834164545E-06	1.56266301189E+02	8.78016600023E-05	1.07957841951E+02	1.06514594887E-01	-1.12427736740E+02
7.67735470942E+10	1.56505986227E-01	-6.49341811755E+01	5.49931602366E-05	2.63965852375E+01	1.91313807917E-05	7.76579028758E+01	1.05616611179E-01	-1.09594967508E+02
7.67795591182E+10	1.60085813187E-01	-6.71344987953E+01	1.74809230529E-05	-1.43530985117E+02	1.45730666903E-04	1.30675077375E+02	1.05618784344E-01	-1.12081494454E+02
7.67855711423E+10	1.60289778274E-01	-6.73388435536E+01	4.27005627109E-05	1.31782444118E+02	1.46047741282E-04	1.34290685825E+02	1.05021455969E-01	-1.12807732444E+02
7.67915831663E+10	1.58204494220E-01	-6.84678770881E+01	4.69534187043E-05	9.55501303919E+01	1.08611471267E-04	8.59281779316E+01	1.04915623950E-01	-1.12274915493E+02
7.67975951904E+10	1.58527604834E-01	-6.71846350918E+01	8.13747752465E-05	1.13536407756E+02	8.93235561348E-05	6.00849982352E+01	1.04028852220E-01	-1.14131714271E+02
7.68036072144E+10	1.54698540767E-01	-6.70524913026E+01	8.88218375552E-05	2.15015637349E+01	8.27650467397E-05	9.69904489205E+01	1.03026541750E-01	-1.14258298573E+02
7.68096192385E+10	1.56854311875E-01	-6.70133822332E+01	4.55874288896E-05	-1.21451141173E+02	9.87346316000E-05	4.51897772579E+01	1.02146887770E-01	-1.13976163192E+02
7.68156312625E+10	1.57420606292E-01	-6.75745838909E+01	4.77137001346E-05	-1.67626310627E+02	1.02593752862E-04	5.59381070281E+01	1.01405672586E-01	-1.14637988266E+02
7.68216432866E+10	1.56026278115E-01	-6.73751337316E+01	4.31200027887E-05	1.75146890915E+02	1.21614242916E-04	5.94090680096E+01	9.97937607292E-02	-1.13580155432E+02
7.68276553106E+10	1.54622831194E-01	-6.71352230384E+01	6.06963765415E-05	-1.69898788948E+02	1.10367502654E-04	2.28289074083E+01	9.94958700488E-02	-1.13953737557E+02
7.68336673347E+10	1.55961106921E-01	-6.76611319018E+01	4.64582503018E-05	4.84305071377E+01	5.44878455887E-05	5.29373510281E+01	9.96165646844E-02	-1.15078715002E+02
7.68396793587E+10	1.58902425755E-01	-6.88093279853E+01	2.60560365720E-05	1.52774788661E+02	4.16285182114E-05	2.80732714349E+01	9.83830021470E-02	-1.16738967525E+02
7.68456913828E+10	1.58510387831E-01	-6.89691914542E+01	3.82067576054E-05	8.58793447722E+01	7.31840976594E-05	-5.78525788567E+00	9.79239308526E-02	-1.16639093178E+02
7.68517034068E+10	1.55653743774E-01	-6.73338572755E+01	8.42155496184E-05	2.43551815594E+01	7.88605274566E-05	5.95989899397E+01	9.61808999829E-02	-1.15691100197E+02
7.68577154309E+10	1.53588969973E-01	-6.83646189583E+01	3.60062514384E-05	4.30035822519E+01	1.11608738223E-04	-2.67866956237E+00	9.61874229700E-02	-1.15892585305E+02
7.68637274549E+10	1.57040803339E-01	-6.90630166496E+01	8.31189691129E-05	4.02829347316E+01	4.17805204888E-05	3.47126178394E+01	9.59394903097E-02	-1.16317023674E+02
7.68697394790E+10	1.56154241673E-01	-6.92143745136E+01	1.06204329519E-04	2.91010030471E+01	7.09584676829E-05	-2.87209963802E+01	9.55798039299E-02	-1.17038309944E+02
7.68757515030E+10	1.56642424777E-01	-6.86991894236E+01	3.70036123032E-05	7.27271947039E+01	7.15572035300E-05	-2.92259035668E+01	9.38566770873E-02	-1.16930940001E+02
7.68817635271E+10	1.56764674267E-01	-6.83819252771E+01	2.45725710949E-05	-3.17654586429E+01	2.60920890995E-05	-6.43569963894E+01	9.22556577981E-02	-1.16581795322E+02
7.68877755511E+10	1.55865909582E-01	-6.93643165624E+01	1.14088794901E-05	-9.15690059335E+01	1.07484268460E-05	-5.50369789246E+00	9.20450048797E-02	-1.18783612869E+02
7.68937875752E+10	1.58848406379E-01	-7.08428558441E+01	1.75898107182E-05	-1.78362452048E+02	6.86615971245E-05	-3.17285678819E+01	9.17072237315E-02	-1.19182117624E+02
7.68997995992E+10	1.56072914034E-01	-7.06082059625E+01	8.34042278911E-05	6.23469707439E+01	9.98149499629E-05	-2.00852102847E+01	9.10387705804E-02	-1.18546853053E+02
7.69058116232E+10	1.55172196241E-01	-6.94117844105E+01	1.58260944357E-04	1.67537820340E+01	1.32151796975E-04	-2.72580495684E+01	9.00660399565E-02	-1.19490116627E+02
7.69118236473E+10	1.54909152440E-01	-7.07741230769E+01	7.21217200815E-05	-2.52694949803E+01	9.79348858062E-05	-6.83442884446E+00	8.93365258517E-02	-1.20553987618E+02
7.69178356713E+10	1.55654755233E-01	-6.99942461436E+01	6.91738464671E-05	-6.83746377813E+01	1.11577464485E-04	-6.72284363628E+01	8.79312538107E-02	-1.18108421479E+02
7.69238476954E+10	1.55558394960E-01	-7.03235382885E+01	5.35781822699E-05	-1.18271662609E+02	8.04357141317E-05	-1.17055194253E+02	8.82489382076E-02	-1.20594379989E+02
7.69298597194E+10	1.57402780473E-01	-7.06900745649E+01	7.08606699144E-05	-1.11105656600E+02	1.40216055083E-04	-8.53099899032E+01	8.74346101688E-02	-1.21717270528E+02
7.69358717435E+10	1.54331800677E-01	-7.12361739846E+01	4.71041203849E-05	-1.77817139657E+02	1.07941082355E-04	-1.28714235333E+02	8.66435197395E-02	-1.20491389674E+02
7.69418837675E+10	1.53659815384E-01	-7.09283155900E+01	1.54132989251E-06	-1.17692830201E+02	6.41733996781E-06	1.15168768255E+02	8.54650792070E-02	-1.21321696681E+02
7.69478957916E+10	1.55758727653E-01	-7.07630932457E+01	6.38418744355E-05	3.89236454911E+01	7.13868351871E-05	4.55786883615E+00	8.42865850595E-02	-1.20482785820E+02
7.69539078156E+10	1.54824415088E-01	-7.09087489300E+01	7.24348037497E-05	1.49930963402E+01	4.31930112247E-05	-9.88819148628E+01	8.44780315463E-02	-1.21091190428E+02
7.69599198397E+10	1.52952904692E-01	-7.09524382238E+01	7.42922653931E-05	-3.13246887376E+01	3.73168608440E-05	-4.95346448514E+01	8.40767198170E-02	-1.22187362808E+02
7.69659318637E+10	1.55714558656E-01	-7.23099968753E+01	9.63300210417E-05	-5.19438729953E+01	3.75255093781E-05	-3.64860558740E+01	8.25237433159E-02	-1.24764381350E+02
7.69719438878E+10	1.53540328191E-01	-7.21767701285E+01	2.64215534618E-05	3.27401555954E+01	1.04289002762E-04	-8.99106520640E+01	8.15497321490E-02	-1.23481532945E+02
7.69779559118E+10	1.54342926857E-01	-7.24811546214E+01	3.44942034750E-05	-9.47239167270E+01	1.17254486729E-04	-1.06121860900E+02	8.03106881475E-02	-1.23600497126E+02
7.69839679359E+10	1.52964652964E-01	-7.19739411665E+01	1.15760073084E-04	-8.33435525364E+01	1.28176593498E-04	-9.07609550960E+01	7.92727250618E-02	-1.22481420814E+02
7.69899799599E+10	1.52448352259E-01	-7.15297728153E+01	5.81130707797E-05	-7.27682761352E+01	7.30719637131E-05	-1.27423972223E+02	7.87590730606E-02	-1.24033380847E+02
7.69959919840E+10	1.51881352991E-01	-7.19171703251E+01	1.20942049977E-04	-8.79955949046E+01	9.63867821662E-05	-9.93753260385E+01	7.84301260355E-02	-1.24898241677E+02
7.70020040080E+10	1.54195016399E-01	-7.41851684791E+01	8.59968659920E-05	-1.04369175801E+02	7.51540421734E-05	1.73636581547E+02	7.83973412503E-02	-1.25870137434E+02
7.70080160321E+10	1.55629552414E-01	-7.52714073147E+01	9.35980519732E-05	-1.16754543559E+02	5.57953468955E-05	-1.33001321538E+02	7.74238452497E-02	-1.24887527016E+02
7.70140280561E+10	1.55977329725E-01	-7.44327485412E+01	6.89968231358E-05	-5.82223560907E+01	1.39120673507E-04	-1.47128777120E+02	7.59552333394E-02	-1.23864926288E+02
7.70200400802E+10	1.54281011728E-01	-7.39338765446E+01	5.78745177428E-05	-1.24289782333E+02	1.44866052729E-04	-1.22050192030E+02	7.57317369887E-02	-1.25047200318E+02
7.70260521042E+10	1.50953012623E-01	-7.32236819450E+01	5.57389053882E-05	-4.83714774526E+01	9.53164916911E-05	-1.75069166500E+02	7.42423510119E-02	-1.24355986899E+02
7.70320641283E+10	1.53231410685E-01	-7.52009659645E+01	8.18648153871E-05	-1.35575881775E+02	4.29774296412E-05	1.60259383724E+02	7.38620749470E-02	-1.27544715624E+02
7.70380761523E+10	1.55196464659E-01	-7.59499766310E+01	4.91173488083E-05	-1.44561880213E+02	7.36825439143E-05	1.39569734812E+02	7.39066447416E-02	-1.26701049989E+02
7.70440881764E+10	1.52296438591E-01	-7.57304079251E+01	2.73856289473E-05	-1.72384705790E+02	1.18792466182E-04	1.36097428848E+02	7.25835348503E-02	-1.26694919673E+02
7.70501002004E+10	1.52801263572E-01	-7.51562553597E+01	4.67564458157E-05	-1.12389626333E+02	9.33886973892E-06	-1.36153790331E+02	7.12917389634E-02	-1.26496396301E+02
7.70561122244E+10	1.53364885795E-01	-7.45267397154E+01	9.00851936114E-05	-1.23303757740E+02	5.56654199063E-05	-1.35959071336E+02	7.05348491778E-02	-1.27622455093E+02
7.70621242485E+10	1.52912952955E-01	-7.48699216537E+01	8.86982182888E-05	-1.46981001173E+02	1.93130498085E-05	1.57761417305E+02	6.98464280429E-02	-1.28876428840E+02
7.70681362725E+10	1.51449527899E-01	-7.55543846240E+01	1.11849576611E-04	-1.60970042150E+02	9.16248596414E-05	1.60288039211E+02	6.96593003177E-02	-1.28130355896E+02
7.70741482966E+10	1.50524183889E-01	-7.41858364877E+01	1.30282607874E-04	1.70097353829E+02	6.44316932645E-05	-1.77671329275E+02	6.90563971077E-02	-1.28511820070E+02
7.70801603206E+10	1.50654740371E-01	-7.42181778396E+01	1.04229522809E-04	1.77866061072E+02	1.84362346009E-05	7.53400010950E+01	6.81374399739E-02	-1.29194889200E+02
7.70861723447E+10	1.50785521538E-01	-7.60101496315E+01	1.00538261964E-04	-1.66064758764E+02	6.64717182881E-05	1.43262228590E+02	6.79377789771E-02	-1.31063891001E+02
7.70921843687E+10	1.50551752998E-01	-7.63834626767E+01	1.14463622546E-04	-1.55961509072E+02	3.17037072810E-05	1.30222540917E+02	6.68019984339E-02	-1.30573218315E+02
7.70981963928E+10	1.52904541174E-01	-7.59414772990E+01	6.75727910715E-05	-1.67752592242E+02	7.59869406474E-05	1.54793101701E+02	6.56828155549E-02	-1.30235399271E+02
7.71042084168E+10	1.52525756301E-01	-7.59218220270E+01	1.32211261184E-04	1.62739147286E+02	5.18954394523E-05	7.60048822959E+01	6.46410572545E-02	-1.29316364716E+02
7.71102204409E+10	1.53697021692E-01	-7.66510309920E+01	9.52224345987E-05	1.75431635690E+02	8.03228443355E-05	1.70553095671E+02	6.38238307294E-02	-1.30028698149E+02
7.71162324649E+10	1.51381836765E-01	-7.67915397046E+01	1.06671571059E-04	1.38572735018E+02	4.13269721945E-05	1.73986086476E+02	6.32356602604E-02	-1.31754370343E+02
7.71222444890E+10	1.47948094397E-01	-7.59491392980E+01	1.33777810060E-04	1.04786749557E+02	2.44224896706E-05	-5.43104799921E+01	6.26140915748E-02	-1.31822130510E+02
7.71282565130E+10	1.48813565994E-01	-7.53052425982E+01	9.32225628881E-05	1.00216010019E+02	2.78336707445E-05	1.59420682131E+02	6.18948226196E-02	-1.33426609908E+02
7.71342685371E+10	1.49738754370E-01	-7.61850757752E+01	1.23985059148E-04	1.06703330100E+02	7.28082182732E-05	1.07084198967E+02	6.09508087016E-02	-1.34414328419E+02
7.71402805611E+10	1.53793388568E-01	-7.81501474344E+01	7.04569425102E-05	1.67575224612E+02	6.11660603777E-05	1.37974592756E+02	5.99326142746E-02	-1.31366625180E+02
7.71462925852E+10	1.47990595814E-01	-7.74490858363E+01	8.87313113932E-05	7.46736114080E+01	1.12983413076E-05	5.35734115423E+01	6.00039566391E-02	-1.35027217596E+02
7.71523046092E+10	1.48656954016E-01	-7.73581185115E+01	8.55250417152E-05	8.06751812742E+01	7.17268776320E-05	1.39700570532E+02	5.86512622663E-02	-1.35435840305E+02
7.71583166333E+10	1.51933839227E-01	-7.86404487298E+01	1.29384730150E-04	9.79137911995E+01	6.64057503563E-05	1.10038352835E+02	5.78966567825E-02	-1.35282061398E+02
7.71643286573E+10	1.49312931952E-01	-7.74869867024E+01	8.05808257410E-05	5.69748274241E+01	8.31336111021E-05	1.50327255761E+02	5.73817619571E-02	-1.35435600614E+02
7.71703406814E+10	1.48066805452E-01	-7.82736964018E+01	6.89664901770E-05	6.67876008551E+01	6.48880594996E-05	1.00616257559E+02	5.54051475569E-02	-1.33664034927E+02
7.71763527054E+10	1.47816379205E-01	-7.84574542194E+01	3.38299115835E-05	-3.13128799193E+01	4.73797299535E-05	1.10456791622E+02	5.52958315218E-02	-1.33967367491E+02
7.71823647295E+10	1.48743033998E-01	-7.91397465408E+01	4.13441295813E-05	-4.41622851610E+01	5.77924769476E-05	1.54059657187E+02	5.45788590687E-02	-1.36343256393E+02
7.71883767535E+10	1.48739588646E-01	-7.90840387846E+01	6.90275884837E-05	4.49896915496E+01	7.06944586703E-05	1.16471296680E+02	5.41018244717E-02	-1.37343917336E+02
7.71943887776E+10	1.47508840259E-01	-7.94363960480E+01	1.09855719693E-04	2.23430323164E+01	8.07326083855E-05	1.02863193917E+02	5.25517150894E-02	-1.34757345798E+02
7.72004008016E+10	1.46474224765E-01	-7.86762011629E+01	5.80824204614E-05	1.91473198901E+01	8.37644442686E-05	1.51367549875E+01	5.21093679078E-02	-1.35919440361E+02
7.72064128257E+10	1.48314711287E-01	-7.99485996580E+01	6.87515733173E-05	-9.21225471153E+00	6.61054768092E-05	3.99200576823E+01	5.07635386073E-02	-1.34809968194E+02
7.72124248497E+10	1.47166418122E-01	-7.90680689828E+01	6.82761893349E-05	1.52634728358E+01	1.10622511400E-04	5.74787380679E+01	5.01082018422E-02	-1.37750760285E+02
7.72184368737E+10	1.48709571942E-01	-8.07846210269E+01	6.38541589855E-05	1.01758390261E+00	7.16442497648E-05	5.81566464531E+01	4.95356929777E-02	-1.38946451088E+02
7.72244488978E+10	1.49012997680E-01	-8.08254591094E+01	7.38315692475E-05	-1.85721167367E+00	4.76902122589E-05	1.17478924746E+01	4.87894135527E-02	-1.38037146460E+02
7.72304609218E+10	1.47718139790E-01	-8.08711341881E+01	4.14027627978E-05	4.43578858004E+01	2.41615276768E-05	1.11985803189E+02	4.76578728342E-02	-1.37229970761E+02
7.72364729459E+10	1.46885424714E-01	-7.92845225778E+01	5.07202968993E-05	-5.78541104164E+01	7.94317858421E-05	-1.32417331820E+02	4.66334060777E-02	-1.37762145940E+02
7.72424849699E+10	1.48035466485E-01	-8.10917644227E+01	2.52705888300E-05	3.40336035501E+01	7.91932017748E-05	9.06711199822E+01	4.68244967236E-02	-1.39655937198E+02
7.72484969940E+10	1.47636816843E-01	-8.24208199241E+01	4.01836115275E-05	1.66992526377E+02	1.32916268779E-04	6.71429537859E+01	4.62178152557E-02	-1.41832494439E+02
7.72545090180E+10	1.46694126361E-01	-8.14135565137E+01	2.64679823863E-05	9.58719350034E+01	6.92088275863E-05	6.19541535964E+01	4.53726018836E-02	-1.42091262659E+02
7.72605210421E+10	1.44362087408E-01	-7.99790266273E+01	1.50107560081E-05	-7.23247692617E+00	1.17240338766E-04	3.70075634355E+01	4.33740878132E-02	-1.38465865094E+02
7.72665330661E+10	1.47494369503E-01	-8.17281254578E+01	8.47438543316E-05	4.82781303653E+01	1.38733096075E-04	5.62401606825E+01	4.36380620505E-02	-1.42047549827E+02
7.72725450902E+10	1.46743611711E-01	-8.18024973616E+01	8.84030201667E-05	1.01318536238E+01	1.02535272801E-04	-1.89974398816E-01	4.26892998880E-02	-1.41995451100E+02
7.72785571142E+10	1.47415532915E-01	-8.12699968264E+01	1.02135573541E-05	-3.44432085989E+01	9.40879725198E-05	2.53165442639E+01	4.18281064762E-02	-1.42364971154E+02
7.72845691383E+10	1.45438543265E-01	-8.21718038111E+01	3.16031298656E-05	-3.70689119546E+01	8.51225169055E-05	-2.49647559475E+00	4.03424194247E-02	-1.41097088041E+02
7.72905811623E+10	1.45073782863E-01	-8.27148533249E+01	1.53862996122E-05	3.25127150345E+01	1.19925688798E-04	-4.15471658724E+00	4.03503607030E-02	-1.43796682675E+02
7.72965931864E+10	1.43748209132E-01	-8.08538404163E+01	3.18913943217E-05	-1.26987274560E+02	7.06557175225E-05	-4.98537718080E+01	3.90942879414E-02	-1.44296514933E+02
7.73026052104E+10	1.44498483264E-01	-8.18426334348E+01	4.35510643446E-05	-4.50075219477E+01	9.29517000539E-05	-4.56510201381E+01	3.82296068629E-02	-1.43686767408E+02
7.73086172345E+10	1.44395573306E-01	-8.07350643887E+01	2.29597769219E-05	-7.99128229249E+01	6.64893422379E-05	-2.42416317895E+01	3.64433708673E-02	-1.41052986566E+02
7.73146292585E+10	1.45600691169E-01	-8.28104944893E+01	1.98085753916E-05	1.04283813759E+02	3.71386091193E-05	-9.97321099419E+01	3.61011801707E-02	-1.43230177022E+02
7.73206412826E+10	1.46369923586E-01	-8.25225342001E+01	7.13137487166E-05	8.43899614245E+01	3.00198151964E-05	-9.64557772457E+01	3.58674669696E-02	-1.46154847107E+02
7.73266533066E+10	1.42975401086E-01	-8.24027029155E+01	8.74652417280E-05	6.69108259083E+01	2.69435133066E-05	-3.90116653266E+01	3.49516199500E-02	-1.44032046738E+02
7.73326653307E+10	1.45097095182E-01	-8.28230855864E+01	2.51467123134E-05	4.75027212672E+01	9.64363477567E-05	3.24753979798E+00	3.37206848272E-02	-1.43741899658E+02
7.73386773547E+10	1.45885585708E-01	-8.52291758318E+01	1.15389316823E-04	-4.28523099402E-01	1.58443236656E-04	-2.03483793218E+01	3.29922569336E-02	-1.46583194714E+02
7.73446893788E+10	1.43532406074E-01	-8.38570261164E+01	1.42071883099E-04	-3.77243736524E+00	1.02001622920E-04	-4.84624634273E+01	3.31308001737E-02	-1.48706315443E+02
7.73507014028E+10	1.44753729089E-01	-8.39326475713E+01	1.28193738857E-04	-6.17051129992E+01	1.16258202564E-04	-7.18471983613E+01	3.16546599636E-02	-1.45948325672E+02
7.73567134269E+10	1.42455568764E-01	-8.50277906457E+01	1.14422025468E-04	-8.12329799858E+01	1.57975165182E-04	-8.53691942499E+01	3.02788299552E-02	-1.44547877141E+02
7.73627254509E+10	1.42401651645E-01	-8.50097534454E+01	6.67529308357E-05	-1.31434902665E+02	8.23633230595E-05	-6.85942769517E+01	2.95458788280E-02	-1.46304809675E+02
7.73687374749E+10	1.44987462531E-01	-8.38830604022E+01	1.80494906326E-05	-5.45981390917E+01	5.01605582782E-05	-1.03451098849E+02	2.93697165208E-02	-1.49249805321E+02
7.73747494990E+10	1.44054661228E-01	-8.32378612994E+01	2.86452074402E-05	-2.23874068772E+00	2.11839743098E-05	3.70928570763E+01	2.91468690947E-02	-1.51104049672E+02
7.73807615230E+10	1.41696248026E-01	-8.44407939521E+01	1.29842548032E-04	-2.46851847950E+01	7.06745141934E-05	-8.97506254578E+01	2.71357192055E-02	-1.47054420131E+02
7.73867735471E+10	1.42669530630E-01	-8.38757359910E+01	1.24077208526E-04	-6.13025416349E+01	6.46346324772E-05	-1.03217999467E+02	2.68203250565E-02	-1.50773136032E+02
7.73927855711E+10	1.43911660982E-01	-8.64037454915E+01	7.29961053988E-05	-6.16756122826E+01	6.28316990713E-05	-1.23057982404E+02	2.57395635066E-02	-1.51490684904E+02
7.73987975952E+10	1.42205062537E-01	-8.57740275151E+01	1.34501663242E-04	-8.79355520178E+01	1.16250333337E-04	-6.40133473662E+01	2.41518603345E-02	-1.49271700675E+02
7.74048096192E+10	1.42019276039E-01	-8.45302899147E+01	1.10288416266E-04	-8.43607640845E+01	5.24114597044E-05	-7.73094215220E+01	2.41686052168E-02	-1.51136369204E+02
7.74108216433E+10	1.41704719959E-01	-8.44620711831E+01	6.05803885961E-05	-9.03615674909E+01	1.13301616001E-04	-1.26728508825E+02	2.24505566987E-02	-1.48779505013E+02
7.74168336673E+10	1.41013824239E-01	-8.55333226111E+01	1.30912891165E-04	-1.04049632460E+02	1.04834235656E-04	-1.28812964650E+02	2.20460827599E-02	-1.51640381703E+02
7.74228456914E+10	1.41121525929E-01	-8.75584486035E+01	7.01872038704E-05	-9.26338422715E+01	6.19325435958E-05	-1.63873417828E+02	2.18108489997E-02	-1.51262005477E+02
7.74288577154E+10	1.41456933637E-01	-8.74803965768E+01	8.77500485707E-05	-1.03517962773E+02	8.62221010021E-05	1.59305222168E+02	2.04708140705E-02	-1.51104126539E+02
7.74348697395E+10	1.39820869133E-01	-8.56091731064E+01	7.03831825270E-05	-7.19839858129E+01	2.89484041082E-05	-1.13673465545E+02	1.97162678318E-02	-1.52813106544E+02
7.74408817635E+10	1.40053876208E-01	-8.53596585862E+01	1.18476952847E-04	-8.11350455343E+01	7.96056602364E-05	-1.13137386386E+02	1.89820116251E-02	-1.54409687088E+02
7.74468937876E+10	1.39761973459E-01	-8.59773883831E+01	1.62297247922E-04	-1.19724467917E+02	7.20374212775E-05	-1.54445598854E+02	1.78304470568E-02	-1.53204126609E+02
7.74529058116E+10	1.39290008059E-01	-8.61392690084E+01	1.47127541962E-04	-1.56639663350E+02	9.83450321012E-05	-1.28764846163E+02	1.71813964588E-02	-1.53831517663E+02
7.74589178357E+10	1.38523264054E-01	-8.71525189037E+01	1.38441309469E-04	-1.78992775115E+02	1.45233027487E-04	-1.57162566455E+02	1.60774023784E-02	-1.54032510156E+02
7.74649298597E+10	1.38333584100E-01	-8.66334611656E+01	7.25329253898E-05	-1.63172038697E+02	1.42946144655E-04	1.73996998346E+02	1.50521923337E-02	-1.54868534696E+02
7.74709418838E+10	1.41064781034E-01	-8.59300840526E+01	9.57108939384E-05	1.57832266937E+02	9.86171769881E-05	1.73338901416E+02	1.51072198759E-02	-1.57795870223E+02
7.74769539078E+10	1.42987623161E-01	-8.69464066776E+01	8.03805765468E-05	1.71673864064E+02	1.27758897683E-04	1.53754053826E+02	1.39854497923E-02	-1.56912009541E+02
7.74829659319E+10	1.39514659140E-01	-8.69782887119E+01	7.28176989918E-05	1.14294125995E+02	1.03692539199E-04	1.30848899535E+02	1.28800532650E-02	-1.56495009032E+02
7.74889779559E+10	1.39504003558E-01	-8.80647407667E+01	6.78766935479E-05	-1.68295936934E+02	6.50177819878E-05	7.96864703098E+01	1.21005566464E-02	-1.56603755932E+02
7.74949899800E+10	1.38411775232E-01	-8.85641519601E+01	8.80442164781E-05	-1.53654791206E+02	1.96704670903E-05	-1.40754687975E+02	1.09148353787E-02	-1.56257449064E+02
7.75010020040E+10	1.36984013740E-01	-8.90331589336E+01	1.08064610021E-04	-1.77275529132E+02	6.13116300819E-05	8.60166696495E+01	1.04282993672E-02	-1.57361218041E+02
7.75070140281E+10	1.39664969585E-01	-8.68113203781E+01	1.11480859865E-04	1.59081750392E+02	5.16242292794E-05	1.52779372129E+02	1.00725378474E-02	-1.60259773087E+02
7.75130260521E+10	1.39504347752E-01	-8.91342997792E+01	1.07849959641E-04	1.34929753682E+02	5.45686542159E-05	9.80614220794E+01	8.15731576535E-03	-1.57182041385E+02
7.75190380762E+10	1.38385359808E-01	-9.03074650471E+01	1.62921063938E-04	1.20920265217E+02	7.09779246156E-05	1.32084725159E+02	7.96439851661E-03	-1.61763767313E+02
7.75250501002E+10	1.39553867251E-01	-8.71684338473E+01	9.91726489534E-05	1.03654643537E+02	7.86830662896E-05	1.66719855842E+02	6.64131339511E-03	-1.59815185526E+02
7.75310621242E+10	1.36911328843E-01	-8.84031070999E+01	1.32104755809E-04	7.77159698488E+01	7.10754038216E-05	6.69859176853E+01	6.50624166501E-03	-1.63096455034E+02
7.75370741483E+10	1.36899924893E-01	-8.95728061360E+01	1.30862318010E-04	9.27056826206E+01	1.12765342027E-04	6.73129471205E+01	5.09444136250E-03	-1.62187660383E+02
7.75430861723E+10	1.38271543008E-01	-8.76012392016E+01	5.94481782103E-05	4.63041391856E+01	7.35555188938E-05	6.92679655974E+01	3.87110910569E-03	-1.61191858902E+02
7.75490981964E+10	1.38891026163E-01	-8.83149868614E+01	1.80422739664E-05	-1.39853274650E+02	6.27381210781E-05	1.23382109410E+02	3.08355742203E-03	-1.64871567762E+02
7.75551102204E+10	1.38107240480E-01	-8.81111112496E+01	2.78558674264E-05	9.03718906426E+01	4.30179037242E-05	-1.62536134252E+02	2.67210385083E-03	-1.66463390152E+02
7.75611222445E+10	1.37729770829E-01	-8.99703080268E+01	3.16804783200E-05	-1.36537990997E+02	7.18526899964E-05	1.13482686604E+02	2.38588954212E-03	-1.69216968938E+02
7.75671342685E+10	1.37143551472E-01	-8.79095616811E+01	1.50772069995E-05	1.00545311729E+02	1.02336630445E-04	8.13800784352E+01	1.11830480511E-03	1.79692546218E+02
7.75731462926E+10	1.34972042739E-01	-8.80658205986E+01	4.79486674991E-05	-1.61778267554E+02	3.21450257879E-05	2.11619383035E+01	3.52194850359E-04	1.40456651619E+02
7.75791583166E+10	1.36217023887E-01	-9.01682104788E+01	1.14823997164E-04	-1.50427300492E+02	6.57270944699E-05	6.36315903720E+00	2.77390624981E-04	7.52377969230E+01
7.75851703407E+10	1.36402787542E-01	-9.08863940778E+01	3.77763204897E-05	-1.58356159512E+02	6.01184082671E-05	3.63643528252E+01	2.13528764309E-03	3.17257751136E+01
7.75911823647E+10	1.36738109888E-01	-8.91517224043E+01	7.29578878719E-05	9.80309138728E+01	3.46860769545E-05	1.40852229087E+02	2.38764418013E-03	2.77234073037E+01
7.75971943888E+10	1.34984643861E-01	-9.06842036002E+01	8.72721265247E-05	6.17448256799E+01	3.37136862329E-05	8.31549146121E+01	3.68153189429E-03	2.73348236908E+01
7.76032064128E+10	1.34106870625E-01	-8.81368318533E+01	6.82601175513E-05	8.64512632752E+01	4.35237119024E-05	4.71174119240E+01	3.53545586765E-03	2.29573180946E+01
7.76092184369E+10	1.36005080535E-01	-9.04010669617E+01	9.01225423755E-06	1.36340354426E+02	6.77340898689E-05	4.63493279253E+01	4.33006232765E-03	2.14601130584E+01
7.76152304609E+10	1.37545204844E-01	-8.97271684812E+01	1.39900354980E-05	1.08581904498E+02	6.58565214994E-05	2.92263111383E+01	5.88165217045E-03	2.30245148047E+01
7.76212424850E+10	1.35082684710E-01	-8.99250354586E+01	1.66232157577E-05	1.49206304928E+02	2.25815860570E-05	-7.51733185411E+00	6.88815661500E-03	2.30168798473E+01
7.76272545090E+10	1.35747242866E-01	-9.20477862570E+01	4.32616066643E-05	4.60628750089E+01	1.31822468810E-05	-1.35803546324E+02	7.20722398745E-03	1.99827446029E+01
7.76332665331E+10	1.36958215838E-01	-9.22945668059E+01	5.67187948701E-05	1.19448595728E+02	9.19416838025E-05	2.09677370569E+01	7.59032517788E-03	1.69826303650E+01
7.76392785571E+10	1.35999833580E-01	-9.20987814146E+01	1.19659542601E-04	8.91509845844E+01	8.94005154588E-05	-4.49984185315E+00	8.88153148726E-03	2.05420586322E+01
7.76452905812E+10	1.35984728735E-01	-9.13539810834E+01	3.77266485847E-05	8.53560141185E+01	3.00900118472E-05	3.85751252429E+01	9.81600153025E-03	1.85683026948E+01
7.76513026052E+10	1.34820546328E-01	-9.15141554500E+01	7.73784721626E-05	6.52228887683E+01	5.69358544398E-05	4.51041982727E+00	1.05749823536E-02	1.76705029261E+01
7.76573146293E+10	1.37305830232E-01	-9.10110204685E+01	5.52013594892E-05	5.57158234797E+01	4.48189715472E-05	-4.41318135966E+00	1.10711703089E-02	1.66230267609E+01
7.76633266533E+10	1.35310261205E-01	-9.04079734347E+01	1.05237780212E-04	2.47442894222E+01	4.27982869086E-05	-4.49672671699E+01	1.19529639782E-02	1.49290625423E+01
7.76693386774E+10	1.35527823827E-01	-9.13893528385E+01	1.35802992955E-04	2.94506680163E+01	8.68066992828E-05	-2.63547652785E+01	1.31971824738E-02	1.73737133384E+01
7.76753507014E+10	1.34306650024E-01	-9.21914726992E+01	1.71149900547E-04	-2.30973028445E+01	3.21429812516E-05	7.66184238716E+00	1.35926910029E-02	1.48273874283E+01
7.76813627255E+10	1.33716034412E-01	-9.01013863140E+01	4.25027611796E-05	2.79092965975E+01	3.65944055739E-05	-1.60764367627E+02	1.43581427831E-02	1.40767868233E+01
7.76873747495E+10	1.37908282300E-01	-9.29290406705E+01	5.08956250352E-05	1.57459802542E+02	5.33691624954E-05	-5.60929413166E+01	1.53914968340E-02	1.37511251428E+01
7.76933867735E+10	1.34428540857E-01	-9.33843842105E+01	8.43436068073E-05	4.73468365552E+01	7.65050912934E-05	-7.93037576630E+01	1.61596328104E-02	1.50734965020E+01
7.76993987976E+10	1.36186563393E-01	-9.41290017073E+01	4.60210518275E-05	8.68945294910E+01	3.46850832045E-05	-6.51801299594E+01	1.67604910738E-02	1.43179286202E+01
7.77054108216E+10	1.33926503267E-01	-9.19274639918E+01	5.42618473941E-05	1.88155309807E+01	3.25415063052E-05	-1.06862861756E+02	1.76685881086E-02	1.49339465610E+01
7.77114228457E+10	1.35164049649E-01	-9.30789304674E+01	7.47213600922E-05	-2.79977154212E+01	5.48463295668E-05	-8.68459366861E+01	1.84435404834E-02	1.31970166804E+01
7.77174348697E+10	1.32374361468E-01	-9.21033986646E+01	5.11661526141E-05	-9.23960679594E+01	5.51401307193E-05	-1.69158682490E+02	1.94889356877E-02	1.41819507902E+01
7.77234468938E+10	1.31993476232E-01	-9.32916620271E+01	5.44571732228E-05	-7.71600290032E+00	1.28917527389E-05	-8.92566441324E+01	2.02882622551E-02	1.27286746978E+01
7.77294589178E+10	1.35722670365E-01	-9.52147740473E+01	4.57863668170E-05	1.82827769463E+01	2.06514050476E-05	-3.94146051227E+01	2.11484889425E-02	1.14840343847E+01
7.77354709419E+10	1.33209198940E-01	-9.50775216075E+01	4.76132296680E-05	-2.03145215719E+01	8.68628688515E-05	6.49358623878E+00	2.17735380146E-02	1.14582099344E+01
7.77414829659E+10	1.31771488274E-01	-9.21767801813E+01	3.06809320681E-05	-6.88670023727E+00	1.05346611842E-04	-2.12714585476E+01	2.24515278319E-02	1.22461819901E+01
7.77474949900E+10	1.33011374172E-01	-9.42007509429E+01	7.25639574032E-05	-3.41601439830E+01	5.05822492685E-05	-1.36847404861E+02	2.31695616937E-02	1.17880012613E+01
7.77535070140E+10	1.33416399861E-01	-9.56502025514E+01	5.29611879020E-05	-6.20647785008E+01	2.13507669249E-05	-1.10502580519E+02	2.40043917141E-02	1.01195619284E+01
7.77595190381E+10	1.33196334644E-01	-9.62597895590E+01	4.50074397396E-05	-5.18272187286E+01	4.58508808437E-05	-3.80905473345E+01	2.48364465481E-02	9.65615830645E+00
7.77655310621E+10	1.31158193111E-01	-9.45465643566E+01	4.62644301704E-05	-2.87646190595E+01	4.00866611348E-05	4.16644619135E-01	2.57910174180E-02	9.42606230317E+00
7.77715430862E+10	1.30756539200E-01	-9.20939125699E+01	1.05176484443E-04	-3.07002986076E+01	3.14832200474E-05	-9.80854645208E+01	2.64927885476E-02	1.10268906613E+01
7.77775551102E+10	1.34379606705E-01	-9.65728406555E+01	2.74425377230E-05	-1.03591174849E+02	4.94345946967E-05	-9.24614978064E+01	2.74172988959E-02	9.09727239519E+00
7.77835671343E+10	1.34063703737E-01	-9.69493487440E+01	8.15402525231E-05	-5.15198143730E+01	1.19752300118E-04	-1.64011352688E+02	2.84481433747E-02	7.22736909546E+00
7.77895791583E+10	1.32266874601E-01	-9.57246533412E+01	2.33012870810E-05	-1.00060278879E+02	5.90052183654E-05	-1.58643483622E+02	2.91409618659E-02	7.55481578359E+00
7.77955911824E+10	1.33244507242E-01	-9.66480877178E+01	5.75953955458E-05	-4.37695422439E+01	6.33759153540E-05	1.40180644892E+02	2.94701509513E-02	7.08185140403E+00
7.78016032064E+10	1.30598280568E-01	-9.43531767982E+01	6.48273034687E-05	-5.84907293919E+01	3.14587068058E-05	-1.68778149134E+02	3.00743614687E-02	8.37395682050E+00
7.78076152305E+10	1.30328216110E-01	-9.46471435699E+01	8.76656409107E-05	-8.61045775946E+01	5.86250543373E-05	3.55663699934E+01	3.12172031853E-02	6.18844437196E+00
7.78136272545E+10	1.32638752098E-01	-9.59735677742E+01	9.81418445709E-05	-1.00360380149E+02	3.32770432839E-05	3.39061265129E+01	3.25079526716E-02	4.70729600828E+00
7.78196392786E+10	1.31524365542E-01	-9.46486403939E+01	7.81560598920E-05	-9.38733001131E+01	2.68488371034E-05	-5.59384803155E+00	3.26845216960E-02	6.88146811196E+00
7.78256513026E+10	1.31668379153E-01	-9.49424661772E+01	5.51142982502E-05	-1.21872406518E+02	1.76754318187E-05	-6.30454301150E+01	3.32195025065E-02	7.09124042446E+00
7.78316633267E+10	1.30604415228E-01	-9.73483671910E+01	7.23357972870E-05	-6.60257364525E+01	9.48214309501E-05	-1.41780106427E+02	3.46298825607E-02	3.80877210193E+00
7.78376753507E+10	1.31593814623E-01	-9.73527184308E+01	5.84630870298E-05	-1.17091316938E+02	4.11299930319E-05	-8.03903825337E+01	3.53474662155E-02	3.18769059245E+00
7.78436873747E+10	1.30532261340E-01	-9.48673823212E+01	9.82135912375E-05	-1.53828331236E+02	5.92565215619E-05	-1.49691082809E+02	3.57402503521E-02	5.38678002272E+00
7.78496993988E+10	1.32934602087E-01	-9.74012356203E+01	9.21417466616E-05	-1.61646258983E+02	8.60303570958E-05	-1.60482103356E+02	3.65573604975E-02	5.11289951807E+00
7.78557114228E+10	1.29367462261E-01	-9.66331799269E+01	8.84949135485E-05	-1.78099971074E+02	7.20582628478E-05	-1.78709486913E+02	3.70828445458E-02	4.86884917156E+00
7.78617234469E+10	1.29894521593E-01	-9.62439933911E+01	1.08111111629E-04	1.58951969957E+02	6.41588315993E-05	1.30428028624E+02	3.83212195493E-02	2.12768315297E+00
7.78677354709E+10	1.29828017663E-01	-9.54984065517E+01	7.72023889140E-05	8.77727030445E+01	5.12827572186E-05	1.32392687423E+01	3.87025872963E-02	2.70858520739E+00
7.78737474950E+10	1.30346719350E-01	-9.57816887433E+01	5.70931442250E-05	8.78039124634E+01	8.02503534660E-05	-6.57185944984E+00	3.92717222336E-02	4.01747023795E+00
7.78797595190E+10	1.30616234874E-01	-9.71705719190E+01	3.64461831889E-05	-1.05478288110E+02	1.03538631044E-05	-6.80640809580E+01	3.96220396643E-02	4.79232420908E+00
7.78857715431E+10	1.28168956731E-01	-9.66083882559E+01	9.40982893679E-05	-1.56120916946E+02	5.61712336787E-05	7.24006674873E+01	4.13110112992E-02	1.42278587032E+00
7.78917835671E+10	1.29763454981E-01	-9.63753786802E+01	6.48858172315E-05	1.49477380703E+02	2.57323521955E-05	-1.06281753683E+02	4.18690036962E-02	1.90852984744E+00
7.78977955912E+10	1.31048720468E-01	-9.82953557930E+01	4.39908511499E-05	1.04034465678E+02	5.68084817986E-05	-9.37179316662E+01	4.26524177475E-02	2.41181282968E+00
7.79038076152E+10	1.29898600387E-01	-9.83456351115E+01	3.79055469474E-05	-1.21898646343E+02	3.14677295400E-05	-7.34601250089E+01	4.36279404485E-02	7.71147650877E-01
7.79098196393E+10	1.29650178036E-01	-9.71443578670E+01	3.01283051136E-05	-6.48222703275E-01	3.05583208046E-05	-8.78297434526E+01	4.31421092102E-02	1.51700049020E+00
7.79158316633E+10	1.28743601864E-01	-9.65304473468E+01	5.00931929109E-05	1.79747542699E+02	1.98670326507E-05	-9.86835235759E+01	4.43224524405E-02	1.06371237551E+00
7.79218436874E+10	1.29694716793E-01	-9.85243013453E+01	2.24586397519E-05	7.74571774238E+01	8.16304571108E-05	1.68537341144E+02	4.56557741549E-02	-1.49106168285E-01
7.79278557114E+10	1.30785397028E-01	-9.96663156893E+01	2.97433501981E-05	-1.43374743019E+02	8.58988425886E-05	-1.73342066625E+02	4.71355355185E-02	-1.36772578255E+00
7.79338677355E+10	1.31447985489E-01	-9.84200344901E+01	4.92766589191E-05	-1.75112064498E+02	7.52107516252E-05	1.30507158220E+02	4.71938181372E-02	-2.27446778435E+00
7.79398797595E+10	1.30110363473E-01	-9.89485581310E+01	3.72102790468E-05	1.39142017996E+02	6.62869353466E-05	1.00647546240E+02	4.69738206886E-02	7.39597894029E-01
7.79458917836E+10	1.29602059152E-01	-9.85996387052E+01	1.29522724615E-04	8.47801317651E+01	3.96803498212E-05	-2.68523150252E+01	4.82475709566E-02	-2.15217816841E-01
7.79519038076E+10	1.27143682258E-01	-9.79909205318E+01	1.15792687703E-05	7.33806091492E+01	4.16660903007E-05	-5.96973962133E+01	4.96163035432E-02	-2.58540756560E+00
7.79579158317E+10	1.29895358169E-01	-9.91692729599E+01	2.44743791118E-05	-4.18293144792E+00	3.56893547579E-05	-1.10375726462E+02	5.10828314316E-02	-3.40920394600E+00
7.79639278557E+10	1.31172322565E-01	-9.98823673727E+01	1.42249428199E-05	6.71345926188E+01	3.90729354677E-05	-1.01660451449E+02	5.00756077270E-02	-5.04347357078E-01
7.79699398798E+10	1.27889920883E-01	-9.91513111405E+01	4.35522290052E-05	8.45743480141E+01	5.56275125110E-05	-1.48247178161E+02	5.25840981914E-02	-4.62187686074E+00
7.79759519038E+10	1.27961806139E-01	-9.94075671289E+01	2.95327921882E-05	2.30217117275E+01	2.56241142592E-05	5.55978045668E+01	5.29841031488E-02	-4.24218390174E+00
7.79819639279E+10	1.31072600515E-01	-1.00889423600E+02	5.45149773674E-05	2.67582685635E+01	3.60238162538E-05	1.75489606888E+02	5.28515983246E-02	-2.26166330422E+00
7.79879759519E+10	1.29269898189E-01	-1.00478066023E+02	1.80819436326E-05	6.09570937672E+01	2.54417016600E-05	1.22605041853E+02	5.43203114781E-02	-4.40406956135E+00
7.79939879760E+10	1.30486097375E-01	-1.01268814779E+02	5.73815521961E-05	-3.26462795306E+01	5.75168341202E-05	1.27782136562E+02	5.38951691069E-02	-3.86260252452E+00
7.80000000000E+10	1.29209940563E-01	-1.01923580874E+02	2.31245913264E-05	1.58557980679E+02	6.76051942593E-05	1.30162742109E+02	5.47575376882E-02	-4.57118564468E+00
