# Hz S MA R 50
! CMT, C4420, 21421029, 25.1.2/3
! Date: 8/7/2025 12:48:09 PM
! Data: Format (Calibration Info)
! Freq	S33:Mag/Ang(F2)	S43:Mag/Ang(F2)	S34:Mag/Ang(F2)	S44:Mag/Ang(F2)
7.50000000000E+10	1.97159342361E-01	-1.25497155523E+01	3.67419921778E-05	-1.54187928968E+02	5.25644605729E-05	9.18976167083E+01	2.16080218066E-01	-2.65330678680E+01
7.50060120240E+10	1.97744657505E-01	-1.23473972767E+01	5.21147955892E-05	-1.30040222850E+02	2.44810033828E-05	6.60617090447E+01	2.13561024423E-01	-2.54098577717E+01
7.50120240481E+10	2.00889465321E-01	-1.36050455388E+01	2.79207473930E-05	2.96782919454E+01	1.75676931086E-05	1.06916718159E+01	2.16901890934E-01	-2.78126490132E+01
7.50180360721E+10	1.99556901959E-01	-1.44196330536E+01	1.91485735982E-05	5.08510185421E+01	4.41942790795E-05	1.10923581285E+02	2.15812228428E-01	-2.79809422339E+01
7.50240480962E+10	2.00744519114E-01	-1.63015054875E+01	6.27906546068E-05	9.03664282847E+01	3.15543998707E-05	7.87368196113E+01	2.16348843665E-01	-2.93058809982E+01
7.50300601202E+10	1.98709666989E-01	-1.37693458972E+01	4.35934999561E-05	2.73807613851E+01	8.08664192993E-05	1.93494137205E+01	2.12384528576E-01	-2.65773182442E+01
7.50360721443E+10	1.99445126131E-01	-1.32610240630E+01	9.24334200538E-05	1.31962568068E+00	1.27469454614E-04	1.36810844319E+01	2.13162750413E-01	-2.75868336151E+01
7.50420841683E+10	2.00464014011E-01	-1.56431895205E+01	1.06088622964E-04	-2.27831137481E+01	1.45749695771E-04	-5.41303799525E+01	2.13918384703E-01	-2.82127683724E+01
7.50480961924E+10	1.98229293699E-01	-1.68012184494E+01	1.15904627844E-04	-4.40204334347E+01	1.50811687268E-04	-5.39632442153E+01	2.10436208706E-01	-2.87477325868E+01
7.50541082164E+10	1.95572137294E-01	-1.47317618695E+01	7.86874697420E-05	-9.39070133294E+01	1.19259664225E-04	-8.00495433752E+01	2.11252174471E-01	-2.82551016093E+01
7.50601202405E+10	1.98857731506E-01	-1.44582782410E+01	7.56605661315E-05	-3.81801966690E+01	1.00250094010E-04	-1.16005899929E+02	2.13297298588E-01	-2.88604744641E+01
7.50661322645E+10	2.01649603329E-01	-1.69751212616E+01	4.81182625911E-05	-9.88129494078E+01	5.00072359847E-05	-1.61205782018E+02	2.11441850768E-01	-2.88973199469E+01
7.50721442886E+10	1.96809173110E-01	-1.40522223666E+01	9.09914943297E-05	-8.73253893002E+01	8.09819017740E-05	-1.32955055736E+02	2.12915699293E-01	-3.02026673575E+01
7.50781563126E+10	2.00295391231E-01	-1.83563875162E+01	2.18546994994E-05	1.02225733348E+02	1.33649928878E-04	-1.33030600564E+02	2.12312121312E-01	-3.00814339843E+01
7.50841683367E+10	1.96354315474E-01	-1.66426392174E+01	3.33244549980E-05	1.56013954861E+02	4.39416668833E-05	-1.44460678971E+02	2.11028250391E-01	-2.85208883506E+01
7.50901803607E+10	1.98913163968E-01	-1.67339734363E+01	4.03684221748E-06	1.77823498696E+02	8.20115628535E-05	-1.70604892880E+02	2.14071183340E-01	-2.99295356647E+01
7.50961923848E+10	1.99677748927E-01	-1.66036727145E+01	8.05781541616E-05	1.18520710148E+02	6.20115378296E-05	8.48705769042E+01	2.11519311387E-01	-3.09593114193E+01
7.51022044088E+10	1.95970089561E-01	-1.51952440059E+01	3.67608432766E-05	-1.59521006921E+02	5.67557368360E-05	1.17209923240E+02	2.11765210625E-01	-3.05538053008E+01
7.51082164329E+10	1.96244148301E-01	-1.75641991551E+01	6.74421650518E-05	3.73303834248E+01	9.40801160870E-05	-1.65622742150E+02	2.12424503452E-01	-3.11662160232E+01
7.51142284569E+10	1.93780179904E-01	-1.51604320182E+01	1.19148152024E-05	-8.17300436559E+01	9.95669968276E-05	1.43512367096E+02	2.12181074861E-01	-3.21496450120E+01
7.51202404810E+10	1.98581131678E-01	-1.91599977088E+01	1.84153242473E-05	-4.37939527407E+01	3.50062579043E-05	-9.76563488774E+01	2.12459491364E-01	-3.22209447663E+01
7.51262525050E+10	1.95249744613E-01	-1.72098761196E+01	1.30815367145E-05	8.05666559266E+01	6.47176530571E-06	1.55246825129E+02	2.07589980055E-01	-3.13557172573E+01
7.51322645291E+10	1.94728333855E-01	-1.56137085479E+01	6.66181731217E-05	-1.22118423701E+02	7.66234847446E-05	1.19987754737E+02	2.09051978851E-01	-3.07813640064E+01
7.51382765531E+10	1.95484766529E-01	-1.79341252331E+01	4.42202301393E-05	-7.72689494561E+01	6.82714902162E-05	1.61254567737E+02	2.09413585573E-01	-3.25019181585E+01
7.51442885772E+10	1.93466509284E-01	-1.60304608437E+01	5.99470866298E-05	-1.41112981787E+02	7.54493451282E-05	1.34185835057E+02	2.12240468297E-01	-3.25609836840E+01
7.51503006012E+10	1.93690014023E-01	-1.75585195579E+01	5.29361305991E-05	1.49543758391E+02	7.86456503469E-05	1.71635103733E+02	2.09491626843E-01	-3.33450926838E+01
7.51563126253E+10	1.93547387050E-01	-1.96955046274E+01	5.64438962374E-05	1.71606695352E+02	9.82155589579E-05	7.83593463555E+01	2.06471711708E-01	-3.15717604724E+01
7.51623246493E+10	1.96359118419E-01	-1.90717084884E+01	6.78265587300E-05	1.19648741500E+02	1.10354009682E-04	9.09850156642E+01	2.09781259185E-01	-3.31259967142E+01
7.51683366733E+10	1.92381362145E-01	-1.81045660943E+01	6.87591825849E-05	1.75753526715E+01	1.54836137895E-04	6.33500376508E+01	2.08663320851E-01	-3.20765071896E+01
7.51743486974E+10	1.97021348406E-01	-1.96893544642E+01	1.16861901282E-04	2.63119378906E+01	1.45849670705E-04	6.34834710702E+01	2.10039531865E-01	-3.40848426391E+01
7.51803607214E+10	1.93889627722E-01	-1.86275482237E+01	7.88607983167E-05	3.15096469098E+01	5.88796364192E-05	4.93149873130E+01	2.08325583807E-01	-3.43801243961E+01
7.51863727455E+10	1.95619855174E-01	-1.95721885394E+01	2.82503440649E-05	6.47517772741E+00	1.21428685549E-04	1.88931593505E+01	2.06892097804E-01	-3.33570593061E+01
7.51923847695E+10	1.92062677647E-01	-1.96680653175E+01	3.53925334203E-05	-7.28071850041E+01	4.42532318953E-05	1.21854603683E+01	2.09037931439E-01	-3.37030434425E+01
7.51983967936E+10	1.92480371738E-01	-1.88577399922E+01	9.59989096643E-05	-1.67073589287E+02	1.15502998539E-05	1.97802167420E+01	2.07902604508E-01	-3.36861997764E+01
7.52044088176E+10	1.96819919377E-01	-2.08221904891E+01	7.07002573922E-05	8.52880531446E+01	2.87684873798E-05	4.25475974344E+01	2.07465518257E-01	-3.42643215077E+01
7.52104208417E+10	1.92502019691E-01	-1.93482952040E+01	4.78751317542E-05	1.34194847327E+02	8.05334280389E-05	2.99575482651E+01	2.06279915192E-01	-3.46267470287E+01
7.52164328657E+10	1.94278411375E-01	-2.07135409192E+01	5.64086784571E-05	7.26397303307E+01	7.62448156324E-05	-4.21681973909E+00	2.08707594522E-01	-3.58131481063E+01
7.52224448898E+10	1.93513526780E-01	-2.12863132774E+01	5.73506810528E-05	3.11778372501E+01	7.77779798902E-05	3.27166224897E+01	2.05122410360E-01	-3.45153043953E+01
7.52284569138E+10	1.97292030650E-01	-2.18869080795E+01	1.23266024584E-04	4.23801250069E+01	1.21873499807E-04	-7.12961998645E-02	2.03419368438E-01	-3.46655731860E+01
7.52344689379E+10	1.91241434732E-01	-2.00026772538E+01	7.02916977746E-05	8.06516459262E+00	6.69312577260E-05	3.97629239964E+01	2.09666767471E-01	-3.76848004311E+01
7.52404809619E+10	1.94680608754E-01	-2.05859459854E+01	1.06054046379E-05	1.61440689290E+02	5.39824365284E-05	2.23687117966E+01	2.08068486654E-01	-3.65809076874E+01
7.52464929860E+10	1.93605398657E-01	-2.08617554097E+01	5.30959592741E-05	-1.36065386388E+01	1.33287452381E-04	-8.89699559230E+01	2.03537784529E-01	-3.48316796058E+01
7.52525050100E+10	1.90325207678E-01	-2.11529096812E+01	3.80834736070E-05	1.70655422368E+01	6.98612896474E-05	-7.17712632733E+01	2.07366513987E-01	-3.80806975626E+01
7.52585170341E+10	1.91827858181E-01	-2.16470438034E+01	6.74701030977E-05	2.13240835795E+01	5.07449763261E-05	-5.41359588014E+01	2.07423724583E-01	-3.75387804875E+01
7.52645290581E+10	1.92566976376E-01	-2.05759210707E+01	3.92978907360E-05	3.21498096302E+01	6.99596865821E-05	-6.21677846296E+01	2.06306546319E-01	-3.69835905778E+01
7.52705410822E+10	1.93516597839E-01	-2.34220505591E+01	3.06917176485E-05	-2.07783700822E+01	1.25398021537E-04	-1.02887214975E+02	2.03601916483E-01	-3.67625501388E+01
7.52765531062E+10	1.92455157995E-01	-2.32794656821E+01	5.84486989356E-05	-9.52269770021E+01	1.32618894144E-04	-1.14973443557E+02	2.02437678238E-01	-3.71879701288E+01
7.52825651303E+10	1.90286259520E-01	-2.30163854312E+01	1.03360951742E-04	-9.56037408126E+01	7.42370924302E-05	-1.31316900028E+02	2.03233527118E-01	-3.77927326046E+01
7.52885771543E+10	1.90454258199E-01	-2.11045470909E+01	6.31217421043E-05	-1.70059822856E+02	1.02653195974E-04	-1.44898420485E+02	2.04066665260E-01	-3.76498687599E+01
7.52945891784E+10	1.93090641812E-01	-2.16589439467E+01	2.76233471606E-05	1.07251038757E+02	3.74741984441E-05	1.44540942552E+02	2.04868953958E-01	-3.80124132835E+01
7.53006012024E+10	1.92513656806E-01	-2.24930816676E+01	4.66032043991E-05	1.78062094635E+02	9.90695446301E-05	1.62305156142E+02	2.03263854537E-01	-3.79507286494E+01
7.53066132265E+10	1.90815617165E-01	-2.33202027051E+01	2.49848587319E-05	-5.00917530460E+01	4.22189407752E-05	-1.69403382183E+02	2.03253660926E-01	-3.87287416753E+01
7.53126252505E+10	1.88568699973E-01	-2.18782958247E+01	2.30445957359E-05	1.30302158199E+02	4.90140530588E-05	9.48834385396E+01	1.98817873238E-01	-3.80082841273E+01
7.53186372745E+10	1.92909338600E-01	-2.36471963948E+01	5.71695681360E-05	-5.12513024308E+01	4.38421803933E-05	7.81182191749E+01	2.02965911263E-01	-3.97846977514E+01
7.53246492986E+10	1.91451441250E-01	-2.27756545183E+01	8.26366317583E-05	-6.12793758607E+01	8.18488974503E-05	2.14209355952E+01	2.04647093712E-01	-3.97977432617E+01
7.53306613226E+10	1.91072167612E-01	-2.24584344073E+01	4.72021213804E-05	-2.31511536192E+01	6.95675645733E-05	-7.06712231239E+01	2.05439876159E-01	-4.01548006798E+01
7.53366733467E+10	1.90017214203E-01	-2.45127578579E+01	9.61147035657E-05	-4.01615638807E+01	5.22393376837E-05	4.27172437647E+01	2.01789166106E-01	-4.09385881024E+01
7.53426853707E+10	1.90807386467E-01	-2.40869314033E+01	7.25247746037E-05	-1.11119967421E+02	5.79563286612E-05	7.78687417119E+01	2.00917514869E-01	-3.98785861778E+01
7.53486973948E+10	1.94365851094E-01	-2.40518407970E+01	5.46512072184E-05	-1.38899385711E+02	7.51311137884E-06	7.17803123173E+01	1.99054752731E-01	-3.91309275900E+01
7.53547094188E+10	1.89698448914E-01	-2.24945507998E+01	6.76558683643E-05	1.93922308201E+01	7.64802243037E-06	-2.01463416168E+01	2.02615147277E-01	-4.13034329694E+01
7.53607214429E+10	1.89546291436E-01	-2.30682368593E+01	4.79468255772E-05	4.26138213657E+01	4.29092564973E-05	3.22777263993E+01	2.03161829820E-01	-4.21021150319E+01
7.53667334669E+10	1.90373618489E-01	-2.42204139247E+01	2.17828071256E-05	7.64014472033E+00	3.17533100147E-05	-1.34389293617E+02	2.00392731966E-01	-4.15621817878E+01
7.53727454910E+10	1.94228658742E-01	-2.59431811969E+01	4.77884220283E-05	-4.57414912150E+01	1.21416624741E-05	-3.57106258347E+01	2.00236059253E-01	-4.11836642133E+01
7.53787575150E+10	1.88618720843E-01	-2.40529580297E+01	4.03097927593E-05	-1.54085770658E+02	3.68510018008E-05	-4.46515780485E+01	1.98242620424E-01	-4.07938766445E+01
7.53847695391E+10	1.91075941457E-01	-2.49674874400E+01	6.38746145308E-05	-7.98427812206E+01	3.75376081982E-05	-6.26808026024E+01	1.98928406293E-01	-4.12353356822E+01
7.53907815631E+10	1.91116293969E-01	-2.51674625419E+01	1.58226021939E-05	-1.10715188266E+02	8.04507400672E-05	-1.13564929490E+02	2.00538481309E-01	-4.32217935246E+01
7.53967935872E+10	1.91835118036E-01	-2.57457045749E+01	3.22606215852E-05	-3.95706027960E+01	8.21066049659E-05	-6.02126635657E+01	2.00034016237E-01	-4.19332136495E+01
7.54028056112E+10	1.90401358278E-01	-2.55923405042E+01	2.41429142484E-05	4.40430130668E+01	9.23075581510E-05	-2.32943387875E+01	1.98332704631E-01	-4.11878479338E+01
7.54088176353E+10	1.88377785348E-01	-2.56257002534E+01	2.81853182195E-05	7.29885852431E+01	2.82530269450E-05	-8.18725350429E+01	1.98901631178E-01	-4.29174868427E+01
7.54148296593E+10	1.90997150332E-01	-2.64624230727E+01	5.97325967091E-05	-5.91292713814E+01	1.06472064537E-04	-6.95498800169E+01	1.96965873123E-01	-4.37646847420E+01
7.54208416834E+10	1.95302321623E-01	-2.78708479996E+01	6.80387301311E-05	-4.24883419884E+01	1.04412482429E-04	-8.52177723578E+01	1.97938104615E-01	-4.25106255110E+01
7.54268537074E+10	1.91135813894E-01	-2.64826165262E+01	6.10863294125E-05	-2.30009268309E+01	5.55405044910E-05	-1.13190375776E+02	1.99658252757E-01	-4.31888608128E+01
7.54328657315E+10	1.87391283726E-01	-2.56186235823E+01	8.86965508722E-05	-2.21897493741E+01	4.57235223709E-05	-6.24668726130E+01	1.97026328800E-01	-4.28450668717E+01
7.54388777555E+10	1.86878702872E-01	-2.58406422162E+01	7.90196216193E-05	-9.71443202864E+01	1.29880485440E-04	-1.40328350091E+02	1.96558692678E-01	-4.42701705938E+01
7.54448897796E+10	1.86516673061E-01	-2.69703791465E+01	6.60617557479E-05	-9.30892494642E+01	1.27792308411E-04	-1.02736045997E+02	1.97566911113E-01	-4.49883454725E+01
7.54509018036E+10	1.93012608964E-01	-2.87839063348E+01	3.93210760617E-05	-1.66501505877E+02	1.24423430242E-04	-1.44356171597E+02	1.96668418734E-01	-4.46457812175E+01
7.54569138277E+10	1.89728508130E-01	-2.78264121287E+01	5.70163538205E-05	5.24932183028E+01	7.98710350976E-05	1.63016600494E+02	1.95851680382E-01	-4.50458846170E+01
7.54629258517E+10	1.89498329918E-01	-2.68262519402E+01	2.48622223473E-05	-1.04872699593E+02	5.33768682813E-05	1.46082730162E+02	1.97072912759E-01	-4.49782260141E+01
7.54689378758E+10	1.87543857967E-01	-2.78835924699E+01	3.97720361917E-05	-7.88294719449E+01	4.18918718983E-05	-3.11579399864E+01	1.96519396147E-01	-4.44073608191E+01
7.54749498998E+10	1.91113122187E-01	-2.88340978284E+01	1.07563757526E-04	-1.29627913745E+02	1.56338865648E-04	-1.10486620429E+02	1.96555077638E-01	-4.49511221268E+01
7.54809619238E+10	1.89275870857E-01	-2.80684752691E+01	9.03272854258E-05	-1.28016142836E+02	6.31670333759E-05	-1.56027932856E+02	1.96740523766E-01	-4.58993844174E+01
7.54869739479E+10	1.89516699838E-01	-2.76901484006E+01	1.61865174624E-05	-1.65612359589E+02	5.55262934325E-05	-1.71420477766E+02	1.96614927051E-01	-4.70969510469E+01
7.54929859719E+10	1.86459871513E-01	-2.73722680897E+01	2.61530977935E-05	-1.41267964608E+02	6.70716182420E-05	-1.58805983493E+02	1.97327632389E-01	-4.66676252059E+01
7.54989979960E+10	1.84894368832E-01	-2.80221570229E+01	6.56573988231E-05	-1.49092978917E+02	6.19986399551E-05	1.06900473054E+02	1.95308780301E-01	-4.55843540703E+01
7.55050100200E+10	1.90587555092E-01	-3.10744121108E+01	2.44607763264E-05	-1.02785891961E+02	9.37218208096E-05	-1.72324933256E+02	1.96424598961E-01	-4.63650817460E+01
7.55110220441E+10	1.90790101582E-01	-3.00854521746E+01	1.13010029135E-04	-1.65157151618E+02	2.18489948359E-05	-1.66382719023E+02	1.96508048732E-01	-4.80595125671E+01
7.55170340681E+10	1.88519381775E-01	-3.02799727855E+01	4.07181491995E-05	1.46089058921E+02	8.37855329787E-05	1.75615512454E+02	1.95023781725E-01	-4.65217280989E+01
7.55230460922E+10	1.85822886635E-01	-2.93015991151E+01	8.61126366858E-05	1.61137340250E+02	9.83114674206E-05	1.72166736748E+02	1.95282478777E-01	-4.71398219191E+01
7.55290581162E+10	1.85944998125E-01	-2.97844518890E+01	9.86724607520E-05	1.45807228250E+02	5.84067362247E-05	-1.49532245359E+02	1.94477557495E-01	-4.71102011626E+01
7.55350701403E+10	1.88246093747E-01	-3.05013656761E+01	1.12956834710E-04	-1.62502649938E+02	1.19641441079E-04	1.47558922732E+02	1.92171024132E-01	-4.68809587527E+01
7.55410821643E+10	1.87890809582E-01	-3.06954404093E+01	7.70988797017E-05	1.59808454300E+02	1.21648110329E-04	1.51502771629E+02	1.94736261452E-01	-4.81351758336E+01
7.55470941884E+10	1.88826153500E-01	-3.10791842665E+01	9.94006158867E-05	1.30345695744E+02	9.22087708104E-05	1.46527137905E+02	1.93808069427E-01	-4.81633551022E+01
7.55531062124E+10	1.85005480303E-01	-2.87393201450E+01	1.04810747688E-04	1.12805804577E+02	1.01885077519E-04	1.17800108448E+02	1.94391738803E-01	-4.87208510695E+01
7.55591182365E+10	1.85140361428E-01	-3.10872383649E+01	5.64932830004E-05	1.20180747510E+02	1.40576721724E-04	8.05123841206E+01	1.92908385511E-01	-4.98454612950E+01
7.55651302605E+10	1.84414617078E-01	-3.01965863252E+01	1.11148019808E-04	9.77409433750E+01	8.43576605837E-05	9.76605657337E+01	1.93004146597E-01	-4.93705084110E+01
7.55711422846E+10	1.87637486511E-01	-3.03384121314E+01	1.12987601499E-04	3.72454289033E+01	4.64877317521E-05	9.52248098161E+01	1.95184366848E-01	-4.97979097207E+01
7.55771543086E+10	1.87323522513E-01	-3.16844074282E+01	3.22986814734E-05	9.29513522240E+01	4.51458975632E-05	1.46663017164E+02	1.94179283016E-01	-5.02599518598E+01
7.55831663327E+10	1.82071939717E-01	-3.05462213984E+01	6.89193635841E-05	1.31319384383E+02	4.67164871678E-05	9.41177434758E+01	1.91720892041E-01	-4.97532937905E+01
7.55891783567E+10	1.84963433769E-01	-3.11872435096E+01	8.63899148317E-05	1.18228901427E+02	6.13642644118E-05	7.02719615744E+01	1.91736122020E-01	-4.93282523988E+01
7.55951903808E+10	1.87736956442E-01	-3.36066669983E+01	7.46558723756E-05	6.04768049441E+01	5.22760262943E-05	1.11228809132E+02	1.94751431911E-01	-5.11022418014E+01
7.56012024048E+10	1.88272982533E-01	-3.20749749030E+01	5.02612265118E-05	1.31196453768E+02	8.30562466567E-05	8.79523411114E+01	1.92718043193E-01	-5.08735188102E+01
7.56072144289E+10	1.86806483639E-01	-3.25248377126E+01	5.80583180970E-05	8.33134905198E+01	8.77168499125E-05	6.88964184032E+01	1.89815820462E-01	-5.06294669212E+01
7.56132264529E+10	1.86288136866E-01	-3.27828273811E+01	6.67934822809E-05	1.51547037326E+02	7.21252944709E-05	4.14746899377E+01	1.92026782040E-01	-5.08428343742E+01
7.56192384770E+10	1.83745868707E-01	-3.31045233564E+01	5.82557051142E-05	3.97104868162E+01	1.07400909853E-04	7.82867337323E+01	1.91959597817E-01	-5.18234080856E+01
7.56252505010E+10	1.83467895545E-01	-3.20206896530E+01	1.16655215488E-04	8.60418194980E+01	1.06035974349E-04	7.00910921462E+01	1.92739468202E-01	-5.21863145788E+01
7.56312625251E+10	1.86497151752E-01	-3.28180584883E+01	1.09770821159E-04	5.89037705552E+01	7.32309196286E-05	2.86091938482E+01	1.89914708980E-01	-5.14947324439E+01
7.56372745491E+10	1.83691078882E-01	-3.22610082960E+01	1.23091082355E-04	5.01705170786E+01	1.26248895580E-04	4.82079774426E+01	1.89887155269E-01	-5.10853949366E+01
7.56432865731E+10	1.83276743433E-01	-3.40707133324E+01	1.39932567015E-04	1.57962006420E+01	9.87785328184E-05	-2.47893354708E+01	1.91899813439E-01	-5.20547683760E+01
7.56492985972E+10	1.83328610254E-01	-3.32945411422E+01	8.73953928632E-05	-1.85387699688E+00	4.27260827370E-05	-2.95310270536E+01	1.91066138735E-01	-5.37418768168E+01
7.56553106212E+10	1.86007506961E-01	-3.40716913664E+01	3.43539054056E-05	8.33579873227E+01	3.84675229985E-05	-7.29983223043E-02	1.90259625192E-01	-5.32203324589E+01
7.56613226453E+10	1.82598611575E-01	-3.09562807111E+01	1.03341178692E-04	-2.13229041028E+01	5.83299561311E-05	4.35694470818E+01	1.89312378949E-01	-5.19589556811E+01
7.56673346693E+10	1.83032493951E-01	-3.27539939226E+01	1.06977838879E-04	-1.28851443591E+01	2.94605152246E-05	-3.53799094628E+01	1.91293071577E-01	-5.41426432742E+01
7.56733466934E+10	1.83183183490E-01	-3.45170568758E+01	1.91365975090E-05	4.43880704608E+01	6.58976588218E-05	-1.89797734156E+01	1.90204255012E-01	-5.51687683314E+01
7.56793587174E+10	1.80845417669E-01	-3.34561692795E+01	7.74019149489E-05	-4.04165501819E+01	6.42952382137E-05	4.16825759962E+01	1.87721386478E-01	-5.48241986335E+01
7.56853707415E+10	1.80942670150E-01	-3.38087072147E+01	5.90789096456E-05	-6.17319870928E+01	7.30254772074E-05	-2.31558283969E+00	1.90371073290E-01	-5.39988129046E+01
7.56913827655E+10	1.83642574316E-01	-3.52968904918E+01	6.42746546995E-05	-7.25112522070E+01	7.80777004379E-05	6.27016310153E+00	1.88051450663E-01	-5.33917324057E+01
7.56973947896E+10	1.83505326150E-01	-3.52701781880E+01	6.20619853455E-05	-9.37511484787E+01	8.02948960066E-05	2.70038934112E+01	1.87424565538E-01	-5.53387812430E+01
7.57034068136E+10	1.85831109842E-01	-3.52233642051E+01	3.46125541213E-05	-1.71300003721E+01	1.04190944681E-04	-7.49957084048E+00	1.85840848257E-01	-5.36557974429E+01
7.57094188377E+10	1.83010459884E-01	-3.61352800600E+01	5.54134673850E-05	-1.19913103888E+02	3.93449795824E-05	2.79057364494E+01	1.86817111193E-01	-5.51290199997E+01
7.57154308617E+10	1.82964086104E-01	-3.60593208037E+01	6.76858188043E-05	4.61335338088E+00	4.29185805538E-05	-1.28721003460E+01	1.88506568067E-01	-5.56217157680E+01
7.57214428858E+10	1.82668739150E-01	-3.42239200599E+01	6.55060954542E-05	-4.64554394897E+01	4.42433268881E-05	-3.40358645565E+01	1.89307081267E-01	-5.45099684524E+01
7.57274549098E+10	1.85058675068E-01	-3.57600798814E+01	4.66864730762E-05	-6.97721581721E+01	1.70911674700E-04	-7.11344530112E+01	1.87530658827E-01	-5.62930221870E+01
7.57334669339E+10	1.83891090162E-01	-3.74088379788E+01	1.03674234383E-04	-1.11879052814E+02	2.64011946641E-05	-7.22088268806E+01	1.88854686346E-01	-5.60080262170E+01
7.57394789579E+10	1.82047950447E-01	-3.70367951444E+01	8.27406152099E-05	-9.12723175933E+01	8.80682371373E-05	-8.23525519367E+01	1.87790372830E-01	-5.71673084548E+01
7.57454909820E+10	1.81342825985E-01	-3.55315219672E+01	5.66480609800E-05	-8.00011195638E+01	4.67077504369E-05	2.92123949970E+01	1.85182710375E-01	-5.54537311800E+01
7.57515030060E+10	1.83992246751E-01	-3.60794244553E+01	3.92750985599E-05	-1.64490787660E+02	4.48127831268E-05	2.43689211871E+01	1.90044699201E-01	-5.86136184703E+01
7.57575150301E+10	1.82742961776E-01	-3.65624583241E+01	5.39675832913E-05	-9.22475957978E+01	7.51389381877E-05	6.23669197445E+00	1.87138272993E-01	-5.85665840096E+01
7.57635270541E+10	1.80890352016E-01	-3.69850094679E+01	1.81070197300E-05	-6.47703716195E+01	1.30244093650E-04	-1.19945171027E+01	1.85041771284E-01	-5.91559101403E+01
7.57695390782E+10	1.82606617370E-01	-3.81735742453E+01	2.12289543272E-05	-1.13530102851E+02	1.22842166630E-04	-1.75452113163E+01	1.88601169328E-01	-5.79389842725E+01
7.57755511022E+10	1.83222553253E-01	-3.85989579575E+01	3.75922687049E-05	6.92123178705E+01	6.79394996161E-05	-6.47396162927E+01	1.86160235578E-01	-5.72610185514E+01
7.57815631263E+10	1.80784562395E-01	-3.73266265873E+01	7.75241716521E-05	1.20621587579E+02	4.32395304574E-05	-1.10890472709E+02	1.85095448772E-01	-5.83739051789E+01
7.57875751503E+10	1.79168628530E-01	-3.68012718900E+01	8.06225675118E-05	1.52403998882E+02	5.06870312980E-05	-8.44219323788E+01	1.84630326206E-01	-6.02499802359E+01
7.57935871743E+10	1.83107726937E-01	-3.79515504597E+01	1.02204340482E-04	4.89626359331E+01	4.45397539646E-05	-1.41275722084E+01	1.86120704024E-01	-6.00169857745E+01
7.57995991984E+10	1.79205348507E-01	-3.89451085886E+01	4.64599543219E-05	1.92966118710E+01	4.74112980767E-05	-2.85930678186E+01	1.85470423418E-01	-5.95073174341E+01
7.58056112224E+10	1.82631803835E-01	-3.90055846334E+01	7.68292636701E-05	-2.86104526917E+00	7.33358355254E-05	-2.18457567115E+01	1.84964313531E-01	-6.03266173797E+01
7.58116232465E+10	1.82282452125E-01	-3.72772896551E+01	4.64620173488E-05	7.47429911798E+01	5.04016725510E-05	-1.11739433149E+02	1.83606500049E-01	-6.02821145939E+01
7.58176352705E+10	1.80174958176E-01	-3.82289072531E+01	8.08032358388E-05	-2.09296440154E+01	3.48239729545E-05	-1.23712574474E+02	1.82668085016E-01	-5.99336065925E+01
7.58236472946E+10	1.82983687868E-01	-4.06911588366E+01	3.46816038865E-05	-5.86549833691E+01	9.37157203770E-05	-1.01249000173E+02	1.83511449817E-01	-5.96980702736E+01
7.58296593186E+10	1.81906186819E-01	-4.03799591349E+01	3.65489689133E-05	4.01027884269E+01	1.49691715317E-04	-8.65043453182E+01	1.85156152192E-01	-6.17501439549E+01
7.58356713427E+10	1.81420473161E-01	-4.00000572740E+01	6.33246221296E-05	-1.01501674887E+02	5.96223678422E-05	-1.53997775997E+02	1.82773136560E-01	-6.03138274428E+01
7.58416833667E+10	1.80682242871E-01	-3.97839797350E+01	3.33102683739E-05	3.07266856688E+01	1.06693593817E-04	-1.51426700553E+02	1.81131982440E-01	-6.08746030136E+01
7.58476953908E+10	1.79577032437E-01	-4.06224359871E+01	3.07326090344E-05	3.38060203473E+01	3.33082065819E-05	-7.15312994961E+01	1.80635316404E-01	-6.18119683448E+01
7.58537074148E+10	1.81467151545E-01	-4.00924931808E+01	3.53476869253E-05	-1.36678706261E+02	1.13441165876E-04	-1.44497668169E+02	1.83456591824E-01	-6.23432186767E+01
7.58597194389E+10	1.80449860670E-01	-3.88294869466E+01	1.08400721642E-04	-6.18431311899E+01	5.09683345589E-05	-8.65172321897E+01	1.81713108369E-01	-6.38668677381E+01
7.58657314629E+10	1.80249666770E-01	-4.01774565429E+01	1.15344835544E-04	-4.73547069533E+01	1.01874507157E-04	-1.28890836609E+02	1.82500579180E-01	-6.23177129083E+01
7.58717434870E+10	1.78346071726E-01	-4.15833946561E+01	3.62762460394E-05	-4.06073794289E+01	1.04759586368E-04	-1.54768081389E+02	1.81326379351E-01	-6.19956321089E+01
7.58777555110E+10	1.77344675433E-01	-3.85540369939E+01	8.98760234521E-05	-5.69617237727E+01	1.16525571272E-04	1.72194389724E+02	1.83070878045E-01	-6.34349702882E+01
7.58837675351E+10	1.75917659900E-01	-3.99024001449E+01	5.54222904241E-05	-1.41884099840E+02	1.29552438289E-04	1.66687535036E+02	1.80922062637E-01	-6.43432948284E+01
7.58897795591E+10	1.78370227971E-01	-4.07409144151E+01	9.54141574356E-05	-1.08799661456E+02	1.10213546942E-04	1.59951009328E+02	1.79369503514E-01	-6.31319290918E+01
7.58957915832E+10	1.78548378666E-01	-4.12277146929E+01	8.98131659051E-05	-8.48413741725E+01	1.17995430881E-04	1.60307542785E+02	1.79141321189E-01	-6.52968957532E+01
7.59018036072E+10	1.79396786303E-01	-4.14327250627E+01	1.08596722759E-04	-8.63929097000E+01	1.13747721166E-04	1.62388892188E+02	1.80841751475E-01	-6.63634844642E+01
7.59078156313E+10	1.78219532895E-01	-4.10634749146E+01	8.94227192933E-05	-1.50680015049E+02	7.96789264190E-05	1.55405851605E+02	1.80635471956E-01	-6.58925810587E+01
7.59138276553E+10	1.77738514322E-01	-4.23476730718E+01	1.15145004018E-04	-1.54395564444E+02	1.31209872656E-04	-1.70970792929E+02	1.78654752139E-01	-6.49531939249E+01
7.59198396794E+10	1.79779200869E-01	-4.10995059834E+01	1.57983001319E-04	-1.38389626459E+02	1.25285309562E-04	1.45338744131E+02	1.79071727541E-01	-6.61048542875E+01
7.59258517034E+10	1.79486933319E-01	-4.23659988885E+01	1.10060735224E-04	1.72098451395E+02	9.28407088242E-05	1.79452457371E+02	1.78751831280E-01	-6.51338471238E+01
7.59318637275E+10	1.78535004136E-01	-4.28105046227E+01	1.09418196523E-04	1.50737334803E+02	1.15978045112E-04	1.39119663562E+02	1.79832709176E-01	-6.69024301018E+01
7.59378757515E+10	1.75120548697E-01	-4.17934475879E+01	1.12953156419E-04	1.73421448343E+02	1.22851625234E-04	1.16283805595E+02	1.76755840184E-01	-6.56381339492E+01
7.59438877756E+10	1.79120727305E-01	-4.26082468027E+01	1.52900633569E-04	-1.63804857659E+02	1.09742278904E-04	1.29868684776E+02	1.78410396842E-01	-6.72685041671E+01
7.59498997996E+10	1.79634180875E-01	-4.33609849461E+01	7.98415509289E-05	1.74774228409E+02	9.27045321930E-05	1.08294812262E+02	1.77807311195E-01	-6.85081295659E+01
7.59559118236E+10	1.79166625396E-01	-4.37556646542E+01	1.46950973519E-04	1.19340561362E+02	1.45001475299E-04	1.22133100205E+02	1.77477027718E-01	-6.84409224687E+01
7.59619238477E+10	1.77836395257E-01	-4.51481689377E+01	7.61328081779E-05	1.36909483506E+02	1.20520220949E-04	1.07744910978E+02	1.74371830938E-01	-6.64739853308E+01
7.59679358717E+10	1.76144295558E-01	-4.22624995388E+01	5.09516885041E-05	1.55481082036E+02	1.11372370623E-04	1.00191143524E+02	1.74537433954E-01	-6.81772153244E+01
7.59739478958E+10	1.78957391486E-01	-4.35318973259E+01	1.20309676713E-04	9.90458535359E+01	1.27043844241E-04	6.85516369022E+01	1.76136211764E-01	-6.93224087052E+01
7.59799599198E+10	1.79354447062E-01	-4.47040719664E+01	1.03889128645E-04	9.07694815686E+01	1.21859243714E-04	4.63786983480E+01	1.75315029271E-01	-6.78012168460E+01
7.59859719439E+10	1.74917346532E-01	-4.48225773012E+01	3.30179999206E-05	1.10007256471E+02	9.94845242642E-05	3.74153903885E+01	1.73970128564E-01	-6.90655702939E+01
7.59919839679E+10	1.76997022537E-01	-4.37392504026E+01	6.01888419551E-05	1.05082329684E+02	1.22498000757E-04	5.51718114426E+01	1.75279604162E-01	-7.02980752154E+01
7.59979959920E+10	1.79228572821E-01	-4.56697064545E+01	9.72107696803E-05	5.92595080991E+01	9.62024819115E-05	5.53669669627E+01	1.71881350916E-01	-6.92921615720E+01
7.60040080160E+10	1.76600267583E-01	-4.52782664146E+01	9.71602331691E-05	1.11265097722E+02	1.10530761161E-04	5.50273699525E+01	1.74078655266E-01	-6.96715767567E+01
7.60100200401E+10	1.76189521081E-01	-4.47133243406E+01	9.70253815111E-05	6.70481131784E+01	1.12399084050E-04	4.13731569530E+01	1.72090367810E-01	-7.06566422210E+01
7.60160320641E+10	1.75505134294E-01	-4.57174962938E+01	1.28161586991E-04	7.66777791012E+01	1.12102971909E-04	3.17020161064E+00	1.74966548959E-01	-7.14513112159E+01
7.60220440882E+10	1.74644343274E-01	-4.47717410443E+01	1.63611289504E-04	4.56652763806E+01	9.60661212887E-05	1.10779451685E+01	1.73482898616E-01	-7.14462243315E+01
7.60280561122E+10	1.75202740617E-01	-4.44986314729E+01	9.35112249699E-05	5.76758602380E+01	5.38667271750E-05	-8.36994503649E+00	1.70034011030E-01	-7.10158453892E+01
7.60340681363E+10	1.73122183102E-01	-4.15740541219E+01	1.07677501441E-04	4.41291635219E+01	5.68693137204E-05	7.04001605182E-01	1.68669883421E-01	-7.05779986313E+01
7.60400801603E+10	1.73906375819E-01	-4.43546737718E+01	1.34840949970E-04	6.36425147887E+00	7.63400654188E-05	1.88484558900E+00	1.72658037118E-01	-7.40314753233E+01
7.60460921844E+10	1.73879171481E-01	-4.54908764912E+01	1.30844270041E-04	4.33035349596E+00	1.09393095569E-04	-1.56219708920E+01	1.70014466836E-01	-7.20645799695E+01
7.60521042084E+10	1.72212470990E-01	-4.57589932243E+01	1.78849750759E-04	2.72476097523E+01	9.36580091235E-05	-7.42013551296E+01	1.69446347410E-01	-7.19818118119E+01
7.60581162325E+10	1.73473246589E-01	-4.65114190534E+01	9.88901544855E-05	-1.10659491485E+01	1.36167893819E-04	-5.55823431150E+01	1.69811099627E-01	-7.21304664945E+01
7.60641282565E+10	1.74802176328E-01	-4.58280198299E+01	7.91101818968E-05	-2.20309246740E+01	8.80603307658E-05	-8.86270744956E+01	1.69780427732E-01	-7.43229497921E+01
7.60701402806E+10	1.73024379114E-01	-4.64939849857E+01	1.14126872695E-04	-1.50725674913E+01	1.05702190027E-04	-6.57942939109E+01	1.69255848341E-01	-7.37100586384E+01
7.60761523046E+10	1.74026976477E-01	-4.85385559012E+01	7.95994058869E-05	-2.41220702010E+01	1.61076418606E-04	-1.25474122151E+02	1.68407670623E-01	-7.37836327287E+01
7.60821643287E+10	1.75251462789E-01	-4.68123808896E+01	1.05947121377E-04	-1.91181258000E+01	1.12630414722E-04	-1.34786057110E+02	1.67819036582E-01	-7.39862575930E+01
7.60881763527E+10	1.74520161168E-01	-4.65588843501E+01	9.95998838401E-05	-8.40545542584E+01	7.24964791811E-05	-1.40981489730E+02	1.69273424725E-01	-7.54659967981E+01
7.60941883768E+10	1.71410527990E-01	-4.72895322401E+01	5.57718615013E-05	-9.35275689761E+01	7.46614175611E-05	1.56442304225E+02	1.66191211962E-01	-7.44124739135E+01
7.61002004008E+10	1.72092667723E-01	-4.66741756105E+01	4.06926094724E-05	-4.14671885894E+01	7.09604029508E-05	1.68167625745E+02	1.64811396283E-01	-7.38428707248E+01
7.61062124248E+10	1.74862665211E-01	-4.81791023741E+01	1.66445328322E-04	-3.01230216918E+01	9.81466109324E-05	-1.18493813721E+02	1.64212471625E-01	-7.39584651315E+01
7.61122244489E+10	1.70849507167E-01	-4.83041811323E+01	1.45642395162E-04	-5.85248755600E+01	3.03289920033E-05	-5.16931138630E+01	1.63987022582E-01	-7.48275522157E+01
7.61182364729E+10	1.73750494594E-01	-4.76712134076E+01	1.45650278780E-04	-5.61990070166E+01	4.32567441587E-05	-1.20610811957E+02	1.65508858618E-01	-7.61672470964E+01
7.61242484970E+10	1.69417564040E-01	-4.75249990971E+01	1.31576165980E-04	-1.17029492397E+02	7.07730863232E-05	-1.17790346569E+02	1.66255345374E-01	-7.71687390706E+01
7.61302605210E+10	1.70200162880E-01	-4.69122000105E+01	1.62581728831E-04	-1.14327196609E+02	6.84040019405E-05	1.75413369184E+02	1.64617159227E-01	-7.62770745099E+01
7.61362725451E+10	1.70369624160E-01	-4.80434566981E+01	1.29195400410E-04	-8.80068072734E+01	7.62278237907E-05	1.46541382205E+02	1.62131316483E-01	-7.58803200890E+01
7.61422845691E+10	1.72972648537E-01	-4.99283207213E+01	1.46405614533E-04	-1.23489026923E+02	5.71216598289E-05	1.50400794551E+02	1.61704940089E-01	-7.61677853023E+01
7.61482965932E+10	1.69052891669E-01	-5.01385854288E+01	1.28762791215E-04	-1.34550771381E+02	3.39418961274E-05	8.06208388325E+01	1.63668815771E-01	-7.72180874786E+01
7.61543086172E+10	1.73566015582E-01	-5.02061940680E+01	6.69956596553E-05	-1.23441917328E+02	9.98525672408E-05	9.71807731358E+01	1.62455918415E-01	-7.68658035295E+01
7.61603206413E+10	1.70730902991E-01	-4.92973821639E+01	1.03310111724E-04	-1.48799335382E+02	1.53268738322E-04	6.06599972466E+01	1.63487120679E-01	-7.79817065069E+01
7.61663326653E+10	1.69823583613E-01	-4.94141384196E+01	9.68116350340E-05	1.51566462019E+02	1.28539371791E-04	3.13178199405E+01	1.62139116011E-01	-7.83086995509E+01
7.61723446894E+10	1.72392137841E-01	-5.03359051469E+01	9.42597736565E-05	-1.70406843979E+02	5.70911190323E-05	2.11481296108E+01	1.60964253641E-01	-7.77510677867E+01
7.61783567134E+10	1.71533569701E-01	-5.04064663509E+01	5.52125627439E-05	1.29011758417E+02	8.74837714074E-05	3.34160367323E+01	1.60577937555E-01	-7.80913362451E+01
7.61843687375E+10	1.68961507495E-01	-4.87150162792E+01	1.19449307713E-04	-1.77063398738E+02	7.13323088702E-05	-6.07837134569E+01	1.61769807084E-01	-8.00511568799E+01
7.61903807615E+10	1.69960843122E-01	-5.05042066535E+01	1.09602315831E-04	-1.74570758792E+02	3.54916778318E-05	1.40559758091E+01	1.59090361596E-01	-7.84007336578E+01
7.61963927856E+10	1.70196351098E-01	-4.84277518011E+01	8.63464675170E-05	1.61690001703E+02	2.67805242059E-05	-9.20942841377E+00	1.57894300474E-01	-7.81189869309E+01
7.62024048096E+10	1.67081362725E-01	-5.02258549938E+01	1.30652088157E-04	1.54520579736E+02	2.21613856924E-05	2.88767208076E+01	1.59535132497E-01	-7.94778681387E+01
7.62084168337E+10	1.68016244612E-01	-5.08959204553E+01	3.19265984206E-05	-4.97176371829E+01	1.13857953458E-04	-1.48864340394E+01	1.56678554408E-01	-7.85744341961E+01
7.62144288577E+10	1.68373135931E-01	-5.00611183585E+01	9.06576829664E-05	9.28553465194E+01	3.42871589937E-05	-1.02739336221E+02	1.60390757470E-01	-8.10286127782E+01
7.62204408818E+10	1.68863629527E-01	-4.94006227345E+01	6.02459177130E-05	8.21822515477E+01	5.39944233041E-05	-7.03592412184E+01	1.59514382018E-01	-8.12840729410E+01
7.62264529058E+10	1.68165804273E-01	-4.83079772001E+01	1.08528136173E-04	7.14611644106E+01	6.40911580305E-05	-2.38115255725E+01	1.56945635950E-01	-8.01989600947E+01
7.62324649299E+10	1.67987644235E-01	-5.06411652299E+01	1.98118690405E-05	1.46995801623E+02	6.95999724441E-05	-6.55663854107E+01	1.55858419436E-01	-7.94824984539E+01
7.62384769539E+10	1.67442940780E-01	-5.01511405520E+01	1.04442372313E-04	5.78827400620E+01	4.37150952011E-05	-4.55821194018E+01	1.56681180145E-01	-8.15203683708E+01
7.62444889780E+10	1.67044188239E-01	-5.05501594312E+01	8.28008293019E-05	1.52981461993E+02	9.93633324554E-06	2.99442626310E+00	1.57505671710E-01	-8.24561656890E+01
7.62505010020E+10	1.69603969903E-01	-5.16895007730E+01	1.95922800565E-05	1.58975204279E+02	1.17912320131E-04	-1.65484216555E+02	1.55374309787E-01	-8.14212108597E+01
7.62565130261E+10	1.69307927499E-01	-5.21952049775E+01	9.89815805774E-05	4.61566793208E+01	9.43754390810E-05	-1.47412387180E+02	1.54933701692E-01	-8.19524847871E+01
7.62625250501E+10	1.68975969903E-01	-5.35905637076E+01	7.25507609058E-05	5.45924208764E+01	3.26088376671E-05	-8.20694202923E+01	1.57499324780E-01	-8.28507953066E+01
7.62685370741E+10	1.68241070833E-01	-5.23303990079E+01	8.98351730095E-05	4.00778977559E+01	6.59962164565E-05	1.38550340041E+02	1.55317079876E-01	-8.28835267544E+01
7.62745490982E+10	1.67733805557E-01	-5.27640141075E+01	3.59767055627E-05	3.17483505654E+01	7.81084000375E-05	-1.56553072875E+02	1.56944846130E-01	-8.38268623620E+01
7.62805611222E+10	1.69306571081E-01	-5.21825713515E+01	1.69042111509E-05	1.41184065036E+02	1.32517200582E-04	-1.35068043391E+02	1.53017787904E-01	-8.28378037482E+01
7.62865731463E+10	1.68227161089E-01	-5.03450078444E+01	3.46961525213E-05	-7.93221544388E+01	5.65124506332E-05	1.38468535773E+02	1.53019869065E-01	-8.34353019600E+01
7.62925851703E+10	1.67392789362E-01	-5.30188814987E+01	7.50116153847E-05	5.29170748482E+01	1.10819833729E-04	1.22847928447E+02	1.52813560786E-01	-8.35053014136E+01
7.62985971944E+10	1.69152679174E-01	-5.41526216125E+01	4.01979651297E-05	1.69298259536E+01	9.38252173088E-05	1.27097176671E+02	1.50559782159E-01	-8.24151968258E+01
7.63046092184E+10	1.67771126228E-01	-5.55121565187E+01	7.65645588744E-05	3.50201153567E+01	1.25736127094E-04	1.36122864700E+02	1.53825592653E-01	-8.48831231057E+01
7.63106212425E+10	1.68326846576E-01	-5.46395370752E+01	4.16134074260E-05	7.63473085314E-01	8.72785069842E-05	9.71134523909E+01	1.52280986690E-01	-8.47300689845E+01
7.63166332665E+10	1.65423638471E-01	-5.28352956196E+01	4.62065575891E-05	2.34202095110E+00	3.34087989210E-05	6.67153300399E+01	1.51487568931E-01	-8.50967206567E+01
7.63226452906E+10	1.69524188540E-01	-5.30217721604E+01	1.69544889593E-05	-1.00959576283E+02	7.18441624457E-05	1.44890001914E+02	1.51181965009E-01	-8.57089258214E+01
7.63286573146E+10	1.65933418147E-01	-5.20332126628E+01	4.25180194921E-05	-7.27734049152E+01	8.80232529330E-05	8.58116124773E+01	1.50663716905E-01	-8.57441582616E+01
7.63346693387E+10	1.66202986326E-01	-5.48058563129E+01	3.98022294244E-05	-9.40777837491E+01	1.03329893435E-04	4.96173291390E+01	1.51200162933E-01	-8.60491406869E+01
7.63406813627E+10	1.66402140518E-01	-5.34592890246E+01	2.70780175377E-05	-1.43582820726E+02	1.25373107890E-04	6.54455087237E+01	1.48969209936E-01	-8.64688107333E+01
7.63466933868E+10	1.69240194889E-01	-5.36028485088E+01	4.27485571101E-05	-7.64061717736E+00	4.19128727087E-05	2.95498447795E+00	1.50230374886E-01	-8.72621490725E+01
7.63527054108E+10	1.66264944206E-01	-5.33393041801E+01	7.75775108516E-05	-2.00721924973E+01	5.47988789932E-05	3.25751027009E+01	1.51444848151E-01	-8.81226124249E+01
7.63587174349E+10	1.65294013236E-01	-5.34149006521E+01	8.72597325681E-05	-5.01798437019E+01	9.62071096439E-05	1.59053402371E+01	1.48915016277E-01	-8.66879154741E+01
7.63647294589E+10	1.67352992040E-01	-5.38300810877E+01	8.94097102733E-05	-7.32894915731E+01	6.13442263119E-06	-6.55015431584E+01	1.47621719989E-01	-8.70143342048E+01
7.63707414830E+10	1.66643624403E-01	-5.33820415957E+01	3.37664241783E-05	-1.15981687484E+02	1.31998369767E-04	3.61066612509E+01	1.47864336517E-01	-8.87864804695E+01
7.63767535070E+10	1.66967502700E-01	-5.51850536881E+01	3.87308979895E-05	1.67395107998E+01	8.56291925941E-05	-2.60004605998E+01	1.47020795651E-01	-8.77120320490E+01
7.63827655311E+10	1.67225800643E-01	-5.73686508611E+01	9.56896178558E-05	-1.66118880731E+02	1.31174281752E-04	-4.10899696570E+01	1.48415339519E-01	-8.94869233410E+01
7.63887775551E+10	1.66063768206E-01	-5.48677608100E+01	8.69031344723E-05	-1.05443843615E+02	1.96384454805E-05	1.14820419259E+02	1.47032151029E-01	-8.90295154465E+01
7.63947895792E+10	1.65711869990E-01	-5.50390335688E+01	7.99141248572E-05	-1.60361981288E+02	5.71157847333E-05	2.58785070564E+00	1.46044193217E-01	-8.87930275970E+01
7.64008016032E+10	1.62454197623E-01	-5.49488026049E+01	8.00642099360E-05	1.04184516399E+02	8.14412624764E-05	-3.56750269414E+00	1.44412232864E-01	-8.90056485341E+01
7.64068136273E+10	1.67875714624E-01	-5.68407318834E+01	5.60521648603E-05	1.30234925240E+02	9.82390080423E-05	-1.32709549451E+01	1.44174476320E-01	-9.00281894242E+01
7.64128256513E+10	1.67192578143E-01	-5.83011352015E+01	5.36485700661E-05	1.25227196766E+02	6.06632010556E-05	-1.13603814457E+01	1.46358134927E-01	-9.23155405239E+01
7.64188376754E+10	1.65068101048E-01	-5.62358080304E+01	7.19428426253E-05	-1.72845363187E+02	1.45834323623E-04	-5.16371623532E+01	1.44880757489E-01	-9.09505017508E+01
7.64248496994E+10	1.63835803431E-01	-5.58623095658E+01	1.22031182482E-04	7.51943995826E+01	5.37002506187E-05	-2.70675326647E+01	1.42531112382E-01	-9.10229487454E+01
7.64308617234E+10	1.64709279615E-01	-5.50978064419E+01	7.30076739232E-05	4.57248736216E+01	3.54490858614E-05	-1.43314070564E+02	1.42371951318E-01	-9.10347599054E+01
7.64368737475E+10	1.66383205100E-01	-5.80343194054E+01	1.47010812158E-05	-5.50026886193E+01	1.08291810456E-04	-7.12515691530E+01	1.43813065288E-01	-9.21208508049E+01
7.64428857715E+10	1.66462251080E-01	-5.84004307248E+01	9.40994363209E-05	1.44075621946E+01	6.23590917216E-05	-9.82254608082E+01	1.42719270343E-01	-9.18690771785E+01
7.64488977956E+10	1.65170544261E-01	-5.89337676846E+01	1.66228881013E-05	-1.70554330946E+02	1.06949653408E-04	-6.72131207297E+01	1.41832664994E-01	-9.17948342733E+01
7.64549098196E+10	1.62970135794E-01	-5.79459772007E+01	2.22568509298E-05	2.02587107044E+01	8.69940043106E-05	-1.46963456248E+02	1.41662771274E-01	-9.22989790603E+01
7.64609218437E+10	1.62582663283E-01	-5.74118810370E+01	2.43685764474E-05	1.68650166225E+02	5.61280454845E-05	-4.19157787140E+01	1.41643921834E-01	-9.37504345300E+01
7.64669338677E+10	1.62207607722E-01	-5.65001023404E+01	8.29616899732E-05	-8.86725678743E+01	3.75663448427E-05	-1.58335101195E+02	1.41976616144E-01	-9.53676592233E+01
7.64729458918E+10	1.63872576316E-01	-5.72732369631E+01	7.84365046582E-05	1.41075142822E+02	6.25416951129E-05	-1.46668240008E+02	1.41258549512E-01	-9.47320882297E+01
7.64789579158E+10	1.64486744012E-01	-5.72095823768E+01	8.54720973782E-05	2.93822797775E+01	4.46958429045E-05	-1.77960518260E+02	1.39529167060E-01	-9.41015363440E+01
7.64849699399E+10	1.64760117610E-01	-5.76870506328E+01	7.59928254744E-05	3.74118461003E+00	5.27157593815E-05	1.16047733963E+02	1.38514239417E-01	-9.38055269082E+01
7.64909819639E+10	1.63393014205E-01	-5.81870751214E+01	1.29100264341E-04	-6.50484584170E+00	6.90879603494E-05	5.47949323811E+01	1.39191003656E-01	-9.58686072019E+01
7.64969939880E+10	1.61791749425E-01	-5.72495073586E+01	7.81386969907E-05	-5.67246265027E+01	6.22231733202E-05	8.81690277189E+01	1.37679815749E-01	-9.60205234221E+01
7.65030060120E+10	1.61395942506E-01	-5.81226508545E+01	8.36867043575E-05	-9.23297182545E+01	4.85194911963E-05	-1.45879103865E+02	1.36092907802E-01	-9.48747256916E+01
7.65090180361E+10	1.63809736007E-01	-5.88005638042E+01	6.99607840468E-05	-4.44665623681E+01	1.17222985589E-04	-1.58902142639E+02	1.35097586837E-01	-9.48954359660E+01
7.65150300601E+10	1.63067581211E-01	-5.84468968138E+01	4.76356514691E-05	-1.58678362817E+02	7.42810425840E-05	1.49488067171E+02	1.35141711225E-01	-9.61039193948E+01
7.65210420842E+10	1.62470282959E-01	-6.08545189643E+01	6.36617652839E-06	1.39254741123E+02	4.36969132009E-05	1.57353499725E+02	1.36529171615E-01	-9.77952091311E+01
7.65270541082E+10	1.61103982593E-01	-5.88744001189E+01	4.89620031791E-05	-1.10836841676E+02	3.35090395496E-05	1.33431603693E+02	1.35731328998E-01	-9.79662253261E+01
7.65330661323E+10	1.63186081375E-01	-5.95661058011E+01	5.21197195993E-05	-8.68195567140E+01	4.48051432918E-05	1.40354981015E+02	1.34248992566E-01	-9.76666012894E+01
7.65390781563E+10	1.62462589776E-01	-5.92539263774E+01	8.98827344022E-05	-6.63330968863E+01	3.88166426797E-05	-1.74047690317E+02	1.32265862176E-01	-9.75364771305E+01
7.65450901804E+10	1.64233678940E-01	-5.95255731441E+01	1.22617591070E-04	-1.04601219664E+02	9.40422464031E-05	1.60476815683E+02	1.32205149232E-01	-9.83440172006E+01
7.65511022044E+10	1.62089828805E-01	-5.90632829442E+01	6.28304551764E-05	-1.34391424293E+02	2.51378992643E-05	1.77670798468E+02	1.31825495522E-01	-9.90236988479E+01
7.65571142285E+10	1.61536921095E-01	-5.98278728542E+01	1.14125768021E-04	-1.05655467676E+02	5.04003691146E-05	1.42653280029E+02	1.30879188247E-01	-9.79506700061E+01
7.65631262525E+10	1.61250263383E-01	-5.95622003866E+01	5.55674669346E-05	-1.52787799603E+02	3.06797970553E-05	8.20429142249E+01	1.31987549391E-01	-1.00125813544E+02
7.65691382766E+10	1.63264141643E-01	-6.20427185051E+01	4.35975632019E-05	-1.15548707447E+02	4.45251793727E-05	-2.58512124600E+01	1.30018787031E-01	-1.00684189614E+02
7.65751503006E+10	1.61561615761E-01	-6.04097253012E+01	4.17366959994E-05	1.63351220254E+02	3.69839585435E-05	-6.55422925694E+01	1.29876340455E-01	-1.00476776728E+02
7.65811623246E+10	1.60658149889E-01	-6.04403592322E+01	5.50228729969E-05	1.56638168552E+02	4.12785279513E-05	1.00456282018E+02	1.28640160825E-01	-1.00333746170E+02
7.65871743487E+10	1.60428741503E-01	-6.03372389091E+01	1.58201472428E-04	-1.74564326529E+02	4.23092641555E-05	7.02490003733E+01	1.28680491345E-01	-1.01800234015E+02
7.65931863727E+10	1.60103788534E-01	-5.97029986899E+01	3.79209101161E-05	1.10511843753E+02	5.81917482377E-05	-1.87255682295E+01	1.27200026470E-01	-1.01263714681E+02
7.65991983968E+10	1.62480490055E-01	-6.15314487191E+01	1.22120542018E-05	-1.48328390449E+02	7.65032880241E-05	-1.86007949755E+01	1.26916029448E-01	-1.01626487969E+02
7.66052104208E+10	1.62560426406E-01	-6.26511023027E+01	1.72580207759E-05	1.08675860013E+02	2.06820849830E-05	9.59255149214E+01	1.24684556163E-01	-1.00749312306E+02
7.66112224449E+10	1.61100213416E-01	-6.27368710867E+01	3.01751557193E-05	-2.78875372793E+01	7.01399786025E-05	-8.78171308078E+01	1.25737205724E-01	-1.02834123486E+02
7.66172344689E+10	1.61926443092E-01	-6.21234718315E+01	4.15351754884E-05	-8.01531121562E+01	1.03827443029E-04	-1.16649072276E+02	1.25709830781E-01	-1.03528754648E+02
7.66232464930E+10	1.61429781423E-01	-6.15902052093E+01	5.74191449528E-05	1.75762469696E+02	8.09727003831E-05	-1.18514207863E+02	1.24879366266E-01	-1.03785276403E+02
7.66292585170E+10	1.61521687944E-01	-6.17668064160E+01	4.51522308653E-05	1.65964901010E+02	1.19755911219E-04	1.68821636203E+02	1.23589813648E-01	-1.04092269388E+02
7.66352705411E+10	1.60622762636E-01	-6.14090269657E+01	8.12617114987E-05	1.41981177004E+02	6.06409930315E-05	1.34323741231E+02	1.21726275709E-01	-1.02830259979E+02
7.66412825651E+10	1.60990537665E-01	-6.23725424078E+01	5.13333507470E-05	1.16058192624E+02	9.07511534712E-05	1.60544451972E+02	1.21213588737E-01	-1.03399226708E+02
7.66472945892E+10	1.62285981729E-01	-6.44207189093E+01	3.75076515469E-05	7.31149849886E+01	7.93039683874E-05	8.59267495903E+01	1.20979952174E-01	-1.03587816282E+02
7.66533066132E+10	1.60418938170E-01	-6.24703745653E+01	6.80970594303E-05	7.36862681108E+01	5.39546911196E-05	1.07603839127E+02	1.21378020976E-01	-1.05190805573E+02
7.66593186373E+10	1.57530637114E-01	-6.21246545634E+01	5.49844272946E-05	9.08367751337E+01	6.89411664317E-05	-4.11236686551E+01	1.20274553656E-01	-1.05773036220E+02
7.66653306613E+10	1.60233907646E-01	-6.31148358141E+01	2.62195213408E-05	9.42006083825E+01	2.29972223636E-05	-7.09610468461E+01	1.19636382397E-01	-1.05209901026E+02
7.66713426854E+10	1.58886185846E-01	-6.17027131104E+01	4.58579400272E-05	-2.20572367715E+01	2.64156916217E-05	4.48946053996E+01	1.18376259073E-01	-1.05816707408E+02
7.66773547094E+10	1.60359416343E-01	-6.29445681506E+01	8.52099391819E-05	-2.08164482793E+01	1.23798272395E-05	-7.93966767297E+01	1.17368360724E-01	-1.06935433435E+02
7.66833667335E+10	1.57916420841E-01	-6.16839728970E+01	5.29051807501E-05	-6.18540876234E+01	7.07524752421E-05	-1.29324502834E+02	1.18047556360E-01	-1.05790124717E+02
7.66893787575E+10	1.60672261049E-01	-6.58175877489E+01	9.48775413610E-05	-5.80239662940E+01	2.31362588968E-05	1.76470937585E+02	1.16904553303E-01	-1.06448726420E+02
7.66953907816E+10	1.61454880268E-01	-6.53274004886E+01	8.43135464078E-05	-1.32364519507E+02	5.72553071852E-05	1.43488787866E+02	1.16639457355E-01	-1.07648896920E+02
7.67014028056E+10	1.60385894453E-01	-6.34792597846E+01	7.41704121007E-05	1.61268999870E+02	6.90217390864E-05	1.56816476887E+02	1.15954974827E-01	-1.08034097072E+02
7.67074148297E+10	1.59121443679E-01	-6.34490985288E+01	6.98262552313E-05	-1.32079984898E+02	4.41844723994E-05	1.20116526921E+02	1.15044363929E-01	-1.07330543528E+02
7.67134268537E+10	1.58167213270E-01	-6.38036804542E+01	1.67772948243E-05	1.40238527617E+02	7.47411504283E-05	-1.60309462981E+02	1.13731501407E-01	-1.08043778168E+02
7.67194388778E+10	1.61328934465E-01	-6.59806116439E+01	4.51539856870E-05	1.04467260121E+02	4.04408773870E-05	1.06626712477E+02	1.13201954922E-01	-1.08867406552E+02
7.67254509018E+10	1.61327952951E-01	-6.61413362956E+01	1.61214170776E-05	-2.19524473487E+01	5.81647137980E-05	1.50928904047E+02	1.13090522771E-01	-1.08518582602E+02
7.67314629259E+10	1.57815712949E-01	-6.47175684962E+01	5.37041827808E-05	1.37713249348E+02	2.73009451404E-05	-1.17140540317E+01	1.12718865599E-01	-1.08264764509E+02
7.67374749499E+10	1.60923626986E-01	-6.61344620022E+01	6.25590738628E-05	1.12704900621E+02	3.20049927754E-05	6.71457000713E+01	1.10852911407E-01	-1.09061101589E+02
7.67434869739E+10	1.59227713715E-01	-6.44509186260E+01	3.84211871592E-05	-7.31744101222E+00	2.00042543902E-05	4.70206360419E+01	1.10412352790E-01	-1.10132226746E+02
7.67494989980E+10	1.58273612066E-01	-6.52831510927E+01	1.93825390298E-05	-1.12126742102E+02	4.82714773132E-05	5.76339146251E+01	1.10489468732E-01	-1.11469497064E+02
7.67555110220E+10	1.56909575246E-01	-6.67504508803E+01	6.65958437993E-05	-1.34434755210E+02	1.43698440826E-05	-1.70555179467E+02	1.09717200872E-01	-1.09740225311E+02
7.67615230461E+10	1.58544625155E-01	-6.70672474544E+01	8.03703492465E-05	1.59520463023E+02	7.04087397677E-05	5.40660385598E+01	1.09040691211E-01	-1.11755717827E+02
7.67675350701E+10	1.58094375627E-01	-6.70830925768E+01	6.63727330183E-05	1.57481435551E+02	6.57498831062E-05	8.80989548784E+01	1.07504305379E-01	-1.12495931998E+02
7.67735470942E+10	1.58145113652E-01	-6.61001254381E+01	5.89031910067E-05	1.02958370189E+02	8.58581799953E-05	9.89040453170E+01	1.06898128663E-01	-1.11214223461E+02
7.67795591182E+10	1.57678553420E-01	-6.53614242979E+01	8.04314219149E-05	8.85472749949E+01	8.48410775813E-05	7.03640750040E+01	1.06402288584E-01	-1.10600583851E+02
7.67855711423E+10	1.60517011323E-01	-6.71542590101E+01	6.41744893750E-05	1.27232842027E+02	5.77718292571E-05	4.79861418323E+01	1.05678407856E-01	-1.11043578123E+02
7.67915831663E+10	1.58359912123E-01	-6.87238198780E+01	1.19631534064E-04	6.44560185663E+01	4.03761927941E-05	5.74104154062E+01	1.06258102355E-01	-1.14092644245E+02
7.67975951904E+10	1.58356343460E-01	-6.70148113746E+01	2.62854025344E-05	7.21597528809E+01	7.18974363961E-05	6.86943970001E+00	1.05028931869E-01	-1.14334544207E+02
7.68036072144E+10	1.55316195776E-01	-6.73009003486E+01	5.92925169549E-05	8.31876898474E+00	5.71490639037E-05	-3.48254288838E-01	1.04164587617E-01	-1.14297605930E+02
7.68096192385E+10	1.58416408031E-01	-6.80258306110E+01	5.05564191048E-05	1.71633101582E+01	1.18316237348E-04	3.88174133498E+01	1.03406934125E-01	-1.13840625826E+02
7.68156312625E+10	1.56046657865E-01	-6.62681402624E+01	5.13404987460E-05	1.39675323087E+02	1.01385405744E-04	4.14088272614E+01	1.02224570449E-01	-1.13600417699E+02
7.68216432866E+10	1.55905494586E-01	-6.70796140354E+01	5.43347080511E-05	-9.31947663939E+00	5.90061708151E-05	1.00276844924E+01	1.01069232481E-01	-1.14895413858E+02
7.68276553106E+10	1.57043190989E-01	-6.89348063237E+01	5.21863107405E-05	-3.90081907269E+01	7.58631984126E-05	-3.97803165885E+00	1.00888095014E-01	-1.15232843266E+02
7.68336673347E+10	1.55741025930E-01	-6.75632211240E+01	3.73873395128E-05	5.85246614660E+01	6.94039547439E-05	2.11231931549E+01	1.00879326305E-01	-1.15719860359E+02
7.68396793587E+10	1.58194061469E-01	-6.83444793253E+01	8.98976269981E-05	1.91596088732E+00	1.50059619173E-04	-1.87418660590E+01	9.94188693635E-02	-1.15798288719E+02
7.68456913828E+10	1.58302560046E-01	-6.86839131884E+01	1.21783067841E-04	2.43675314836E+01	1.17605274756E-04	-2.28132518545E+01	9.87585740237E-02	-1.15904696404E+02
7.68517034068E+10	1.57342902887E-01	-6.84982891882E+01	1.11896122867E-04	-3.49982168962E+01	1.01688797193E-04	-1.62021901386E+01	9.72359939323E-02	-1.15380177758E+02
7.68577154309E+10	1.53162045108E-01	-6.80261058808E+01	2.48234687196E-05	-6.97557431047E+01	8.47329206066E-05	-3.05174142258E+01	9.71848761050E-02	-1.15594473665E+02
7.68637274549E+10	1.59491368013E-01	-7.07629943485E+01	1.21370021603E-04	-3.55140669368E+01	6.53668716952E-05	-4.08327500689E+01	9.69767328963E-02	-1.16778060161E+02
7.68697394790E+10	1.56095509982E-01	-6.87132675100E+01	7.54969357872E-05	-5.57793158256E+01	1.12622013761E-04	-6.58261959847E+01	9.67951745329E-02	-1.18336448808E+02
7.68757515030E+10	1.55656344820E-01	-6.80587036624E+01	6.22221355790E-05	-4.01076041633E+01	1.53077509862E-04	-9.57954695695E+01	9.48746568497E-02	-1.16526013173E+02
7.68817635271E+10	1.55129091764E-01	-6.68438114238E+01	7.95685551188E-05	-7.83423025123E+01	3.20578759636E-05	-1.11512121200E+02	9.35356941932E-02	-1.18350924838E+02
7.68877755511E+10	1.56518436013E-01	-6.95947005868E+01	1.71318832849E-05	-7.78002322247E+01	9.72784793582E-05	-1.78899024733E+02	9.34218892128E-02	-1.19394454398E+02
7.68937875752E+10	1.57690198201E-01	-6.99405418910E+01	5.44661304395E-05	6.90238179215E+01	4.29185496881E-05	-1.51499939213E+02	9.27918353015E-02	-1.19057341231E+02
7.68997995992E+10	1.55266274487E-01	-6.95899005338E+01	7.46942995017E-05	-5.15721380328E+00	5.24729060217E-05	3.48220688179E+01	9.21542046153E-02	-1.18745243378E+02
7.69058116232E+10	1.56554285489E-01	-7.04722767857E+01	7.48617651738E-05	7.66113163057E+00	6.39658594685E-05	-5.77351999865E+01	9.13991406639E-02	-1.20590961626E+02
7.69118236473E+10	1.55582044898E-01	-7.15570365379E+01	8.89642166202E-05	-1.27882997955E+01	6.83530385476E-05	-3.09440030981E+01	9.02897161845E-02	-1.20538646973E+02
7.69178356713E+10	1.57377463010E-01	-7.16442894475E+01	4.92981534326E-05	-8.06801861841E+01	1.13595923173E-04	-7.29419773927E+01	8.93618629456E-02	-1.20692248009E+02
7.69238476954E+10	1.55446632887E-01	-7.05423112375E+01	8.73620827023E-05	-4.28012602001E+01	1.01158967100E-04	-1.22637411977E+02	8.95503291044E-02	-1.20976204130E+02
7.69298597194E+10	1.58587183805E-01	-7.21543296157E+01	5.74598359067E-05	-7.73496405464E+01	1.12201367776E-04	-1.15594314916E+02	8.84038317958E-02	-1.20854659018E+02
7.69358717435E+10	1.54935982914E-01	-7.22794460585E+01	7.29891608724E-05	-1.49625474546E+02	1.08434468863E-04	-1.31607932291E+02	8.77405771256E-02	-1.20958051896E+02
7.69418837675E+10	1.54897010021E-01	-7.24279847952E+01	1.46975411810E-04	-1.68600280521E+02	7.69137182539E-05	-1.48298769702E+02	8.66003167636E-02	-1.22103743894E+02
7.69478957916E+10	1.55389160295E-01	-7.12698431389E+01	1.66214372388E-04	-1.46854791243E+02	9.63043042052E-05	-1.62570201860E+02	8.56460500834E-02	-1.22182475453E+02
7.69539078156E+10	1.54017027016E-01	-7.11100363306E+01	5.99322150422E-05	1.53450379471E+02	4.72142440883E-05	1.35489819281E+02	8.54636341978E-02	-1.20589828945E+02
7.69599198397E+10	1.53495898598E-01	-7.17639304937E+01	2.73625394493E-05	-1.33801836016E+02	4.00951060003E-05	-4.48374733860E+01	8.51640289856E-02	-1.23028359762E+02
7.69659318637E+10	1.56451722616E-01	-7.35216429245E+01	4.79859049233E-05	2.60918452513E+01	3.18256073305E-05	-4.02269332743E+01	8.36031365494E-02	-1.24086691148E+02
7.69719438878E+10	1.54466027286E-01	-7.36298790240E+01	3.76066254401E-05	1.11255940307E+02	3.63282048824E-05	-2.62286755958E+01	8.26470267022E-02	-1.22631870871E+02
7.69779559118E+10	1.52825397826E-01	-7.19457375937E+01	3.09258513528E-05	2.84264373447E+01	2.79714275851E-05	-3.25412696286E+01	8.15446402082E-02	-1.23538460958E+02
7.69839679359E+10	1.52534184664E-01	-7.22401085262E+01	1.49145543920E-05	-7.96789729588E+01	6.11874293928E-05	-1.42613064817E+02	8.04691453401E-02	-1.23637783142E+02
7.69899799599E+10	1.52780549285E-01	-7.21350509423E+01	3.06752635174E-05	1.02633423280E+00	4.10167804153E-05	-1.15654875595E+02	7.97865125763E-02	-1.23460442165E+02
7.69959919840E+10	1.52629456575E-01	-7.29099595498E+01	1.29455069420E-04	-7.76947436097E+01	5.39346985563E-05	-1.54027372136E+02	7.92734985641E-02	-1.24347063425E+02
7.70020040080E+10	1.53455641346E-01	-7.40905434054E+01	6.79688268622E-05	3.83658013999E+01	5.91238838395E-05	-8.78531916167E+01	7.94662588348E-02	-1.26207261085E+02
7.70080160321E+10	1.55113537335E-01	-7.52391010709E+01	6.80387793654E-05	-1.11995552206E+02	7.99215370110E-05	-8.29016227803E+01	7.86184892919E-02	-1.26773935429E+02
7.70140280561E+10	1.55138396185E-01	-7.46364442290E+01	6.99982897536E-05	-1.70437795310E+02	1.60600667616E-04	-9.62686181831E+01	7.76648528187E-02	-1.26770023317E+02
7.70200400802E+10	1.53814326910E-01	-7.44011824748E+01	6.90146454110E-05	-1.22867659557E+02	1.25380529062E-04	-1.14271047365E+02	7.67349680690E-02	-1.24287251495E+02
7.70260521042E+10	1.50767091631E-01	-7.40244480141E+01	1.73529230276E-05	-3.37415774566E+01	1.75484728927E-04	-1.67996404557E+02	7.54794529085E-02	-1.25219759886E+02
7.70320641283E+10	1.51370092902E-01	-7.43297528067E+01	1.59995157858E-05	-1.63090786661E+02	1.69403349597E-04	1.76553970491E+02	7.51011330673E-02	-1.28507579002E+02
7.70380761523E+10	1.54111877100E-01	-7.58541975481E+01	8.01623568533E-05	1.41979599654E+02	6.78523605024E-05	1.61203495616E+02	7.54938642976E-02	-1.28981305214E+02
7.70440881764E+10	1.49910720704E-01	-7.41342425287E+01	8.63913526142E-05	9.37381877721E+01	6.48850780259E-05	-1.33306895474E+02	7.41415886467E-02	-1.28481251195E+02
7.70501002004E+10	1.52588799150E-01	-7.57683732608E+01	2.15116375127E-05	5.18103160621E+01	2.64634828543E-06	-8.01964454266E+01	7.24523812925E-02	-1.26682007829E+02
7.70561122244E+10	1.53129744500E-01	-7.47677481223E+01	1.15584228507E-04	-1.10483775993E+01	5.89236611195E-05	-1.03310670182E+02	7.14826314668E-02	-1.27368450296E+02
7.70621242485E+10	1.52506203317E-01	-7.52217313191E+01	5.56898075649E-05	-2.16357524555E+01	3.56275170126E-05	1.76398465535E+02	7.06931567451E-02	-1.28488104752E+02
7.70681362725E+10	1.52019980839E-01	-7.61953794416E+01	7.82357127776E-05	-1.16106937485E+02	1.18575717767E-04	-1.48747146274E+02	7.11223315101E-02	-1.30665045281E+02
7.70741482966E+10	1.51729776221E-01	-7.59732919788E+01	7.11777823904E-05	-1.03996174886E+02	1.26703123151E-04	1.76389616919E+02	7.06354984697E-02	-1.30292672816E+02
7.70801603206E+10	1.50203804206E-01	-7.42726386543E+01	4.67224767210E-05	-1.54811223030E+02	1.02539768878E-04	1.72308143299E+02	6.91241573649E-02	-1.28577975167E+02
7.70861723447E+10	1.49676177519E-01	-7.56676806072E+01	5.52567591801E-05	-9.39065921164E+01	1.15528699230E-04	1.62110128177E+02	6.85187890302E-02	-1.29342162288E+02
7.70921843687E+10	1.49653827406E-01	-7.60278157749E+01	7.16362649853E-05	-9.50789922944E+01	8.56981836086E-05	-1.66556380682E+02	6.75678929196E-02	-1.30876090118E+02
7.70981963928E+10	1.53284351146E-01	-7.73495003000E+01	7.49887556884E-05	-9.10400482149E+01	1.08731805778E-04	1.70173627437E+02	6.69671349516E-02	-1.31388430203E+02
7.71042084168E+10	1.52774793749E-01	-7.70389192782E+01	1.11423143204E-04	-1.44928968355E+02	1.44975348080E-04	1.66707328876E+02	6.62282378866E-02	-1.31986771843E+02
7.71102204409E+10	1.52780924777E-01	-7.75455571833E+01	7.59219215357E-05	-1.17820880916E+02	4.39269121488E-05	8.13101356764E+01	6.55010471573E-02	-1.31864724473E+02
7.71162324649E+10	1.49928672699E-01	-7.63926361619E+01	5.59706039800E-05	-1.47060673727E+02	8.54335744806E-05	1.16921197817E+02	6.47077122735E-02	-1.33140853587E+02
7.71222444890E+10	1.47877021615E-01	-7.72023270041E+01	4.24764818981E-05	-1.75609258538E+02	1.90082383191E-04	1.12155800660E+02	6.38332912013E-02	-1.31551623456E+02
7.71282565130E+10	1.49097795888E-01	-7.67648321625E+01	7.62360686363E-05	-1.48855007257E+02	8.34688666174E-05	1.02217454348E+02	6.32746818095E-02	-1.34699956917E+02
7.71342685371E+10	1.48809905320E-01	-7.64694420425E+01	8.62400921980E-05	1.53641599575E+02	1.60412634396E-04	8.07525059151E+01	6.22759228503E-02	-1.34960968617E+02
7.71402805611E+10	1.52963986319E-01	-7.83572731721E+01	7.98588717305E-05	1.49252025696E+02	1.01312085104E-04	9.37866138471E+01	6.11320888110E-02	-1.33047883421E+02
7.71462925852E+10	1.47280243271E-01	-7.77414270907E+01	6.45820714941E-05	1.37708408437E+02	1.42290342898E-04	7.88136159128E+01	6.07477368634E-02	-1.33786908074E+02
7.71523046092E+10	1.48331399500E-01	-7.79106611977E+01	1.17710833837E-04	1.36559317333E+02	8.61597314676E-05	7.51669156011E+01	5.91850620009E-02	-1.33194451888E+02
7.71583166333E+10	1.50459164625E-01	-7.79206247738E+01	3.68178572205E-05	1.04304086309E+02	9.79052452711E-05	6.38861174736E+01	5.91539926973E-02	-1.35238898116E+02
7.71643286573E+10	1.48886895645E-01	-7.77768981911E+01	6.76601091337E-05	1.76505062116E+02	1.45010231848E-04	1.96178279914E+01	5.87782899322E-02	-1.37005606244E+02
7.71703406814E+10	1.47691617360E-01	-7.88430058951E+01	9.85139113820E-05	1.38302391032E+02	5.31250241519E-05	-1.10408450080E+01	5.63028314868E-02	-1.33407116275E+02
7.71763527054E+10	1.47476184319E-01	-7.92305143055E+01	1.26487438547E-04	1.48623576226E+02	6.50372415273E-05	1.58655571193E+01	5.61201658892E-02	-1.33359491016E+02
7.71823647295E+10	1.47913191147E-01	-7.90756604432E+01	1.03764386022E-04	1.22292970091E+02	3.32074864927E-05	-1.30438202050E+02	5.53587147053E-02	-1.35774070217E+02
7.71883767535E+10	1.47905002192E-01	-7.94992392907E+01	1.28973713075E-04	1.21078342499E+02	8.85405445962E-05	1.84175077063E+01	5.50764075240E-02	-1.37501948402E+02
7.71943887776E+10	1.46003117903E-01	-7.83082085033E+01	1.55672125712E-04	9.81768830016E+01	3.86869816725E-05	8.91579191833E+01	5.47301024476E-02	-1.39171288009E+02
7.72004008016E+10	1.46441978363E-01	-7.97797927517E+01	2.36168819230E-04	9.14402917824E+01	5.38237085430E-05	3.39751628147E+01	5.41470737360E-02	-1.39702933598E+02
7.72064128257E+10	1.46991656585E-01	-7.95138016518E+01	1.45294322336E-04	9.97467148110E+01	4.35131301054E-05	3.90715032737E+01	5.19139425846E-02	-1.35820117620E+02
7.72124248497E+10	1.47361248342E-01	-8.10065517255E+01	1.69250028151E-04	8.77151350087E+01	5.96894571256E-05	-2.61287270543E+01	5.09408604652E-02	-1.37355950815E+02
7.72184368737E+10	1.48205332153E-01	-8.19316908386E+01	1.18801028563E-04	7.03346908092E+01	2.69623580559E-05	1.03891678662E+01	5.10452434589E-02	-1.40720733015E+02
7.72244488978E+10	1.48001223765E-01	-8.07094374154E+01	7.60725028446E-05	7.25191271612E+01	3.48486440917E-05	-5.39933467932E+01	5.00816537011E-02	-1.39607799142E+02
7.72304609218E+10	1.46318336663E-01	-7.97810174191E+01	1.25625920951E-04	4.99492996594E+01	2.48693987345E-05	-8.19661947522E+01	4.85617414710E-02	-1.37106471471E+02
7.72364729459E+10	1.46782746409E-01	-8.02706718296E+01	1.05205121835E-04	4.83170776946E+01	1.91761084015E-05	-1.64967389188E+02	4.77900770895E-02	-1.38580352417E+02
7.72424849699E+10	1.46990596259E-01	-8.04978518326E+01	1.19061148234E-04	6.24109419626E+01	3.05254677180E-05	1.66168533461E+02	4.80611479046E-02	-1.41218794802E+02
7.72484969940E+10	1.46567580685E-01	-8.13799781295E+01	1.60488721017E-04	5.55451314841E+01	1.15179335830E-04	9.83681094213E+01	4.62855118551E-02	-1.39082825507E+02
7.72545090180E+10	1.46460751809E-01	-8.18093080541E+01	1.00190131232E-04	5.04094947858E+00	5.80837656689E-05	8.87281481312E+01	4.64575233585E-02	-1.42661075867E+02
7.72605210421E+10	1.44347673131E-01	-8.10989402364E+01	1.31165715241E-04	3.07454679953E+01	4.05584004455E-05	1.24112345494E+02	4.45675679062E-02	-1.40033101754E+02
7.72665330661E+10	1.46844316502E-01	-8.12830755078E+01	1.26249913340E-04	5.34695154168E+00	6.95115085716E-05	7.72472818881E+01	4.42032096309E-02	-1.40760259120E+02
7.72725450902E+10	1.46169769701E-01	-8.16317147889E+01	1.56007166742E-04	1.62093230702E+01	2.01167803121E-05	9.16060694943E+01	4.34951712073E-02	-1.41223260118E+02
7.72785571142E+10	1.47415019340E-01	-8.18815853720E+01	5.59107341321E-05	-6.11878438492E+00	8.85393375760E-05	7.92624281070E+01	4.29580892971E-02	-1.43017093614E+02
7.72845691383E+10	1.45377294102E-01	-8.32497945938E+01	8.08399159264E-05	1.89506248725E+01	2.67553857926E-05	6.75159630387E+01	4.21968485271E-02	-1.44782074818E+02
7.72905811623E+10	1.44551327004E-01	-8.25762354375E+01	1.81467825449E-04	-2.35433618738E+01	6.90822517360E-05	3.69073613747E+01	4.20008221415E-02	-1.46060368510E+02
7.72965931864E+10	1.43173691638E-01	-8.05058306482E+01	1.43246033509E-04	-3.20529191670E+01	6.69828803284E-05	3.75913235598E+01	4.03369530589E-02	-1.44995475120E+02
7.73026052104E+10	1.44572847386E-01	-8.26204633504E+01	1.34251238519E-04	-5.14645633000E+01	8.84992748276E-05	8.53512682011E+00	3.89283752999E-02	-1.42497015028E+02
7.73086172345E+10	1.44552321566E-01	-8.29147432900E+01	1.39234304883E-04	-7.02240098688E+01	1.12416304588E-04	2.77070965405E+00	3.77535503785E-02	-1.42460723323E+02
7.73146292585E+10	1.44152994536E-01	-8.10305836206E+01	1.49525113726E-04	-7.84122554160E+01	4.96063838629E-05	-2.43454044034E+01	3.76310926491E-02	-1.45636355256E+02
7.73206412826E+10	1.46400385857E-01	-8.40539392959E+01	1.60195971739E-04	-1.01265648554E+02	1.21595305046E-05	-3.22012573381E+01	3.71667420575E-02	-1.47559315595E+02
7.73266533066E+10	1.42504727735E-01	-8.25845196246E+01	8.05092820765E-05	-8.77094155200E+01	9.60002570450E-05	-1.21306559256E+01	3.63339339309E-02	-1.47300992024E+02
7.73326653307E+10	1.44580008654E-01	-8.35879559721E+01	1.04453827897E-04	-8.70352431076E+01	2.57790422740E-05	1.13136105827E+01	3.54352429373E-02	-1.46614822804E+02
7.73386773547E+10	1.45163481385E-01	-8.48928569164E+01	5.60994632877E-05	-7.16780014432E+01	9.40780536808E-05	4.20971122767E+01	3.34789786530E-02	-1.45815236775E+02
7.73446893788E+10	1.42920192272E-01	-8.32414860455E+01	1.86536246637E-05	-1.16995607289E+02	9.70639423563E-05	2.30474499530E+01	3.32288412708E-02	-1.46607376377E+02
7.73507014028E+10	1.44632630238E-01	-8.50748788221E+01	1.11624568033E-04	-1.13141733844E+02	1.31725526649E-04	-4.62146642855E+01	3.28972182200E-02	-1.47745138038E+02
7.73567134269E+10	1.41724352470E-01	-8.49370063514E+01	7.13088054253E-05	-1.03352920432E+02	4.49497335248E-05	-2.45875408378E+01	3.18446565928E-02	-1.47842582572E+02
7.73627254509E+10	1.41628012299E-01	-8.48557591710E+01	3.42349493527E-05	1.69851250168E+02	9.89918127458E-05	-6.53413273391E+01	3.12148961398E-02	-1.49183818051E+02
7.73687374749E+10	1.44869950678E-01	-8.51613501202E+01	5.80174217971E-05	-1.65570557342E+02	3.97673090609E-05	-3.60973536004E+01	3.01297865922E-02	-1.48873072576E+02
7.73747494990E+10	1.43002791605E-01	-8.31104851398E+01	3.97198003587E-05	1.73813432796E+02	7.85363065408E-05	-1.30997470203E+02	2.93012330159E-02	-1.48979411667E+02
7.73807615230E+10	1.40965115784E-01	-8.58682441711E+01	6.25286933698E-05	-1.51609931976E+02	7.04061782881E-05	-1.00574584581E+02	2.86477752721E-02	-1.50442293711E+02
7.73867735471E+10	1.42253062446E-01	-8.58929916812E+01	3.85998576596E-05	1.17386848692E+02	6.52666001189E-05	-3.49433141019E+00	2.82873128356E-02	-1.52618967276E+02
7.73927855711E+10	1.43043230895E-01	-8.54882703292E+01	6.29319716912E-05	1.31814043066E+02	1.17276012591E-04	-6.13115295318E+01	2.58312773540E-02	-1.49246283684E+02
7.73987975952E+10	1.41080742464E-01	-8.43686767824E+01	3.37785469992E-05	-7.74467052905E+01	1.03245882575E-04	-3.89998757908E+01	2.53498116806E-02	-1.51192215088E+02
7.74048096192E+10	1.41699109458E-01	-8.55600883648E+01	3.92398969459E-05	3.92090032329E+00	9.76760575481E-05	-3.52939287039E+01	2.55614091327E-02	-1.53231943860E+02
7.74108216433E+10	1.41296720135E-01	-8.63197716499E+01	1.94934034339E-05	1.11909562920E+01	1.24685206599E-04	-8.23714170769E+01	2.41831848429E-02	-1.52869583562E+02
7.74168336673E+10	1.39944652379E-01	-8.54449133902E+01	1.38258707326E-05	-3.90673482862E+01	1.18063019807E-04	-5.23271220305E+01	2.30978070789E-02	-1.52783625536E+02
7.74228456914E+10	1.39811433323E-01	-8.53241625142E+01	5.29628890172E-05	-9.05034334428E+01	1.35732777417E-04	-1.08257693034E+02	2.23941111099E-02	-1.51140580078E+02
7.74288577154E+10	1.40586664130E-01	-8.53905839730E+01	3.36898438977E-05	-6.47684182367E+00	8.55461973102E-06	-4.72066919944E+01	2.23662949012E-02	-1.55335401262E+02
7.74348697395E+10	1.39786961877E-01	-8.66156373411E+01	1.66736379778E-05	1.31069759353E+01	8.92006940036E-05	-7.73200243704E+01	2.09289165595E-02	-1.54086091891E+02
7.74408817635E+10	1.39689286565E-01	-8.59395085620E+01	6.83510507567E-05	-8.64281884566E+01	1.01407432982E-04	-8.14151266300E+01	1.95733535131E-02	-1.54098007406E+02
7.74468937876E+10	1.39050262137E-01	-8.59488915115E+01	3.92030761363E-05	-8.58352333062E+01	3.33051731626E-05	-1.24360021188E+02	1.85931316364E-02	-1.53619932321E+02
7.74529058116E+10	1.38687766286E-01	-8.55579502245E+01	4.70066755870E-05	-1.22498410904E+02	6.85589201295E-05	-1.47044128745E+02	1.89868548231E-02	-1.57365319336E+02
7.74589178357E+10	1.37960114103E-01	-8.65964327580E+01	4.25195458531E-05	-7.14823960542E+01	6.25186109098E-05	-1.03330527523E+02	1.71067836756E-02	-1.54824559876E+02
7.74649298597E+10	1.37904174344E-01	-8.69845464662E+01	6.87254719853E-05	-1.69637071289E+02	5.90016934220E-05	1.74879948622E+02	1.64833177739E-02	-1.57947319735E+02
7.74709418838E+10	1.40571838764E-01	-8.78802784357E+01	6.28801946205E-05	-1.35295978911E+02	7.00453294101E-05	-1.28775230114E+02	1.65329765869E-02	-1.60460710273E+02
7.74769539078E+10	1.42217561256E-01	-8.67918925819E+01	4.94223231276E-05	-3.24222163688E+01	3.09678635768E-05	1.57701301278E+02	1.50481331289E-02	-1.59154440160E+02
7.74829659319E+10	1.38509920114E-01	-8.55733813304E+01	8.62417093023E-05	-7.33431197411E+01	3.61190780843E-05	-3.42796928119E+01	1.39886817489E-02	-1.59039390110E+02
7.74889779559E+10	1.38746302163E-01	-8.66514427567E+01	8.49025922171E-05	-1.68876406360E+02	7.69993238054E-05	-1.16744838242E+02	1.32335581249E-02	-1.59800295895E+02
7.74949899800E+10	1.37802195536E-01	-8.70179232744E+01	6.59370776020E-05	-9.13117535991E+01	8.60252189015E-05	-1.08385648819E+02	1.19494232464E-02	-1.59451101460E+02
7.75010020040E+10	1.36108326453E-01	-8.75424019552E+01	1.31836143191E-04	-1.17089861205E+02	5.90319954788E-05	-1.36680661353E+02	1.19912179498E-02	-1.61262563752E+02
7.75070140281E+10	1.39600841160E-01	-8.73511918912E+01	1.73332935684E-04	-1.52433473178E+02	1.00189595872E-04	-1.48528396350E+02	1.09193922395E-02	-1.62118447147E+02
7.75130260521E+10	1.39023165315E-01	-8.73902689014E+01	1.47281171789E-04	1.60456599121E+02	4.08313505866E-05	-1.55838445866E+02	9.59646401525E-03	-1.62376653536E+02
7.75190380762E+10	1.38039659121E-01	-8.95593926342E+01	6.72171821904E-05	1.57824220978E+02	8.17404416967E-05	1.36688057699E+02	8.51057218608E-03	-1.62859280033E+02
7.75250501002E+10	1.40160516483E-01	-8.91465189983E+01	1.23441533483E-04	1.71775848353E+02	2.35088777154E-05	-1.76386629524E+02	8.08392403021E-03	-1.64559962801E+02
7.75310621242E+10	1.36472768441E-01	-8.74874905726E+01	5.23598341434E-05	1.60254311110E+02	3.11789636580E-05	1.23879340241E+02	7.51636722851E-03	-1.66470407559E+02
7.75370741483E+10	1.37116544270E-01	-8.96239442826E+01	5.14064808313E-05	1.16323132432E+02	3.47842735240E-05	-2.51647684289E+01	6.30878244561E-03	-1.67228878739E+02
7.75430861723E+10	1.38224087526E-01	-8.72890760247E+01	5.50969235779E-05	7.61284117245E+01	3.97204629937E-05	-7.01826022093E+01	5.79996282952E-03	-1.69686962461E+02
7.75490981964E+10	1.39167234267E-01	-8.81119314798E+01	7.04511461054E-05	1.71474780701E+02	9.03830815627E-05	-1.59255555972E+02	4.85946547088E-03	-1.74040680204E+02
7.75551102204E+10	1.38485248261E-01	-8.87673433801E+01	1.29569218100E-05	-1.38024717576E+02	1.36317554368E-04	-1.56099578925E+02	3.69583584235E-03	-1.76420118322E+02
7.75611222445E+10	1.37933208460E-01	-8.89919498758E+01	9.27173061041E-05	1.18421833590E+02	4.38397194037E-05	-1.34813851321E+02	3.32861889185E-03	-1.77665915128E+02
7.75671342685E+10	1.38418853600E-01	-9.05868059016E+01	1.09744877739E-04	1.15080838843E+02	9.23611520606E-05	1.13635266335E+02	2.20822337217E-03	1.73928873793E+02
7.75731462926E+10	1.35497765680E-01	-8.89980300699E+01	1.12842121764E-04	9.43222408780E+01	9.46803046220E-05	1.73507053216E+02	1.26349888621E-03	1.48618194790E+02
7.75791583166E+10	1.36113515824E-01	-8.91775297353E+01	6.15725584987E-05	1.11128944348E+02	1.65376990661E-04	1.48914201658E+02	1.19072441028E-03	1.49925894487E+02
7.75851703407E+10	1.36310212447E-01	-8.92555505110E+01	1.00385884106E-04	8.62109920692E+01	9.55290755182E-05	1.33224539608E+02	1.08718895569E-03	8.46943922158E+01
7.75911823647E+10	1.37491764064E-01	-9.05144801670E+01	1.51937595582E-04	1.18283452942E+02	1.42549800184E-04	1.12219646291E+02	1.31042576330E-03	6.59370830583E+01
7.75971943888E+10	1.35293677438E-01	-9.03150373933E+01	1.24085142356E-04	9.96216681416E+01	5.78215876192E-05	8.13451450473E+01	2.29499909112E-03	4.88819134264E+01
7.76032064128E+10	1.35471308376E-01	-9.08499580859E+01	7.80130192790E-05	5.64273805714E+01	5.04436458655E-05	9.04328433118E+01	2.74865982552E-03	4.10375813691E+01
7.76092184369E+10	1.35692296308E-01	-9.04621373565E+01	6.25267700103E-05	5.78280715961E+01	6.20161270008E-05	5.64689437478E+01	3.65619347343E-03	3.57670796824E+01
7.76152304609E+10	1.37452555210E-01	-8.96293798660E+01	1.02093837444E-04	8.47461884821E+01	7.43979449726E-05	4.90940903925E+01	4.85870009997E-03	3.18371251613E+01
7.76212424850E+10	1.35249040695E-01	-9.05117253243E+01	1.44089165515E-04	4.80945510870E+01	3.44302868103E-05	8.86718181241E+01	5.23157557185E-03	2.76662269943E+01
7.76272545090E+10	1.35596794270E-01	-9.19407521836E+01	1.34157663270E-04	1.12892450934E+01	9.34079732093E-05	-2.51824225619E+01	5.92312641898E-03	2.54775930367E+01
7.76332665331E+10	1.37056391885E-01	-9.18782012115E+01	1.70281846664E-04	2.05803753685E+01	3.20260110743E-05	5.18444882939E+01	6.94621349854E-03	2.68304802433E+01
7.76392785571E+10	1.36357962981E-01	-9.19973491891E+01	5.71604404841E-05	6.09473799049E+00	2.37443458966E-05	-1.38198803549E+02	7.52490504850E-03	2.43545207649E+01
7.76452905812E+10	1.35667165038E-01	-9.10938023504E+01	1.04810265462E-04	4.62800000422E+00	1.91849328679E-05	1.18714322318E+02	8.41055020586E-03	2.16684814704E+01
7.76513026052E+10	1.35354982077E-01	-9.20524157753E+01	2.04115879141E-05	4.40034893820E-01	3.56827389369E-05	-1.74933947015E+02	9.64898651591E-03	2.36323019434E+01
7.76573146293E+10	1.37419649378E-01	-9.11551312669E+01	4.01922103788E-05	4.27776215106E+01	9.27211047313E-05	7.73750742366E+01	1.02347773159E-02	2.20949197022E+01
7.76633266533E+10	1.35484138451E-01	-9.04621757937E+01	3.25719748037E-05	8.70820931326E+01	6.21732855727E-05	-1.95749781747E+01	1.12647984846E-02	2.12520629175E+01
7.76693386774E+10	1.35607788571E-01	-9.14112751794E+01	8.98789430724E-05	5.28540584592E+01	9.12471400209E-05	5.37334934681E+01	1.19208849376E-02	1.84586150149E+01
7.76753507014E+10	1.35258350298E-01	-9.40399880958E+01	1.05622910912E-04	-1.27220726795E+01	6.18574369451E-05	3.79287621228E+01	1.24852410685E-02	1.85511525482E+01
7.76813627255E+10	1.34572617874E-01	-9.22714720154E+01	1.11935148550E-04	-3.51104172732E+01	9.84080116838E-05	-2.72628962810E+01	1.33353433418E-02	1.92900328378E+01
7.76873747495E+10	1.37630590274E-01	-9.31028177828E+01	1.49521461787E-04	-5.30194721831E+01	9.83749661133E-05	-5.04484303567E+01	1.43613698527E-02	1.91747364984E+01
7.76933867735E+10	1.34474839259E-01	-9.37239432202E+01	1.51546190201E-04	-5.13026073617E+01	4.56742911150E-05	-5.52190189713E+01	1.49588416726E-02	1.71392072284E+01
7.76993987976E+10	1.35782345549E-01	-9.37199871705E+01	1.28247077362E-04	-2.48543708811E+01	5.59098127295E-06	6.00528321838E+01	1.55665492423E-02	1.48834220285E+01
7.77054108216E+10	1.33816710096E-01	-9.16640772275E+01	1.06474163109E-04	-1.10822270279E+02	7.57363045276E-05	-3.11168052554E+01	1.65154801366E-02	1.59937029809E+01
7.77114228457E+10	1.35511691590E-01	-9.33657720300E+01	6.89013244466E-05	-5.30075110074E+01	5.91542483733E-05	-9.59843314005E+01	1.75496547360E-02	1.82818203093E+01
7.77174348697E+10	1.32724811090E-01	-9.24081819235E+01	8.09639608896E-05	-7.18568843662E+01	1.30198996539E-04	-7.51418168787E+01	1.83900489754E-02	1.47440001975E+01
7.77234468938E+10	1.32562354549E-01	-9.46790703060E+01	4.48643372076E-05	-9.05117008285E+01	7.94946567721E-05	-6.30376794814E+01	1.91785961246E-02	1.25506934855E+01
7.77294589178E+10	1.35523919072E-01	-9.51291534489E+01	5.29798107765E-05	-1.19024333709E+02	3.63619267626E-05	-8.94599820364E+01	2.01624337762E-02	1.52272147255E+01
7.77354709419E+10	1.32538368431E-01	-9.45088635729E+01	4.64565825962E-05	-1.15715413536E+02	9.76539777647E-05	-6.97722523562E+01	2.07763346845E-02	1.46642313589E+01
7.77414829659E+10	1.32527030616E-01	-9.31450540757E+01	5.36154819919E-05	-1.25550971893E+02	8.37149199461E-05	-1.18874605597E+02	2.13157996893E-02	1.13873680895E+01
7.77474949900E+10	1.33295315920E-01	-9.40714139149E+01	8.75084103859E-05	-1.11762531555E+02	6.56162809687E-05	-1.18734416905E+02	2.20842828803E-02	1.02926253429E+01
7.77535070140E+10	1.33124790790E-01	-9.35418284474E+01	8.39606625825E-05	-1.29679688805E+02	5.36818285645E-05	-1.26383429117E+02	2.29681325171E-02	1.02388837036E+01
7.77595190381E+10	1.34410789778E-01	-9.60137811372E+01	6.32576456562E-05	-1.67036471733E+02	4.75080426189E-05	-1.25055788190E+02	2.36156405863E-02	1.03745980835E+01
7.77655310621E+10	1.31571954282E-01	-9.44055388546E+01	2.10203293218E-05	-1.35746073594E+02	7.17448098592E-05	-1.44658864513E+02	2.46654312084E-02	1.30524061854E+01
7.77715430862E+10	1.32142226188E-01	-9.36165834179E+01	5.38419659889E-05	-1.76648529202E+02	1.22596648706E-05	1.78005846971E+02	2.54756649756E-02	1.25122852745E+01
7.77775551102E+10	1.33891942489E-01	-9.48114000390E+01	2.28447014925E-05	-1.30872900318E+02	1.18847302236E-05	-2.72719868304E+01	2.63227801386E-02	8.95893344931E+00
7.77835671343E+10	1.33604262750E-01	-9.51702716942E+01	6.66840411730E-05	1.40029064109E+02	4.19241683492E-05	1.45675123470E+02	2.74201804184E-02	8.40864471847E+00
7.77895791583E+10	1.32392022528E-01	-9.48665030699E+01	3.88612838355E-05	-7.84376585846E+01	2.17579536597E-05	-1.53832485004E+02	2.78355194286E-02	1.12326004423E+01
7.77955911824E+10	1.34364647345E-01	-9.72486401487E+01	5.92892709566E-05	1.44480687631E+02	9.13806802711E-05	8.40608618894E+01	2.83764270499E-02	7.84462846489E+00
7.78016032064E+10	1.32432068330E-01	-9.68502503183E+01	5.42178019570E-05	1.34272917307E+02	4.35453605071E-05	-2.36765236598E+00	2.91604907426E-02	7.33827550005E+00
7.78076152305E+10	1.31897402214E-01	-9.65649001817E+01	4.85991480150E-05	1.02351513244E+02	6.10660918793E-05	-3.27455995459E+01	3.00780418606E-02	7.00993760089E+00
7.78136272545E+10	1.33607507925E-01	-9.69830275686E+01	3.56781559374E-05	1.74670654228E+02	2.54615876146E-05	-6.35367520283E+01	3.11030502751E-02	7.45820943365E+00
7.78196392786E+10	1.33019226818E-01	-9.60455975426E+01	2.90657316048E-05	-9.95064290333E+01	4.52228728578E-05	-5.94319125735E+01	3.15669780916E-02	8.01898434635E+00
7.78256513026E+10	1.32675460336E-01	-9.61302935293E+01	1.07407810014E-04	9.85642372390E+01	1.50787771965E-05	-1.13339854704E+01	3.21198128797E-02	8.28713710259E+00
7.78316633267E+10	1.30340484653E-01	-9.59397203007E+01	9.23192542493E-05	4.87233854582E+00	7.47680842751E-05	-1.18833358859E+01	3.36039915619E-02	4.74182398551E+00
7.78376753507E+10	1.32977386941E-01	-9.80988063531E+01	4.95168149291E-05	-2.33362538633E+00	3.37491931052E-05	-1.00261089099E+02	3.40690343392E-02	5.93630695086E+00
7.78436873747E+10	1.31832587288E-01	-9.59273074278E+01	4.08526619777E-05	-1.33160264152E+02	8.82249437646E-05	-1.26220055551E+02	3.48650603492E-02	5.72094496984E+00
7.78496993988E+10	1.32325253374E-01	-9.60730498542E+01	6.58073721640E-06	-9.00623783171E+01	5.61362494523E-05	-1.04951291646E+02	3.52598672162E-02	6.44631339515E+00
7.78557114228E+10	1.29757937275E-01	-9.66411886884E+01	3.52845633772E-05	-1.56377343945E+02	8.10680749232E-05	1.76674557733E+02	3.62457840243E-02	4.41044024569E+00
7.78617234469E+10	1.29424171620E-01	-9.55006867700E+01	8.00273893689E-05	9.23378925239E+01	7.18042118200E-05	1.31112014971E+02	3.68404203014E-02	5.20403874208E+00
7.78677354709E+10	1.30444600371E-01	-9.66283665967E+01	3.08333906328E-05	5.94270508133E+01	4.33220454539E-05	6.19251448046E+01	3.77466398925E-02	2.87908698108E+00
7.78737474950E+10	1.30104327142E-01	-9.60839170077E+01	1.19592931282E-05	8.09547717197E+01	3.81966137067E-05	1.63900732014E+02	3.86304591604E-02	2.71473325835E+00
7.78797595190E+10	1.29561335104E-01	-9.63706955680E+01	6.45331806031E-05	-6.45778101560E+00	1.59877782625E-05	1.95978768807E+01	3.90183634043E-02	4.21497906092E+00
7.78857715431E+10	1.29285545756E-01	-9.82991487086E+01	9.17522687637E-05	-9.19045882796E+01	4.12729319319E-05	-8.95702978321E+01	4.01303078784E-02	2.60772695025E+00
7.78917835671E+10	1.31343774773E-01	-9.85492431985E+01	2.11257301944E-05	3.62030256487E+01	3.34321998393E-05	-1.27754594632E+02	4.05235404442E-02	3.46202350955E+00
7.78977955912E+10	1.31641229684E-01	-9.93641841741E+01	5.18935320048E-05	-1.10778261251E+02	3.20887116642E-05	-1.70695593768E+02	4.17601987437E-02	2.55258080966E+00
7.79038076152E+10	1.29803947968E-01	-9.84637753815E+01	6.73969108109E-05	-1.27880904372E+02	1.27653377869E-04	-1.19947845589E+02	4.22048098585E-02	2.43303331611E+00
7.79098196393E+10	1.29337386086E-01	-9.71869451328E+01	2.99735851716E-05	-8.37129128972E+01	3.19302237560E-05	1.29996575796E+02	4.27517747888E-02	4.53965042677E-01
7.79158316633E+10	1.29654488464E-01	-9.80299356496E+01	3.87725159667E-05	-1.19516000055E+02	2.40638901121E-05	8.98518363113E+01	4.28626702456E-02	3.09627414925E+00
7.79218436874E+10	1.31012034028E-01	-1.00440144160E+02	2.47563648911E-05	-1.09079305652E+02	6.54431844764E-05	-1.42137160879E+02	4.44970460063E-02	1.08115179200E+00
7.79278557114E+10	1.30502267041E-01	-1.00185863576E+02	5.98265681432E-05	-5.67898321886E+01	4.49199932561E-05	1.66071685679E+02	4.60747588616E-02	-4.48182081744E-01
7.79338677355E+10	1.31426206781E-01	-9.91817034966E+01	1.22127072154E-04	-7.90097293445E+01	1.23378340244E-05	-1.69540090678E+02	4.55365001634E-02	5.06949558886E-01
7.79398797595E+10	1.29689411546E-01	-9.95244897140E+01	2.74117363940E-05	-5.54869359030E+01	4.70287476394E-05	1.66573006520E+02	4.59274061633E-02	1.36562335253E+00
7.79458917836E+10	1.29146031387E-01	-9.87481134767E+01	2.83735035949E-05	-1.40773988907E+02	4.43881952683E-05	9.91265813025E+01	4.71929971473E-02	5.94754790434E-01
7.79519038076E+10	1.27710501843E-01	-9.97273312041E+01	3.37393024016E-05	-8.22843670765E+01	7.77029749653E-05	-1.33835177019E+02	4.77461942027E-02	-2.32127334306E-02
7.79579158317E+10	1.28188421383E-01	-9.84908647554E+01	5.36040609632E-05	-1.30007642394E+02	8.48887641654E-05	1.20661217376E+02	4.94539571719E-02	-1.58767566024E+00
7.79639278557E+10	1.29716471762E-01	-9.97620597142E+01	1.14270465916E-04	-1.79671176798E+02	6.39176476478E-05	-1.68694816678E+02	4.97474305321E-02	-1.42198599651E+00
7.79699398798E+10	1.29406824241E-01	-1.01787427352E+02	4.59641572866E-05	1.69444304109E+02	1.07113761754E-04	1.52622418913E+02	5.14246702601E-02	-3.66207025024E+00
7.79759519038E+10	1.28608556791E-01	-1.01342553667E+02	9.24430704973E-05	1.22541600533E+02	8.80959553086E-05	1.54608107626E+02	5.17717189075E-02	-3.36722232331E+00
7.79819639279E+10	1.28563403375E-01	-9.97426709363E+01	8.84041792293E-05	1.42356901739E+02	6.47293640163E-05	1.24267644733E+02	5.27388380457E-02	-3.33119551381E+00
7.79879759519E+10	1.28546513123E-01	-1.00645428417E+02	8.34751822064E-05	1.28623087653E+02	1.15889780684E-04	1.16903628796E+02	5.33541475827E-02	-4.09403982992E+00
7.79939879760E+10	1.25154074246E-01	-9.69560345611E+01	5.47173355064E-05	1.13621291802E+02	9.23334692484E-05	8.55919396344E+01	5.23053962385E-02	-2.24452526827E+00
7.80000000000E+10	1.28501954157E-01	-1.02084837965E+02	8.63930638030E-05	9.05075667097E+01	6.52379793605E-05	7.05939466979E+01	5.34130134869E-02	-3.47040415864E+00
