# Hz S MA R 50
! CMT, C4420, 21421029, 25.1.2/3
! Date: 8/7/2025 2:11:26 PM
! Data: Format (Calibration Info)
! Freq	S33:Mag/Ang(F2)	S43:Mag/Ang(F2)	S34:Mag/Ang(F2)	S44:Mag/Ang(F2)
7.50000000000E+10	1.98293266887E-01	-1.42630171165E+01	5.48465310913E-05	-1.22643427089E+02	1.10988618985E-04	-1.13922367079E+02	3.01167426344E-01	-1.11748948555E+01
7.50060120240E+10	1.98976013016E-01	-1.40053330619E+01	6.11314493717E-05	-1.20793587566E+02	4.76739628165E-05	-2.13010215292E+01	2.98579147671E-01	-1.08761547567E+01
7.50120240481E+10	2.01019298725E-01	-1.46225721947E+01	7.68103004584E-05	-8.22045923498E+01	6.89377119333E-05	-4.69345168705E+01	3.02136890445E-01	-1.23041121877E+01
7.50180360721E+10	1.99648255681E-01	-1.45555777463E+01	6.62115806384E-05	1.53269914166E+02	6.93366772497E-05	1.74153853370E+02	3.02336049152E-01	-1.29047462462E+01
7.50240480962E+10	1.98354473416E-01	-1.30618322301E+01	6.32126730205E-05	-1.08446600785E+02	6.38685691339E-05	1.60154518476E+02	3.01171206536E-01	-1.36516936128E+01
7.50300601202E+10	1.98394650836E-01	-1.39636593813E+01	8.85505202505E-05	-7.38860010066E+01	6.10388509148E-05	-2.19587105289E+01	2.98783955547E-01	-1.21495685783E+01
7.50360721443E+10	2.00133431605E-01	-1.48212424830E+01	9.82877278298E-05	-1.13375704372E+02	6.03938568783E-05	1.44031065416E+02	2.98213990321E-01	-1.22404219224E+01
7.50420841683E+10	1.99717911942E-01	-1.50783959103E+01	8.70147017292E-05	-8.70084854684E+01	3.27484827950E-05	-6.08865504578E+01	2.97973817743E-01	-1.25953634443E+01
7.50480961924E+10	1.97681398893E-01	-1.62721341405E+01	6.49786979843E-05	-1.66656628256E+02	8.01059554629E-05	1.77034665910E+02	2.96754714466E-01	-1.42057720929E+01
7.50541082164E+10	1.95777297389E-01	-1.53538243960E+01	9.27033087837E-06	-1.10892733193E+02	1.26542953251E-05	-1.18173130018E+02	2.98263747784E-01	-1.33934077761E+01
7.50601202405E+10	1.99930068299E-01	-1.64903978201E+01	6.56919216894E-05	-1.61372059130E+02	5.14106734290E-05	5.32271524742E+01	2.99121965266E-01	-1.32218267760E+01
7.50661322645E+10	2.01382669515E-01	-1.68060925581E+01	7.66082662110E-05	-1.42807595419E+02	1.01553592957E-04	1.61590649878E+02	2.97303965492E-01	-1.38884844845E+01
7.50721442886E+10	1.97947238068E-01	-1.57216275048E+01	8.95023490951E-05	-1.56937559976E+02	4.31231602237E-05	4.48950007801E+01	2.96859954553E-01	-1.40482438613E+01
7.50781563126E+10	1.98729291434E-01	-1.74690171691E+01	9.14458799490E-05	-9.18269949355E+01	1.37162294190E-05	-1.58206370724E+02	2.97448202580E-01	-1.45905472258E+01
7.50841683367E+10	1.95895891982E-01	-1.60981756879E+01	1.58329553577E-05	-1.31745959806E+02	2.97550560689E-05	1.66250379480E+02	3.03594296761E-01	-1.56440662306E+01
7.50901803607E+10	1.97809198839E-01	-1.64879206891E+01	6.77901566511E-05	1.58695713120E+02	8.72666079334E-05	8.68568597520E+01	3.00009769307E-01	-1.41049607992E+01
7.50961923848E+10	1.99225316142E-01	-1.68401818529E+01	6.53814263796E-05	1.36762023915E+02	7.22543448739E-05	8.04916798763E+01	3.00533374548E-01	-1.65599525062E+01
7.51022044088E+10	1.97310967987E-01	-1.74552832376E+01	4.25185910250E-05	-1.55485717327E+02	4.81058584768E-05	-1.44124482005E+01	3.00482167057E-01	-1.60055348921E+01
7.51082164329E+10	1.95766980544E-01	-1.78251550688E+01	2.70431537995E-05	1.30935980727E+02	6.82864299746E-05	1.20550468711E+02	2.99974602153E-01	-1.60909355767E+01
7.51142284569E+10	1.95449956179E-01	-1.79319443094E+01	6.01441839162E-05	1.21314574302E+02	8.61571367362E-05	1.64539710440E+02	2.98981219522E-01	-1.60891395805E+01
7.51202404810E+10	1.98394181623E-01	-1.93447676545E+01	4.67726026416E-05	7.32501189680E+01	2.98871166509E-05	-5.58546910611E+01	3.00010982564E-01	-1.67460884240E+01
7.51262525050E+10	1.96273217265E-01	-1.93733268198E+01	4.06129733127E-05	1.28425042185E+02	7.88341819723E-05	-6.46131062592E+01	2.96621499560E-01	-1.69807025099E+01
7.51322645291E+10	1.96177112867E-01	-1.82008385289E+01	3.09686939870E-05	1.61279156080E+01	9.42941308319E-05	-2.77410873581E+01	3.01338732346E-01	-1.72757949437E+01
7.51382765531E+10	1.94735709929E-01	-1.74229202293E+01	4.25452116816E-05	-4.22855366973E+01	6.91800654274E-05	-8.98044979902E+01	3.01030729723E-01	-1.86858132789E+01
7.51442885772E+10	1.93781556294E-01	-1.66919626275E+01	7.04925222854E-05	-7.76059269050E+01	3.54677805666E-05	-1.61980373682E+02	3.02052517593E-01	-1.78006066682E+01
7.51503006012E+10	1.92204392697E-01	-1.59868386371E+01	5.78430734452E-05	-9.36697332114E+01	1.93466248722E-05	-1.51587308268E+02	2.97641213528E-01	-1.79685657116E+01
7.51563126253E+10	1.93308153484E-01	-1.99627532102E+01	2.18136417688E-05	3.80383316166E+01	6.55058827823E-05	9.11410974693E+01	2.95838991311E-01	-1.73125455738E+01
7.51623246493E+10	1.97178800287E-01	-2.03587278253E+01	3.73557553689E-05	1.75878653803E+02	3.83006279278E-05	1.29516178471E+02	2.97652715635E-01	-1.76128114618E+01
7.51683366733E+10	1.91458544888E-01	-1.75940754929E+01	4.38244953295E-05	1.14808821449E+02	1.68038703775E-05	-6.74791103284E+01	3.03291280748E-01	-1.86048556249E+01
7.51743486974E+10	1.98208492383E-01	-2.12962870382E+01	1.69458513650E-05	1.40096703706E+02	2.39600704344E-05	4.62636287725E+01	3.02517088177E-01	-1.95031099192E+01
7.51803607214E+10	1.95607285039E-01	-2.03231949982E+01	8.94294643049E-05	1.09071763258E+02	3.40209583345E-05	1.17025366057E+02	2.98113101259E-01	-1.94927084111E+01
7.51863727455E+10	1.97418057239E-01	-2.16634691833E+01	9.57822560546E-05	8.71176535220E+01	2.68923989321E-05	4.47770436949E+01	2.96649901679E-01	-1.86016362449E+01
7.51923847695E+10	1.92956462560E-01	-2.06740358263E+01	3.04656765675E-05	-3.51437435943E+01	6.73904966111E-05	-7.62789637406E+00	3.00432284640E-01	-1.87527598499E+01
7.51983967936E+10	1.91331700560E-01	-1.78826106049E+01	7.72518165784E-05	-1.14554139797E+02	4.43505875219E-05	-1.14422090648E+02	3.02143333456E-01	-1.98468316805E+01
7.52044088176E+10	1.96541606729E-01	-2.10610156097E+01	1.05954172242E-04	-9.16857862814E+01	2.91742651291E-05	-6.52176502397E+01	2.98453343029E-01	-1.93694047592E+01
7.52104208417E+10	1.94827062029E-01	-2.16227067932E+01	8.51971288910E-05	-1.61670316385E+02	2.51208894794E-05	-1.10161392809E+02	2.94748243823E-01	-1.90668197486E+01
7.52164328657E+10	1.96254429512E-01	-2.23898234518E+01	3.38884272210E-05	-1.40788458984E+02	1.89768197197E-05	1.94949040134E+00	3.02247521366E-01	-2.13496256326E+01
7.52224448898E+10	1.94679240732E-01	-2.23184408164E+01	3.15815386253E-05	-1.67234924909E+02	7.83302078297E-05	-1.65664025064E+02	2.99095538189E-01	-2.07954297504E+01
7.52284569138E+10	1.96260137166E-01	-2.02756638058E+01	1.00165688172E-04	1.21581596561E+02	3.21164424542E-05	6.17553186796E+01	2.92634976300E-01	-1.95315015749E+01
7.52344689379E+10	1.92207275732E-01	-2.06744694294E+01	3.05125650742E-05	1.55342203461E+02	5.77540289242E-05	9.00256697487E+01	2.99859098294E-01	-2.15899809853E+01
7.52404809619E+10	1.95844264207E-01	-2.14649598901E+01	4.15632771804E-05	8.62632785762E+01	8.32686571519E-05	8.20183119694E+01	3.00050776091E-01	-2.15565257667E+01
7.52464929860E+10	1.95206260787E-01	-2.26404460689E+01	6.89153001903E-05	-4.48287155834E+00	2.17209383625E-05	-4.72263148045E+00	2.95307630877E-01	-2.02812197922E+01
7.52525050100E+10	1.92783082108E-01	-2.34758553220E+01	3.04082301749E-05	5.59427423369E+01	4.83150656986E-05	-1.06616961238E+02	2.98358662998E-01	-2.21836809117E+01
7.52585170341E+10	1.90183331117E-01	-2.02040169448E+01	3.01337670423E-05	1.59104603400E+02	3.66606852552E-05	-1.78470094345E+02	3.01435262766E-01	-2.29857260599E+01
7.52645290581E+10	1.93369464034E-01	-2.15195613345E+01	3.80592110153E-05	-6.52179387613E+01	1.80367480276E-05	1.73231752646E+02	3.02228760822E-01	-2.30310797157E+01
7.52705410822E+10	1.92054020016E-01	-2.23395318904E+01	7.49877329028E-05	1.07287665355E+02	5.41492651683E-05	7.88512790239E+01	2.97543114903E-01	-2.25609409065E+01
7.52765531062E+10	1.91846613979E-01	-2.31269021299E+01	6.13392978859E-05	7.59619573836E+01	5.54070323535E-05	1.29056779291E+02	2.93227422353E-01	-2.21532863642E+01
7.52825651303E+10	1.88872177089E-01	-2.19832239474E+01	3.97825132989E-05	-1.24817074703E+02	5.90365998459E-05	8.42060973313E+01	2.92320409415E-01	-2.19155980201E+01
7.52885771543E+10	1.90849535287E-01	-2.20217100784E+01	9.81800413246E-05	6.65971942863E+01	4.88536002207E-05	2.55008168619E+01	2.99972418914E-01	-2.36235908548E+01
7.52945891784E+10	1.91168968845E-01	-2.04245905388E+01	3.34815125925E-05	1.42156292106E+02	2.84633481782E-05	-1.10928502866E+02	3.01898694952E-01	-2.40910032552E+01
7.53006012024E+10	1.93208700686E-01	-2.35958101892E+01	4.56494801733E-05	4.93886456184E+01	4.73744183930E-05	1.24465809150E+02	2.94909416944E-01	-2.26787434820E+01
7.53066132265E+10	1.90327844656E-01	-2.36546398529E+01	4.52679583280E-05	1.47561276419E+01	4.71377318395E-05	1.71224413670E+02	2.94505125700E-01	-2.31887484741E+01
7.53126252505E+10	1.87320385603E-01	-2.14867514712E+01	5.04231752569E-05	-3.71991381237E+01	1.11674744315E-05	-9.59842619208E+01	2.94135163779E-01	-2.41421288401E+01
7.53186372745E+10	1.92518962059E-01	-2.39075479434E+01	6.26956990991E-05	6.02713730600E+01	4.29428707744E-05	5.68715714583E+01	2.98780989659E-01	-2.54264698997E+01
7.53246492986E+10	1.90969022602E-01	-2.30595839642E+01	4.58402122768E-05	1.77381758321E+02	6.97044221243E-07	-1.24179172427E+02	2.99853925646E-01	-2.49573596474E+01
7.53306613226E+10	1.90495377580E-01	-2.27818546614E+01	6.66545728779E-05	-1.77130526364E+02	2.63599826436E-05	1.55628813242E+02	2.97712997071E-01	-2.40668776714E+01
7.53366733467E+10	1.88111883558E-01	-2.36665182611E+01	6.06406673799E-05	9.74576422422E+01	3.08701527270E-05	1.04721125114E+02	2.96823713529E-01	-2.61696530228E+01
7.53426853707E+10	1.88200826521E-01	-2.25738343777E+01	7.32890868412E-05	5.78471454736E+01	2.90590024196E-05	-6.17884541077E+01	2.97740728949E-01	-2.58987404645E+01
7.53486973948E+10	1.93416037851E-01	-2.41704841577E+01	2.30527502428E-05	1.13915999374E+01	5.25894371957E-05	5.74288395769E+00	2.93638919793E-01	-2.46439926355E+01
7.53547094188E+10	1.90452934246E-01	-2.38362469897E+01	1.23534132766E-05	1.17824748361E+02	6.44727565256E-05	-3.15606558410E+01	2.96797567321E-01	-2.58860601935E+01
7.53607214429E+10	1.90841906008E-01	-2.49658419421E+01	5.91429979585E-05	-1.36231434613E+02	7.85160630187E-05	-6.88645450162E+01	3.00369409850E-01	-2.75818272604E+01
7.53667334669E+10	1.90908459346E-01	-2.54230759276E+01	7.42877805007E-05	-9.73067727693E+01	7.57640136842E-05	-4.48931267189E+01	2.95771820607E-01	-2.67797558668E+01
7.53727454910E+10	1.91636663872E-01	-2.52706720968E+01	4.64741099697E-05	-9.46196699231E+01	6.26542791445E-06	1.66443888094E+02	2.93655129217E-01	-2.61512362733E+01
7.53787575150E+10	1.88337023878E-01	-2.47884287909E+01	4.00152650128E-05	1.34594208861E+02	5.24443025989E-05	8.35021936504E+01	2.92801493020E-01	-2.60245221959E+01
7.53847695391E+10	1.88813661056E-01	-2.44093055803E+01	2.71884855957E-05	-6.35534893086E+01	3.83265801999E-05	-1.67943921554E+00	2.97872821854E-01	-2.78757347137E+01
7.53907815631E+10	1.88223012177E-01	-2.41497804072E+01	4.86812885757E-05	4.24350558377E+01	5.84030994665E-05	1.13580799155E+02	2.98071421047E-01	-2.87395934373E+01
7.53967935872E+10	1.90007743201E-01	-2.53748340700E+01	7.96527524925E-05	-5.99487643184E+00	2.68918572781E-05	1.88547834784E+01	2.95473683535E-01	-2.67931654034E+01
7.54028056112E+10	1.92615738598E-01	-2.76612924182E+01	1.13017760440E-04	-2.17645110958E+01	5.88441102154E-05	-7.12676436715E+01	2.96851309067E-01	-2.74690858850E+01
7.54088176353E+10	1.89016634412E-01	-2.67897113543E+01	5.21759450954E-05	-7.64828149118E+01	5.00109506086E-05	-8.32696247562E+01	2.95623467232E-01	-2.82944189722E+01
7.54148296593E+10	1.90291724713E-01	-2.64074184791E+01	4.18031433859E-05	-1.09214706458E+02	1.07952514287E-04	-5.75600332204E+01	2.93244655361E-01	-2.92770804794E+01
7.54208416834E+10	1.94804638898E-01	-2.79344972669E+01	2.65337558580E-05	-1.26701704525E+02	4.26483584100E-05	-8.63241613225E+01	2.92194077174E-01	-2.72087414092E+01
7.54268537074E+10	1.91516624699E-01	-2.72784907796E+01	5.06738600664E-05	1.82610282982E+01	4.06175053461E-05	-3.88710928148E+01	3.00218119315E-01	-2.99683394732E+01
7.54328657315E+10	1.88569609072E-01	-2.69701519544E+01	4.14448924142E-05	-1.66552749834E+02	3.90252005211E-05	-3.00383317299E+01	2.96054007855E-01	-2.97267362111E+01
7.54388777555E+10	1.87219566152E-01	-2.63044899327E+01	1.74039691624E-05	-1.40796571085E+02	2.50971837306E-05	1.21738988012E+02	2.89283356997E-01	-2.85099907522E+01
7.54448897796E+10	1.84582263072E-01	-2.57747365464E+01	1.31815443071E-05	1.03320284334E+02	5.45044618694E-05	1.55965303262E+02	2.93004908218E-01	-2.97483515667E+01
7.54509018036E+10	1.92106395716E-01	-2.82967701064E+01	2.29748495239E-05	2.04787734694E+01	6.23876533902E-05	4.91638298049E+01	2.94587463315E-01	-3.02938420996E+01
7.54569138277E+10	1.87257459527E-01	-2.63453668289E+01	1.76138800010E-05	1.34288308288E+02	2.64871418347E-05	-7.94908871676E+01	2.95960734872E-01	-3.16202948418E+01
7.54629258517E+10	1.88305910400E-01	-2.65159316201E+01	5.97044635619E-05	-2.18203002513E+01	7.76286339789E-05	2.50205793378E+01	2.98244797086E-01	-3.17893387226E+01
7.54689378758E+10	1.88782110367E-01	-2.93134338590E+01	9.40063225383E-05	3.22339588628E+00	5.42481247172E-05	-2.22574923320E+01	2.94697204726E-01	-3.02794956862E+01
7.54749498998E+10	1.90304144782E-01	-2.91701811876E+01	6.00957414739E-05	-1.23982759019E+02	2.44736659595E-05	-8.88359494643E+01	2.93439627934E-01	-3.02845326758E+01
7.54809619238E+10	1.89993589053E-01	-2.87263347325E+01	3.95475968333E-05	-7.04633962961E+01	5.24523230033E-05	-1.10062976301E+02	2.92763632979E-01	-3.07306158672E+01
7.54869739479E+10	1.89047909785E-01	-2.80315080562E+01	3.00027246077E-05	-1.08517390570E+01	5.61393796964E-05	9.42640925686E-01	2.94301373990E-01	-3.22875136615E+01
7.54929859719E+10	1.85589969006E-01	-2.66854676556E+01	4.54687115275E-05	-1.31952493321E+02	1.99603920039E-05	-1.54997289678E+02	2.96192116652E-01	-3.22226178082E+01
7.54989979960E+10	1.83943344570E-01	-2.74686857959E+01	2.77511263430E-05	-6.93944346704E+01	2.86181482732E-05	-2.07375277799E+00	2.94491963922E-01	-3.20142094746E+01
7.55050100200E+10	1.88233966986E-01	-2.93975429246E+01	2.45303537325E-05	-4.65843982886E+01	5.05694690448E-05	-3.66188271982E+01	2.95183798833E-01	-3.20876943406E+01
7.55110220441E+10	1.88600391298E-01	-2.85733605190E+01	7.43261823047E-05	-9.70152730656E+00	2.69695872693E-05	-6.81990273839E+01	2.94585756816E-01	-3.31083374944E+01
7.55170340681E+10	1.89153629399E-01	-3.09426650668E+01	2.94877284830E-05	-6.92548845608E+01	1.80435669165E-05	-3.20107532988E+01	2.94542610480E-01	-3.28736457255E+01
7.55230460922E+10	1.88110600449E-01	-3.07481686307E+01	3.76446363089E-05	5.76955852212E+01	1.73298270938E-05	8.09816657866E+01	2.92332492304E-01	-3.23591827023E+01
7.55290581162E+10	1.86286716143E-01	-2.98035173720E+01	6.49064822306E-05	1.41874771782E+01	3.69666927660E-05	5.02801174469E+01	2.93549500116E-01	-3.32626777702E+01
7.55350701403E+10	1.88152872683E-01	-3.06035936631E+01	3.24005581074E-05	3.32205490134E+01	8.00205578062E-06	-9.61006066683E+01	2.91501558734E-01	-3.37373666121E+01
7.55410821643E+10	1.86666250719E-01	-3.00540769789E+01	4.87197246537E-05	-9.88028336280E+01	3.00554973729E-05	6.06611964308E+01	2.92766190132E-01	-3.33448622295E+01
7.55470941884E+10	1.86075956271E-01	-2.92777627552E+01	4.82151879177E-05	-1.49151573351E+01	6.30382153836E-05	-2.06455343562E+01	2.94032805735E-01	-3.45560810224E+01
7.55531062124E+10	1.87540783154E-01	-3.10488753794E+01	6.23334263602E-05	-1.22752426471E+02	7.40650888319E-05	-4.14495824395E+01	2.95338806163E-01	-3.47651132376E+01
7.55591182365E+10	1.82670725990E-01	-2.97645088442E+01	5.10517732109E-05	-2.66873294226E+01	1.65241568361E-05	-7.75363595294E+01	2.92700596689E-01	-3.57786509408E+01
7.55651302605E+10	1.85777073701E-01	-3.13665072527E+01	9.81694801773E-05	-6.74078483107E+01	7.73021464393E-05	-9.87187089780E+01	2.91109525531E-01	-3.45295926664E+01
7.55711422846E+10	1.89901225474E-01	-3.22038819933E+01	8.09703039131E-05	1.65433992603E+02	7.95203006896E-05	-8.89393340032E+01	2.95054715769E-01	-3.51739190758E+01
7.55771543086E+10	1.86894492701E-01	-3.17565957716E+01	1.08730756650E-04	-1.53822482787E+02	2.91696110781E-05	3.76927534131E+01	2.93006773097E-01	-3.51733062280E+01
7.55831663327E+10	1.84704515739E-01	-3.25962939317E+01	5.07253281130E-05	-1.05945938262E+02	1.00014563331E-04	-1.79340746251E+02	2.88506049621E-01	-3.45419493338E+01
7.55891783567E+10	1.86257814706E-01	-3.20550154397E+01	9.62925484262E-05	1.76631654262E+02	4.10660240880E-05	-1.37084215344E+02	2.92331656879E-01	-3.63298755955E+01
7.55951903808E+10	1.86400057236E-01	-3.28258527896E+01	5.42676090404E-05	6.06446334569E+01	2.37878684483E-05	-3.57597253151E+01	2.96937016135E-01	-3.73958881900E+01
7.56012024048E+10	1.90258436160E-01	-3.34504345602E+01	1.85166667320E-05	2.84764835752E+01	2.64376615240E-05	1.25187540515E+02	2.92035345113E-01	-3.57999504076E+01
7.56072144289E+10	1.85160640126E-01	-3.17503808737E+01	5.40964555742E-05	-1.48860902360E+02	5.03569601154E-05	-4.91921015961E+01	2.89311894183E-01	-3.67613270226E+01
7.56132264529E+10	1.83365686948E-01	-3.10724148798E+01	3.17130679733E-05	-3.22923070003E+01	3.60125378982E-05	1.52752171397E+02	2.92084437181E-01	-3.68964655784E+01
7.56192384770E+10	1.84352307444E-01	-3.35096506170E+01	6.55770551630E-05	-1.54267155627E+02	9.30580869474E-05	-1.18454148673E+02	2.91817480310E-01	-3.68972486533E+01
7.56252505010E+10	1.83972677212E-01	-3.28610396950E+01	7.39660355298E-05	-1.26957317478E+02	1.27339651746E-04	-1.06693219182E+02	2.93864389672E-01	-3.80063719337E+01
7.56312625251E+10	1.85588206750E-01	-3.25833806230E+01	7.86487865944E-05	-1.65637866115E+02	8.26701492557E-05	-1.76073742657E+02	2.90930954090E-01	-3.86440116483E+01
7.56372745491E+10	1.83419566505E-01	-3.21630887676E+01	1.31368685907E-04	1.67720211759E+02	2.48829910643E-05	8.18439679685E+01	2.90672595382E-01	-3.77734410746E+01
7.56432865731E+10	1.82091782664E-01	-3.32054760925E+01	7.31534132728E-05	1.29635570014E+02	5.63557964219E-05	1.38492649499E+02	2.92293688916E-01	-3.72870742056E+01
7.56492985972E+10	1.84820887416E-01	-3.45852953313E+01	7.15574461104E-05	3.05626034797E+01	6.72128349738E-05	1.15313545877E+02	2.90813817640E-01	-3.89426720277E+01
7.56553106212E+10	1.87329036275E-01	-3.51849492366E+01	4.74828400306E-05	8.25028236882E+01	7.88287435994E-06	5.19276156240E+01	2.91007900539E-01	-3.92444975847E+01
7.56613226453E+10	1.86183000274E-01	-3.37409966824E+01	4.09921875531E-05	1.49253064719E+02	6.07593659808E-05	-1.31941779182E+02	2.87976914072E-01	-3.76884363337E+01
7.56673346693E+10	1.84043171166E-01	-3.34930547600E+01	1.51515932411E-04	1.43946249878E+02	7.69445794077E-05	1.44376989522E+02	2.93504389854E-01	-3.97477930919E+01
7.56733466934E+10	1.81901767564E-01	-3.33208458154E+01	1.21163255295E-04	1.34107814461E+02	1.56868211976E-04	1.19852782225E+02	2.92037785708E-01	-4.07611241050E+01
7.56793587174E+10	1.82167252404E-01	-3.40626156651E+01	8.64914616308E-05	1.20011332360E+02	9.21856335834E-05	1.01983043760E+02	2.86591616039E-01	-3.95384637145E+01
7.56853707415E+10	1.83871992622E-01	-3.54226358742E+01	1.09683726286E-04	1.09028141365E+02	6.95276625916E-05	8.16995457561E+01	2.92286014713E-01	-3.99650698818E+01
7.56913827655E+10	1.83279643081E-01	-3.45675428772E+01	7.26490065174E-05	1.11053863443E+02	1.25993705518E-05	1.00352671796E+02	2.87482423180E-01	-3.92575736439E+01
7.56973947896E+10	1.84938448229E-01	-3.57854311911E+01	4.52669539388E-05	6.68900312052E+01	1.02370504983E-04	4.39096121280E+01	2.85679800186E-01	-3.98158758435E+01
7.57034068136E+10	1.86518944931E-01	-3.55229295719E+01	4.69502126772E-05	1.00869365046E+02	4.13091333108E-05	-4.54961337960E+00	2.86722140302E-01	-4.09398407671E+01
7.57094188377E+10	1.82942764549E-01	-3.58801470459E+01	2.08708156217E-05	-3.62418351714E+01	3.21986493569E-05	7.69582667705E+00	2.88988067476E-01	-4.15681140611E+01
7.57154308617E+10	1.83053471761E-01	-3.57279096190E+01	5.56342628828E-05	1.10452765333E+02	5.35455163630E-05	4.26660690763E+01	2.89298201116E-01	-4.07282179872E+01
7.57214428858E+10	1.83286649435E-01	-3.43822475960E+01	6.16667934254E-05	8.02025381259E+01	5.35592010157E-05	4.70594364871E+01	2.90972476995E-01	-4.08134170808E+01
7.57274549098E+10	1.85170109344E-01	-3.56713358357E+01	3.73855136066E-05	6.83980826995E+01	1.15362274377E-04	8.55490478151E+01	2.86334209193E-01	-4.10568237451E+01
7.57334669339E+10	1.82853438997E-01	-3.65371774696E+01	6.58546833759E-05	1.86247341955E+01	1.20419229593E-04	2.98688768408E+01	2.91834367383E-01	-4.31066099822E+01
7.57394789579E+10	1.81115917541E-01	-3.62099568589E+01	8.17928066684E-05	2.65868073200E+01	2.60509361725E-05	2.96753890814E+01	2.90574264156E-01	-4.31842287360E+01
7.57454909820E+10	1.83151649607E-01	-3.69711216406E+01	4.40677840803E-05	1.83065846751E+01	1.17337384189E-05	2.54583045633E+01	2.84771470888E-01	-4.14222121311E+01
7.57515030060E+10	1.82925835136E-01	-3.53147622749E+01	9.83474604834E-05	1.55975456625E+01	5.86436535549E-05	3.32646995102E+01	2.91562236241E-01	-4.27830549428E+01
7.57575150301E+10	1.82160028914E-01	-3.60768095614E+01	9.83283253114E-05	4.84199870522E+01	3.28609461396E-05	7.39644613160E+01	2.87296709384E-01	-4.28900589459E+01
7.57635270541E+10	1.80809745396E-01	-3.68586752434E+01	4.01721444543E-05	-9.14045657962E+00	7.02669781185E-05	-2.75282766166E+01	2.85026551296E-01	-4.35735454189E+01
7.57695390782E+10	1.82450618220E-01	-3.79718969875E+01	8.99115140230E-05	-4.66722772406E+01	7.86945484572E-05	-3.20987831131E+01	2.93216954010E-01	-4.44965220184E+01
7.57755511022E+10	1.84385868512E-01	-3.93688440416E+01	9.51163751357E-05	-1.05577319221E+01	2.90862075314E-05	6.10945610886E+01	2.89402106920E-01	-4.41003293809E+01
7.57815631263E+10	1.82390725173E-01	-3.86059361093E+01	3.01918543067E-05	-6.94991931452E+01	9.59642816827E-05	4.12442182936E+00	2.86143992600E-01	-4.37457911751E+01
7.57875751503E+10	1.81006360636E-01	-3.84921874008E+01	5.27189796132E-05	-4.23442029227E+01	1.00202897033E-04	-5.85173681423E+00	2.84388965802E-01	-4.39439264075E+01
7.57935871743E+10	1.82864644083E-01	-3.77120975143E+01	5.00318379149E-05	-2.51889486482E+01	1.02832050857E-04	3.49933278209E+00	2.86912399215E-01	-4.40184275144E+01
7.57995991984E+10	1.80179715833E-01	-3.98731281879E+01	8.94983723996E-06	-1.19472128285E+02	3.56503667556E-05	-3.13857452053E+01	2.88920009169E-01	-4.51302561721E+01
7.58056112224E+10	1.83115932389E-01	-3.96280593834E+01	1.07864565056E-04	-7.05270599147E+01	4.44952315523E-05	-1.05152002567E+02	2.87399093738E-01	-4.59542074491E+01
7.58116232465E+10	1.84998988810E-01	-3.98388983104E+01	4.25136454728E-05	-6.52215685018E+01	3.68899990961E-05	-3.61156325775E+01	2.82942126809E-01	-4.42022712234E+01
7.58176352705E+10	1.77115622288E-01	-3.60181385643E+01	1.30727314209E-04	-5.95488347628E+01	6.99131116934E-05	-5.12479033044E+01	2.84528486546E-01	-4.58460874389E+01
7.58236472946E+10	1.80950043867E-01	-3.95198345007E+01	6.33797609052E-05	-2.75576894840E+01	5.10095300729E-05	-5.24268474535E+01	2.84338384561E-01	-4.50739380970E+01
7.58296593186E+10	1.80354681368E-01	-3.97164710832E+01	7.70885299609E-05	-3.57598020840E+01	4.16838919965E-05	-5.75743994059E+01	2.87504184808E-01	-4.58269530784E+01
7.58356713427E+10	1.80760042693E-01	-3.99162008807E+01	8.31075673702E-05	-7.97856313487E+01	1.13905676957E-04	-8.86991625163E+01	2.83343729632E-01	-4.54852805501E+01
7.58416833667E+10	1.80291268991E-01	-3.98707718247E+01	5.64451660885E-05	-3.40163951020E+01	4.38984037067E-05	-1.18030982733E+02	2.82693786065E-01	-4.63942132098E+01
7.58476953908E+10	1.77611003561E-01	-3.88764197900E+01	5.76362577009E-05	-8.76561341608E+01	5.95354740156E-05	-1.44729289756E+02	2.82141282037E-01	-4.72138684036E+01
7.58537074148E+10	1.80318101309E-01	-3.94544306515E+01	5.21216336547E-05	-9.69675898504E+01	5.00778940573E-05	1.61075464418E+02	2.86034569797E-01	-4.67976901451E+01
7.58597194389E+10	1.80154411266E-01	-3.92135911623E+01	2.70559517919E-05	-1.27282080352E+02	5.82820896237E-05	-1.07356795921E+02	2.82372129810E-01	-4.70146618314E+01
7.58657314629E+10	1.79625561777E-01	-4.00329720307E+01	4.73616923640E-05	1.65880854423E+02	2.41221673833E-05	-1.00697342636E+02	2.86107358993E-01	-4.78165976049E+01
7.58717434870E+10	1.78261440310E-01	-4.20343719538E+01	1.00548187677E-04	-8.16650261052E+01	5.34134679428E-05	-1.16370098172E+02	2.84848590225E-01	-4.75346359003E+01
7.58777555110E+10	1.77774405785E-01	-3.99021531450E+01	1.22566532021E-04	-1.14140512370E+02	7.96847610628E-05	-8.06879407208E+01	2.86196602426E-01	-4.80294636352E+01
7.58837675351E+10	1.74116244600E-01	-3.89887705195E+01	8.79257345319E-05	-1.37674449702E+02	4.48633757225E-05	-1.48380490964E+02	2.83017599941E-01	-4.84874397027E+01
7.58897795591E+10	1.78743572727E-01	-4.17668539020E+01	1.18315041582E-04	-1.33356055858E+02	8.10896373805E-05	-1.51467232608E+02	2.81027026939E-01	-4.76910916009E+01
7.58957915832E+10	1.78052548679E-01	-4.15340849883E+01	8.88508486572E-05	-1.77740711830E+02	9.46226182225E-05	-1.59416476959E+02	2.78297617607E-01	-4.76425735733E+01
7.59018036072E+10	1.79384352991E-01	-4.21916403191E+01	1.44193943885E-04	1.73116678502E+02	1.16913088181E-04	1.44090467820E+02	2.82630073951E-01	-4.90537196822E+01
7.59078156313E+10	1.77909134169E-01	-4.17100466004E+01	7.84446375770E-05	-1.68951378981E+02	5.62222000962E-05	-1.78250928011E+02	2.83342862351E-01	-4.91629717376E+01
7.59138276553E+10	1.76861983191E-01	-4.22924944196E+01	6.54243238958E-05	1.67113760986E+02	1.14524539613E-04	1.40561289914E+02	2.80956701507E-01	-4.89644684456E+01
7.59198396794E+10	1.79920013866E-01	-4.20495610427E+01	4.90732132582E-05	1.77561232058E+02	1.45863431535E-05	8.31819433883E+01	2.81311818041E-01	-4.95762698743E+01
7.59258517034E+10	1.78242942139E-01	-4.15645110124E+01	1.11945416403E-05	3.93226222330E+01	6.99713966542E-05	5.15781167499E+01	2.83792240314E-01	-5.03680187215E+01
7.59318637275E+10	1.78284383611E-01	-4.32966914381E+01	8.17856605025E-05	4.01156626558E+01	6.19547986835E-05	1.07790083073E+02	2.85301893133E-01	-5.07144692085E+01
7.59378757515E+10	1.76283835259E-01	-4.39836639808E+01	1.64285500591E-05	-1.59865890163E+02	1.52305915779E-05	2.58855508950E+01	2.83804146970E-01	-5.13513015628E+01
7.59438877756E+10	1.79411693298E-01	-4.37310726997E+01	5.20834751521E-05	-1.47676454609E+02	2.98996238037E-05	4.22603259230E+01	2.84940788143E-01	-5.11297613468E+01
7.59498997996E+10	1.79206365494E-01	-4.35220039418E+01	6.75937265211E-05	1.62469132067E+02	5.29993789078E-05	-1.56836160865E+02	2.80453742100E-01	-5.04193464203E+01
7.59559118236E+10	1.77354685303E-01	-4.20893573874E+01	6.33912375500E-05	1.05907177695E+02	8.49278364132E-05	1.76089234374E+02	2.80271848870E-01	-5.03326013514E+01
7.59619238477E+10	1.77650747848E-01	-4.53334864658E+01	1.00915989208E-04	1.28897114490E+02	9.11125414334E-05	1.13513950106E+02	2.77885599840E-01	-5.04637512772E+01
7.59679358717E+10	1.77454600464E-01	-4.45119754746E+01	1.53851822498E-04	1.42727912661E+02	5.85076322514E-05	1.32747004733E+02	2.78646437010E-01	-5.17193829746E+01
7.59739478958E+10	1.78097199148E-01	-4.26952441046E+01	1.03751884796E-04	9.89477406864E+01	4.50335641563E-05	-9.93703444421E+00	2.81212118918E-01	-5.21912638674E+01
7.59799599198E+10	1.79970827486E-01	-4.54883054380E+01	2.48806965592E-05	3.27079285552E+01	1.36975333666E-04	1.08732619176E+02	2.84413166224E-01	-5.31627885334E+01
7.59859719439E+10	1.74525249999E-01	-4.48763680765E+01	6.35268519001E-05	1.13268141137E+02	9.03987051253E-05	3.81566960709E+01	2.79074764561E-01	-5.21597500160E+01
7.59919839679E+10	1.78223183455E-01	-4.57644450528E+01	7.48333666346E-05	1.26573810198E+02	1.05582393871E-04	2.25988773322E+01	2.80862135411E-01	-5.24402471032E+01
7.59979959920E+10	1.78533858893E-01	-4.49667464348E+01	8.60666745113E-05	7.87914379170E+00	3.50763724726E-05	1.27624400984E+02	2.76256592863E-01	-5.21093522728E+01
7.60040080160E+10	1.75399400477E-01	-4.38688724575E+01	1.04228633828E-04	1.29670080836E+01	1.05762486705E-04	7.51234173784E+01	2.82475009240E-01	-5.37108994355E+01
7.60100200401E+10	1.77368251292E-01	-4.70274608304E+01	7.33731620664E-05	1.01176573506E+01	3.79483000552E-05	1.02632319971E+02	2.78793298677E-01	-5.39057666540E+01
7.60160320641E+10	1.75503490109E-01	-4.61796519014E+01	5.32582536375E-05	7.51304273905E+01	5.32129965103E-05	1.17373704540E+02	2.84454213293E-01	-5.46031686960E+01
7.60220440882E+10	1.74482524349E-01	-4.49157868881E+01	5.18452473983E-05	2.30473153483E+01	4.50196119363E-05	-1.53206162059E+01	2.79514186509E-01	-5.31567179997E+01
7.60280561122E+10	1.75885364122E-01	-4.58458299291E+01	8.98837124233E-05	7.27330592469E+00	4.23020801222E-05	-1.39004140310E+02	2.74365784813E-01	-5.31387138672E+01
7.60340681363E+10	1.75354947813E-01	-4.54592411904E+01	8.87552284217E-05	-2.37607417854E+01	3.45872343133E-05	-1.03564569132E+02	2.75338066454E-01	-5.39224602383E+01
7.60400801603E+10	1.74722607990E-01	-4.56108569560E+01	3.45941776092E-05	-5.49378981928E+01	5.02790415553E-05	-2.49567592265E+01	2.80777308326E-01	-5.58576649816E+01
7.60460921844E+10	1.74794863364E-01	-4.60673708791E+01	1.00765927205E-04	-9.37463968184E+01	5.87190328472E-05	-2.99565873523E+01	2.78592546638E-01	-5.46734923153E+01
7.60521042084E+10	1.73064867530E-01	-4.66854315019E+01	3.61968471072E-05	-5.05235862915E+01	4.46931132963E-05	-4.52186639231E+01	2.75784901971E-01	-5.39114393031E+01
7.60581162325E+10	1.73810407420E-01	-4.75240299834E+01	1.04145377098E-04	1.54019853105E+02	4.99252426559E-05	1.69237390936E+02	2.82141284646E-01	-5.63521870532E+01
7.60641282565E+10	1.75514052190E-01	-4.69993338055E+01	7.02742477639E-05	-1.48170971230E+01	2.50766275490E-05	-1.54510614674E+02	2.75839086059E-01	-5.54045256322E+01
7.60701402806E+10	1.72437324316E-01	-4.56451703727E+01	8.51111070958E-05	-7.41669282640E+01	1.64771616504E-05	8.09611829375E+00	2.74514483301E-01	-5.43986890182E+01
7.60761523046E+10	1.73365079353E-01	-4.74428105355E+01	5.60005266095E-05	-4.68504447202E+01	3.68290447761E-05	-7.79956903326E+01	2.73188225946E-01	-5.41277164470E+01
7.60821643287E+10	1.75146899705E-01	-4.67435578534E+01	6.85892644399E-05	-8.11873224979E+01	3.26190936149E-05	1.82678722859E+01	2.77183972808E-01	-5.64409831742E+01
7.60881763527E+10	1.74754106612E-01	-4.75022660764E+01	3.52574838988E-05	-3.20205002670E+00	2.52061559663E-05	1.38378424566E+02	2.77955148500E-01	-5.68598397044E+01
7.60941883768E+10	1.72542904784E-01	-4.88853135743E+01	9.15519128122E-05	-1.10636918550E+02	1.14045756809E-04	-6.14603201217E+01	2.74532053060E-01	-5.63025615622E+01
7.61002004008E+10	1.72061160088E-01	-4.62097666528E+01	2.02880293636E-05	-1.36833943176E+02	3.91811108156E-05	1.74193485794E+02	2.73684427028E-01	-5.60516006752E+01
7.61062124248E+10	1.75064769256E-01	-4.81527405903E+01	5.07962103758E-05	-1.59520406821E+02	3.85379217126E-05	1.52966685197E+02	2.74581600655E-01	-5.67993281524E+01
7.61122244489E+10	1.71700812669E-01	-4.91648108747E+01	4.66345555915E-06	1.52672118337E+02	8.56222798391E-05	-1.34294763319E+02	2.76475886423E-01	-5.82327166058E+01
7.61182364729E+10	1.74916935840E-01	-4.93886291662E+01	5.93158712949E-05	1.61143233527E+02	4.54824385518E-05	-1.15436527603E+02	2.74516603555E-01	-5.71701272600E+01
7.61242484970E+10	1.69572930131E-01	-4.64334994811E+01	6.91367761311E-05	-1.67134041237E+02	7.64119750911E-05	1.66232067695E+02	2.75995989787E-01	-5.80856110743E+01
7.61302605210E+10	1.70618699202E-01	-4.70598189331E+01	5.01074057086E-05	1.09211375436E+02	4.79049975718E-05	1.32833558050E+02	2.75565025284E-01	-5.82571154388E+01
7.61362725451E+10	1.70874739457E-01	-4.88176273497E+01	9.50566682278E-05	1.65556738748E+02	3.78483991586E-05	1.69469538642E+02	2.73870549829E-01	-5.86010959820E+01
7.61422845691E+10	1.73134300711E-01	-4.95109941795E+01	5.26764243108E-05	1.65545383182E+02	2.08584279103E-05	1.33482397132E+02	2.72972240272E-01	-5.87266129305E+01
7.61482965932E+10	1.68989454550E-01	-4.90848020606E+01	4.40562210323E-05	1.27890300592E+02	3.58955086882E-05	-7.77624197818E+01	2.76077553150E-01	-5.90569907608E+01
7.61543086172E+10	1.73744755728E-01	-5.05047509318E+01	4.86681501256E-05	6.15539762068E+01	1.89424982776E-05	1.55476077459E+02	2.73622854722E-01	-5.85809967410E+01
7.61603206413E+10	1.69863373647E-01	-4.72023519528E+01	9.52675264940E-06	-1.01762395660E+01	4.79390496919E-05	-3.48158343415E+01	2.78521085324E-01	-6.04407036901E+01
7.61663326653E+10	1.70163637313E-01	-4.96277415243E+01	6.16409337975E-05	9.62456844427E+01	1.84779718690E-05	1.14310769642E+02	2.73452893399E-01	-5.97755446500E+01
7.61723446894E+10	1.72792183163E-01	-5.03661357127E+01	4.29526769270E-05	7.32344808729E+01	3.64603669449E-05	-6.89888768027E+01	2.73491235972E-01	-6.00563511206E+01
7.61783567134E+10	1.71637264313E-01	-4.86435102087E+01	6.05708496900E-05	3.77687942000E+01	1.90308951012E-05	-8.46147224814E+01	2.73716704455E-01	-6.01484681233E+01
7.61843687375E+10	1.70364784575E-01	-5.08691303468E+01	4.37918443111E-05	-1.73183600051E+02	2.94394488023E-05	2.55219207507E+01	2.72935689189E-01	-6.08259013519E+01
7.61903807615E+10	1.70313107571E-01	-4.96345303583E+01	3.22101384703E-05	-4.72178901146E+01	2.72253851718E-05	7.50835065142E+01	2.72928135991E-01	-6.10064348424E+01
7.61963927856E+10	1.71128981631E-01	-4.92503963655E+01	2.57776399292E-05	2.18033764435E+01	2.89721667146E-05	-1.66284383989E+02	2.71668351237E-01	-6.06046995943E+01
7.62024048096E+10	1.68067334940E-01	-5.07199771480E+01	5.12635623181E-05	-9.75499423269E+01	8.02199752727E-05	-5.93752778075E+01	2.70652468612E-01	-6.01816268812E+01
7.62084168337E+10	1.68868007033E-01	-5.13493270245E+01	6.05507476973E-05	1.02386940545E+02	5.60183230430E-05	-1.74293235756E+02	2.73109135573E-01	-6.17544974608E+01
7.62144288577E+10	1.68502078569E-01	-4.88700443392E+01	6.33519444740E-05	7.69545627327E+01	8.08509385679E-05	1.40733398744E+02	2.75520445850E-01	-6.24946555287E+01
7.62204408818E+10	1.70078393177E-01	-5.15452496470E+01	5.09575162914E-05	-1.73062401172E+01	3.24945750033E-05	3.06362260170E+01	2.72767694192E-01	-6.22353842522E+01
7.62264529058E+10	1.70119919129E-01	-5.30500631795E+01	1.00156587537E-04	7.08966899655E+01	2.94684856551E-05	6.34819993300E+01	2.69415670354E-01	-6.17594576902E+01
7.62324649299E+10	1.67558517529E-01	-4.94387825749E+01	1.27361695299E-04	1.23616280412E+01	3.71326118783E-05	1.34677548269E+02	2.69130423417E-01	-6.15717693037E+01
7.62384769539E+10	1.67377713199E-01	-5.01727844256E+01	6.16935312242E-05	-2.67409722638E+01	7.34126249203E-05	-3.85286211960E+00	2.70288270978E-01	-6.29511936654E+01
7.62444889780E+10	1.67012760794E-01	-5.03921777647E+01	2.94700191088E-05	-3.04080922283E+01	7.07298113932E-05	-8.39978704353E+01	2.72547039476E-01	-6.38560991202E+01
7.62505010020E+10	1.69156186386E-01	-5.08289996404E+01	6.38075867468E-05	5.85850508398E+00	5.04377151153E-05	-7.92480804885E+01	2.73828324524E-01	-6.40365218965E+01
7.62565130261E+10	1.68482227892E-01	-5.01711819354E+01	5.33703246607E-05	-1.47432377071E+02	3.23548550471E-05	4.47505859346E+00	2.70373471473E-01	-6.36714478798E+01
7.62625250501E+10	1.69114733365E-01	-5.34569299754E+01	5.50030588665E-06	-1.52896194627E+02	4.71952593519E-05	-1.56344385218E+02	2.73193257047E-01	-6.38260084361E+01
7.62685370741E+10	1.68369178776E-01	-5.31410287352E+01	1.09388710778E-04	9.98678097220E+01	1.15645334986E-04	1.02583543491E+02	2.67309576799E-01	-6.30205972307E+01
7.62745490982E+10	1.67623566568E-01	-5.34882770050E+01	7.15528871145E-05	7.05942030837E+01	4.31291134021E-05	5.16891579586E+01	2.72820153604E-01	-6.43830710978E+01
7.62805611222E+10	1.69102670228E-01	-5.13129997910E+01	2.61363549939E-05	3.56796314379E+01	1.21891266591E-04	-1.39768933808E+01	2.70713079486E-01	-6.50828421892E+01
7.62865731463E+10	1.68712318184E-01	-5.15803755531E+01	8.73670617346E-05	1.91082529889E+01	3.52526656029E-05	-8.58363342297E+01	2.66859328353E-01	-6.41182526753E+01
7.62925851703E+10	1.66583041063E-01	-5.17113466153E+01	7.09304242593E-05	-4.48049904986E+01	8.08836441213E-05	-1.06072557517E+02	2.65177918016E-01	-6.36213144185E+01
7.62985971944E+10	1.68750385685E-01	-5.39105427339E+01	6.08704993550E-05	-3.71368546229E+01	2.32287461128E-05	-1.17478781426E+02	2.67530781006E-01	-6.45658620735E+01
7.63046092184E+10	1.67475877822E-01	-5.54955191504E+01	9.57207369139E-05	-4.37513786471E+01	9.66154278079E-05	-4.61138946378E+01	2.70861359522E-01	-6.57695416991E+01
7.63106212425E+10	1.67586775324E-01	-5.47372795895E+01	4.38629011092E-05	-7.01258977414E+01	3.52595430711E-05	-9.86534930520E+01	2.72205261692E-01	-6.67905242853E+01
7.63166332665E+10	1.65313109445E-01	-5.45189370320E+01	6.51520832847E-05	7.12019775455E+01	4.01628870044E-05	-4.85446383010E+01	2.67576689359E-01	-6.59279292998E+01
7.63226452906E+10	1.69002273152E-01	-5.39131011351E+01	1.03780629019E-04	-5.69087075971E+01	1.05980317731E-04	-6.58602247522E+01	2.64693287639E-01	-6.53296530871E+01
7.63286573146E+10	1.64784991014E-01	-5.19267768996E+01	6.96775023774E-05	-1.78335528736E+02	5.83209465570E-05	-1.36953890256E+02	2.65014184038E-01	-6.54813144548E+01
7.63346693387E+10	1.65022978013E-01	-5.39736028717E+01	8.76145237455E-06	1.05723296125E+02	6.15256645996E-05	-1.37304567325E+02	2.71767488456E-01	-6.74974668150E+01
7.63406813627E+10	1.65930255273E-01	-5.46308959210E+01	5.39031538630E-05	-1.58944238107E+02	1.13448065551E-04	-1.36188461248E+02	2.64944124139E-01	-6.65887072954E+01
7.63466933868E+10	1.69478159103E-01	-5.56147820609E+01	4.19885066199E-05	-1.35567639113E+02	1.38171330465E-05	-6.00053118120E+01	2.63637913340E-01	-6.61428789988E+01
7.63527054108E+10	1.65749458802E-01	-5.48687447856E+01	5.12506038793E-05	-9.25813069881E+01	6.64352188115E-05	-1.43917918189E+02	2.69604517255E-01	-6.79504030603E+01
7.63587174349E+10	1.64347139412E-01	-5.34205603905E+01	4.13647041228E-05	2.55155963756E+01	3.63751076724E-05	-7.42956790456E+01	2.67174164723E-01	-6.68945794695E+01
7.63647294589E+10	1.66390847867E-01	-5.36584347401E+01	8.38617511767E-05	-8.01209781213E+01	4.02700711558E-05	1.53647182288E+02	2.64431034783E-01	-6.68216066187E+01
7.63707414830E+10	1.66238544262E-01	-5.41281503702E+01	4.46661803445E-05	-2.61080534884E+01	1.43925385375E-04	-9.75371623122E+01	2.65129090742E-01	-6.81790158805E+01
7.63767535070E+10	1.66038210705E-01	-5.46399175426E+01	4.33567199389E-05	1.29190530235E+02	7.03636955009E-05	1.59084651988E+02	2.68673149413E-01	-6.89592367351E+01
7.63827655311E+10	1.66080840465E-01	-5.63379086958E+01	2.65587606411E-05	8.59499035344E+01	1.01825610400E-04	-1.57554872819E+02	2.66012516120E-01	-6.85332864966E+01
7.63887775551E+10	1.66414211974E-01	-5.58285596726E+01	6.07400940346E-05	-1.33779757283E+02	4.33014391566E-05	-1.42480191220E+02	2.64001256898E-01	-6.78877066307E+01
7.63947895792E+10	1.65630743930E-01	-5.60894814615E+01	4.37125635552E-05	-1.58120723824E+02	3.22677962233E-05	-8.24212856757E+01	2.62648748452E-01	-6.76971873532E+01
7.64008016032E+10	1.61973793651E-01	-5.46265752268E+01	2.58910426718E-05	4.45451371832E+01	6.75655391597E-05	-1.50524729722E+02	2.63484572564E-01	-6.90071181710E+01
7.64068136273E+10	1.66744573277E-01	-5.52773954691E+01	2.33896025959E-05	6.45861328682E+01	6.90560436378E-05	1.71431229412E+02	2.63408591844E-01	-6.96923373750E+01
7.64128256513E+10	1.66468556231E-01	-5.75030474135E+01	8.88375082306E-05	1.69002881454E+02	1.14496234956E-04	1.61608109666E+02	2.64849168503E-01	-7.01346513859E+01
7.64188376754E+10	1.64825353222E-01	-5.67481817468E+01	1.15644512070E-04	-1.73779186048E+02	6.06969314367E-05	1.15438490776E+02	2.62705034012E-01	-6.88601096854E+01
7.64248496994E+10	1.64231554247E-01	-5.66822109618E+01	1.10752523052E-04	1.71907500181E+02	1.35709260468E-04	1.30518797907E+02	2.63499882645E-01	-7.03667265573E+01
7.64308617234E+10	1.65874561485E-01	-5.72143494275E+01	3.14765342116E-05	-9.69660661933E+01	1.13371269386E-04	1.76069807841E+02	2.60390935125E-01	-6.92707416187E+01
7.64368737475E+10	1.65647877571E-01	-5.76481073275E+01	1.07279402569E-04	1.64702870472E+02	2.07821023761E-05	7.54978378803E+01	2.65257767301E-01	-7.04776397271E+01
7.64428857715E+10	1.65694147126E-01	-5.74689551135E+01	8.87540291911E-05	1.31744050907E+02	4.86577785661E-05	9.59208008934E+01	2.64171589025E-01	-7.04611625699E+01
7.64488977956E+10	1.64677949715E-01	-5.79952206004E+01	1.35613186060E-04	1.66077904195E+02	6.26941662641E-05	9.43911247076E+01	2.63731498467E-01	-7.07731220169E+01
7.64549098196E+10	1.62597554072E-01	-5.69623134451E+01	2.12882693408E-05	1.37166752283E+02	3.91886901127E-05	1.58629785644E+02	2.63764347636E-01	-7.08204465176E+01
7.64609218437E+10	1.62356265252E-01	-5.66788592181E+01	7.95569752896E-05	1.44712562813E+02	2.98906481453E-05	-5.30890468653E+01	2.60771023864E-01	-7.04155463985E+01
7.64669338677E+10	1.62987738722E-01	-5.70399451326E+01	5.95636362991E-05	-3.58484708559E+01	1.08956033311E-04	5.98049624242E+01	2.62737364582E-01	-7.19082414957E+01
7.64729458918E+10	1.64489522473E-01	-5.72996484724E+01	3.95994433668E-05	1.10580815201E+02	3.57771243012E-05	1.53132703366E+02	2.65207082464E-01	-7.23581295257E+01
7.64789579158E+10	1.65301476171E-01	-5.73829990395E+01	3.84578638839E-05	7.20982313500E+01	3.42725833543E-05	-1.30180145605E+02	2.63651856349E-01	-7.21056540725E+01
7.64849699399E+10	1.65826889399E-01	-5.88166581323E+01	3.05383534196E-05	8.49079895142E+01	6.52995047369E-05	2.78540448698E+01	2.62361053692E-01	-7.18512990522E+01
7.64909819639E+10	1.63254281123E-01	-5.79322761961E+01	5.47476025487E-05	1.39589340568E+02	3.72280645611E-05	5.41361509832E+01	2.64498620991E-01	-7.30457434875E+01
7.64969939880E+10	1.63310527709E-01	-5.88025788356E+01	1.77818407997E-05	4.47442919728E+01	3.98642758825E-05	1.18467376901E+02	2.60285778102E-01	-7.23599392305E+01
7.65030060120E+10	1.62726434157E-01	-5.94445705492E+01	3.16087141096E-05	8.87571695153E+01	1.39500264512E-05	7.86797998807E+01	2.61241321230E-01	-7.27516033201E+01
7.65090180361E+10	1.64229047733E-01	-5.90675483442E+01	7.86105521709E-05	9.43772686855E+01	5.07958497506E-05	9.07956756027E+01	2.60779954521E-01	-7.29420753937E+01
7.65150300601E+10	1.62583990137E-01	-5.79992903982E+01	8.76313914563E-05	4.64636250542E+01	9.61655731011E-05	1.79908246607E+01	2.62966529972E-01	-7.41934404472E+01
7.65210420842E+10	1.62948857481E-01	-6.12043527005E+01	3.76330472330E-05	-4.42495347769E+00	2.76410029606E-05	-2.84097478810E+01	2.61247829293E-01	-7.32762309959E+01
7.65270541082E+10	1.59571871279E-01	-5.75238453489E+01	8.04117541741E-05	4.58041783966E+00	6.63324868534E-05	3.37945750998E+00	2.60943311065E-01	-7.34650811278E+01
7.65330661323E+10	1.63157267803E-01	-5.99252114095E+01	7.10102730869E-05	7.28678405893E+01	1.12559946753E-04	8.54946397850E+00	2.62258008665E-01	-7.42894586425E+01
7.65390781563E+10	1.63563345290E-01	-6.06471013324E+01	1.18791303413E-04	-1.08699924849E+01	7.36239047149E-05	2.53986379742E+01	2.61735579121E-01	-7.49087502515E+01
7.65450901804E+10	1.65560075985E-01	-6.11764155232E+01	8.85687926628E-05	1.86313072430E+01	3.63628564484E-05	-2.29640941817E+01	2.59756360601E-01	-7.43441183433E+01
7.65511022044E+10	1.61141970170E-01	-5.86090859706E+01	3.28472235129E-05	7.11074417572E+01	9.36006569749E-05	-1.27384499864E+00	2.57539093228E-01	-7.41431224201E+01
7.65571142285E+10	1.60332944725E-01	-5.84834582292E+01	9.95126896720E-05	-5.53178492949E+01	8.20952212289E-05	-1.55405827974E+02	2.59894150943E-01	-7.45312259881E+01
7.65631262525E+10	1.62479318691E-01	-6.04247773635E+01	4.20154758629E-05	7.83012586650E+01	7.21250086724E-05	-1.34606642531E+02	2.63357056093E-01	-7.60636752552E+01
7.65691382766E+10	1.62336179430E-01	-6.11016977448E+01	4.69970219054E-05	1.33067135343E+02	2.33681596480E-05	-8.37528437418E+01	2.59882197431E-01	-7.62285933914E+01
7.65751503006E+10	1.63029947770E-01	-6.22880910980E+01	1.12430051663E-04	2.96217661267E+01	5.77775560491E-05	5.65592643364E+01	2.58288420223E-01	-7.49462605915E+01
7.65811623246E+10	1.62456249038E-01	-6.20992216810E+01	7.97182915336E-05	-2.32433616060E+01	2.18523732668E-05	1.45138958473E+02	2.57527813180E-01	-7.46515163413E+01
7.65871743487E+10	1.61713783348E-01	-6.16700816882E+01	5.46546635191E-05	-3.58088338010E+01	6.35534274696E-05	-6.11429949493E+01	2.61204904151E-01	-7.69356408850E+01
7.65931863727E+10	1.61393152134E-01	-6.10453768979E+01	7.98042128322E-05	-9.09904020216E+01	3.57480274133E-05	-3.33790555763E+01	2.60932725588E-01	-7.71530628287E+01
7.65991983968E+10	1.62418500399E-01	-6.24821916117E+01	2.95953404718E-05	8.92384865125E+00	2.13628508599E-05	8.05296893950E+01	2.60831009016E-01	-7.69369383519E+01
7.66052104208E+10	1.60909124070E-01	-6.18511430974E+01	6.40950936355E-05	-5.36478385355E+01	9.56950981894E-05	-7.36546465149E+01	2.57069741519E-01	-7.65162751061E+01
7.66112224449E+10	1.58552446863E-01	-6.12943391495E+01	1.34063419525E-05	-1.08442406581E+02	1.23678134296E-05	-5.15815307477E+01	2.60181033985E-01	-7.75614694661E+01
7.66172344689E+10	1.59365305341E-01	-6.04859378251E+01	5.70919059577E-05	-1.61685832677E+02	8.08146902434E-05	-9.32885731446E+01	2.59708550054E-01	-7.75079690267E+01
7.66232464930E+10	1.60573728256E-01	-6.17813716362E+01	1.07360904328E-04	-6.71491163545E+01	4.24770983958E-05	-8.87163487198E+01	2.61513265096E-01	-7.86101419833E+01
7.66292585170E+10	1.61621688047E-01	-6.23535598147E+01	6.87270930493E-05	-1.08487849892E+02	5.35423703141E-05	1.73125759503E+02	2.56997573848E-01	-7.76357520164E+01
7.66352705411E+10	1.59094625125E-01	-6.05764450697E+01	1.03640284641E-04	-1.66707425684E+02	3.74681736851E-05	1.41641023261E+02	2.55342814770E-01	-7.72827361740E+01
7.66412825651E+10	1.61752505434E-01	-6.36826417081E+01	6.02918798518E-05	1.48344791811E+02	4.79906660151E-05	8.29194628056E+01	2.56917342794E-01	-7.83729295391E+01
7.66472945892E+10	1.61815214995E-01	-6.39547974934E+01	1.38779608817E-05	-8.22984420031E+01	1.94100715951E-05	1.20243943475E+02	2.56559456294E-01	-7.76490090509E+01
7.66533066132E+10	1.60932708915E-01	-6.27575153328E+01	2.94718533729E-05	1.34807472173E+02	4.70860255736E-05	-5.78769786334E+01	2.58360931235E-01	-7.84543598479E+01
7.66593186373E+10	1.57426889215E-01	-6.16601104621E+01	9.02405984930E-06	1.32970826333E+02	5.19239288447E-06	1.31790063906E+02	2.58531430906E-01	-7.99729794202E+01
7.66653306613E+10	1.62094710824E-01	-6.43894325542E+01	7.68855009370E-05	-1.18504315115E+02	7.21923255986E-05	-1.05685270370E+02	2.59124560328E-01	-7.98365174309E+01
7.66713426854E+10	1.61738338526E-01	-6.42569906914E+01	5.90981130509E-05	4.66826950287E+01	2.81284945248E-05	-3.27392960770E+01	2.57077306819E-01	-7.92623948505E+01
7.66773547094E+10	1.59503640571E-01	-6.20028380915E+01	5.88866636442E-05	1.65250392010E+02	3.38743551512E-06	8.06604252443E+01	2.54778222588E-01	-7.96880383842E+01
7.66833667335E+10	1.59580702007E-01	-6.31787361489E+01	8.64858455530E-06	1.15802523490E+01	4.05833856515E-05	1.35135037130E+02	2.60014652894E-01	-8.06060100110E+01
7.66893787575E+10	1.60110608472E-01	-6.53088443703E+01	2.67928772026E-05	1.03179534386E+02	2.51110418688E-05	-1.74094220417E+02	2.58711121286E-01	-8.09633358151E+01
7.66953907816E+10	1.61469794554E-01	-6.53315590924E+01	4.60037672473E-05	1.24791097215E+02	3.60894072369E-05	-1.46032491612E+02	2.59279583071E-01	-8.13630195767E+01
7.67014028056E+10	1.59219165558E-01	-6.25579847346E+01	2.75535057186E-05	7.42292548166E+01	2.44523728999E-05	7.42262821909E+01	2.58184742568E-01	-8.14777503644E+01
7.67074148297E+10	1.60342084700E-01	-6.44048216194E+01	1.26158911941E-04	9.59285443112E+01	3.02109129883E-05	1.39903552319E+02	2.56819267038E-01	-8.11031715600E+01
7.67134268537E+10	1.59042189611E-01	-6.46060276876E+01	5.69949385144E-05	1.05504876410E+02	7.15257119285E-05	8.71893786960E+01	2.55474818948E-01	-8.11565269662E+01
7.67194388778E+10	1.59782927333E-01	-6.44055692912E+01	5.94907687666E-05	7.19913955420E+01	6.98245814297E-05	3.44142859446E+01	2.56182027689E-01	-8.15900716683E+01
7.67254509018E+10	1.61184135121E-01	-6.58804516380E+01	7.72692177748E-06	5.23591799724E+01	6.08342792580E-05	-1.23873875716E+02	2.56727637103E-01	-8.11811655856E+01
7.67314629259E+10	1.59757127173E-01	-6.58867272417E+01	6.44356383571E-05	3.61664756036E+01	8.34256481915E-05	-2.00383629268E+01	2.60048216628E-01	-8.29109592031E+01
7.67374749499E+10	1.61395269410E-01	-6.58057626870E+01	3.12389391853E-05	-1.59518191467E+02	3.89228786374E-05	-1.06159633701E+02	2.56730261466E-01	-8.30272297402E+01
7.67434869739E+10	1.62603970409E-01	-6.66308410539E+01	6.47508993922E-05	-8.13393290705E+01	6.71815957692E-05	-1.18977837297E+02	2.53227806739E-01	-8.15731931812E+01
7.67494989980E+10	1.60041064267E-01	-6.61329473798E+01	9.40721611695E-05	8.11347094821E+01	2.44583214818E-05	3.42892879339E+01	2.55199762543E-01	-8.32202893967E+01
7.67555110220E+10	1.57031336237E-01	-6.59254458856E+01	7.97978406742E-05	1.60415654858E+02	6.26744502332E-06	5.40949281289E+01	2.56482240942E-01	-8.33639883719E+01
7.67615230461E+10	1.56581071575E-01	-6.50247005083E+01	9.37900521464E-05	1.85955955580E+01	8.04269196442E-05	3.05715250847E+01	2.57288447509E-01	-8.43786345056E+01
7.67675350701E+10	1.58870777829E-01	-6.69790811731E+01	5.37235161989E-05	-6.60808485222E+01	6.11536677464E-05	-4.55392403697E+01	2.56315985790E-01	-8.50755383620E+01
7.67735470942E+10	1.59595976771E-01	-6.68929610002E+01	4.76375971575E-05	-3.18758236595E+01	3.46636578906E-05	7.65382184379E+00	2.53221922736E-01	-8.31318213388E+01
7.67795591182E+10	1.61095896313E-01	-6.77157771088E+01	5.05493035589E-05	-4.83300752292E+01	3.96293383599E-05	8.33547713231E+01	2.53484515013E-01	-8.35115679295E+01
7.67855711423E+10	1.60921530796E-01	-6.78097195898E+01	6.64664260032E-05	-1.77930257246E+02	2.18317845465E-05	-8.51735786271E+01	2.53456925415E-01	-8.42935400859E+01
7.67915831663E+10	1.56136138377E-01	-6.68797780435E+01	6.23083038002E-05	4.30214545550E+01	2.39840264551E-05	-8.20720723182E+01	2.57986563824E-01	-8.62250475574E+01
7.67975951904E+10	1.57435725277E-01	-6.65738144646E+01	1.82260561254E-05	9.01635217747E+00	2.35725533617E-05	-9.42683300187E-01	2.53450769998E-01	-8.43830659031E+01
7.68036072144E+10	1.55814230809E-01	-6.77346246937E+01	4.54625870561E-05	1.70038579448E+02	5.77464522515E-05	-1.36185408481E+02	2.56840434050E-01	-8.61212241790E+01
7.68096192385E+10	1.57124819748E-01	-6.73004230679E+01	6.50065611538E-05	1.39814094948E+02	2.46222521642E-05	1.27999137155E+02	2.56973079095E-01	-8.64226208669E+01
7.68156312625E+10	1.56707365606E-01	-6.71842350923E+01	8.23482721526E-05	-1.82323795492E+01	2.71872107802E-05	-1.42326895493E+02	2.53888293391E-01	-8.60241221495E+01
7.68216432866E+10	1.55187789297E-01	-6.68251449168E+01	5.38480871858E-05	-1.06843097915E+01	2.73385492541E-05	4.01706072489E-01	2.51237462533E-01	-8.58079236173E+01
7.68276553106E+10	1.55104381208E-01	-6.77602526651E+01	4.46826218713E-05	-1.97783940575E+00	3.26088770993E-05	9.88723895561E+01	2.51830596244E-01	-8.53994482832E+01
7.68336673347E+10	1.56918441648E-01	-6.87895847451E+01	8.15604363115E-05	-9.45155183432E+01	3.94979469025E-05	1.75157245513E+02	2.54474712853E-01	-8.68309964090E+01
7.68396793587E+10	1.57663701967E-01	-6.82650708295E+01	1.70559535011E-05	-1.18757887697E+02	9.01591324490E-05	-1.16205021970E+02	2.51317659842E-01	-8.62971003397E+01
7.68456913828E+10	1.55780040549E-01	-6.73471322701E+01	1.68590744668E-05	-1.07931205772E+02	2.32630370456E-05	-1.13022213970E+02	2.54390233525E-01	-8.74389763673E+01
7.68517034068E+10	1.56570294244E-01	-6.83952612398E+01	8.63219180079E-05	-1.40030777647E+02	7.20942733916E-05	1.24621054562E+02	2.52146676802E-01	-8.72567501119E+01
7.68577154309E+10	1.54328226427E-01	-6.95400252637E+01	7.44715684859E-05	-1.70750689119E+02	3.60600296892E-05	-8.04294016903E+01	2.54676316264E-01	-8.81458123187E+01
7.68637274549E+10	1.58287772657E-01	-7.03359211922E+01	1.54621267562E-05	-3.15291829089E+01	9.20086031571E-05	6.67341531551E+01	2.54601781471E-01	-8.83552280843E+01
7.68697394790E+10	1.53449248839E-01	-6.75755195915E+01	7.77775536649E-05	-5.33474742277E+01	4.46382352420E-05	4.94279772685E+01	2.53073348764E-01	-8.76204599770E+01
7.68757515030E+10	1.56612140075E-01	-6.96734384000E+01	3.04833952408E-05	-1.53902959100E+02	2.96295780150E-05	2.48633490528E+01	2.52701761118E-01	-8.90895078148E+01
7.68817635271E+10	1.58600667773E-01	-7.04448534047E+01	3.52394735824E-05	-1.59511796879E+01	2.66482275578E-05	-5.27337277317E-01	2.49085537855E-01	-8.81808884625E+01
7.68877755511E+10	1.54646359735E-01	-6.89851871043E+01	4.01697974089E-05	-1.47295708170E+02	4.91674379149E-05	-1.37474203409E+02	2.49995600055E-01	-8.84318564652E+01
7.68937875752E+10	1.56895564690E-01	-6.98727131447E+01	1.96760574118E-05	1.48765766582E+02	1.38391717524E-05	1.42586048929E+02	2.50793766813E-01	-8.86367138690E+01
7.68997995992E+10	1.54179659303E-01	-6.96507099169E+01	8.83766641711E-06	-9.52657662199E+01	4.39105620334E-05	6.65218200503E+01	2.53308992872E-01	-9.05714933074E+01
7.69058116232E+10	1.58040110269E-01	-7.20829078003E+01	3.48778126423E-05	-9.88133761509E+01	6.39133569674E-05	-1.56343471057E+02	2.53495716554E-01	-9.12040916873E+01
7.69118236473E+10	1.53063655159E-01	-6.99182925985E+01	4.64865725043E-05	-6.54414273598E+01	6.17390875799E-05	8.67699647527E+00	2.52074598465E-01	-9.04760756446E+01
7.69178356713E+10	1.57166158144E-01	-7.18276214812E+01	4.12147815112E-05	-1.55856876473E+02	5.83880335473E-05	-3.79624697723E+01	2.50047326654E-01	-9.01953254584E+01
7.69238476954E+10	1.56752243893E-01	-7.19605923809E+01	5.84095514437E-05	-1.73905971542E+02	4.49582539514E-05	-1.48224686089E+02	2.51386053917E-01	-9.04782949548E+01
7.69298597194E+10	1.59910811407E-01	-7.34264820102E+01	1.49082044411E-05	4.04062972263E+00	7.88751661726E-06	1.05031423833E+02	2.51210499271E-01	-9.10731959581E+01
7.69358717435E+10	1.54748972885E-01	-7.23721975477E+01	7.60656944067E-05	1.34357337115E+02	5.80694065375E-05	-1.26265147182E+02	2.53015513336E-01	-9.19316413528E+01
7.69418837675E+10	1.54062339968E-01	-7.19791716444E+01	3.81618492306E-05	-1.70654068474E+02	7.16849106219E-05	-9.25680432859E+01	2.50318526443E-01	-9.18744161283E+01
7.69478957916E+10	1.56547391643E-01	-7.20864892577E+01	5.08994542315E-05	4.61355486767E+01	4.95095118496E-05	-1.29593250581E+02	2.48429682368E-01	-9.16048708216E+01
7.69539078156E+10	1.53877729255E-01	-7.07202084128E+01	9.40838175356E-05	6.97034281792E+01	5.75976154262E-05	-1.51902537153E+02	2.49869489750E-01	-9.10883173978E+01
7.69599198397E+10	1.54776914177E-01	-7.28578105516E+01	2.68781073994E-05	-1.12851275235E+02	8.11161425900E-05	-7.05399645195E+01	2.51219004479E-01	-9.20301595197E+01
7.69659318637E+10	1.57409244653E-01	-7.43503610686E+01	8.69490129982E-05	1.45099298837E+02	5.82692648692E-05	7.48085393384E+01	2.49975399789E-01	-9.37336178464E+01
7.69719438878E+10	1.54881881061E-01	-7.38960938371E+01	4.52265206327E-05	7.12342601152E+01	2.84623936147E-05	-6.98178529700E+01	2.49739048798E-01	-9.33113192669E+01
7.69779559118E+10	1.54155672429E-01	-7.32678964116E+01	7.76270564137E-05	6.84169648724E+01	4.03301592278E-05	7.66521467591E+01	2.46889895615E-01	-9.31388469792E+01
7.69839679359E+10	1.52634328271E-01	-7.25673368160E+01	4.09948052770E-06	1.16289643875E+02	4.62889007508E-05	-1.61321501517E+00	2.45367301800E-01	-9.24296247527E+01
7.69899799599E+10	1.52074919823E-01	-7.18889389958E+01	1.63093624245E-05	-1.54653614874E+02	5.73712879659E-05	1.23444684981E+01	2.46420729951E-01	-9.32860818527E+01
7.69959919840E+10	1.53229772429E-01	-7.37273083393E+01	6.76312224389E-05	1.79129412656E+02	2.43278342610E-05	-4.38806207471E+01	2.48866080112E-01	-9.43162559578E+01
7.70020040080E+10	1.52260316917E-01	-7.30086748493E+01	4.02438438073E-05	-4.29443190873E+01	2.41549766617E-05	-1.28751828682E+02	2.51159197353E-01	-9.53683652823E+01
7.70080160321E+10	1.55596684037E-01	-7.58332046859E+01	8.07748184988E-05	7.62838469488E+01	9.88979022421E-05	1.73890140780E+02	2.46887914064E-01	-9.34121753023E+01
7.70140280561E+10	1.53782916350E-01	-7.32662651731E+01	7.10246560773E-05	1.29370663676E+02	3.71889142175E-05	1.15141037923E+02	2.45592009139E-01	-9.35959024787E+01
7.70200400802E+10	1.54554533273E-01	-7.52255628988E+01	4.97051778502E-05	1.19927280185E+02	3.21207651875E-05	-3.98851466236E+01	2.46999677219E-01	-9.46840548393E+01
7.70260521042E+10	1.52749110907E-01	-7.59259052287E+01	4.51226633245E-05	1.83896316196E+01	6.04463589884E-05	1.22229784494E+02	2.45530017267E-01	-9.52892221058E+01
7.70320641283E+10	1.53022127595E-01	-7.59382851121E+01	2.29422388989E-05	-1.13254643567E+02	4.79771950715E-05	9.24842090571E+01	2.43217160031E-01	-9.42738289325E+01
7.70380761523E+10	1.55014181809E-01	-7.64841640508E+01	4.75373765601E-05	-6.74413245108E+01	3.91971070492E-05	9.24437319737E+01	2.48524774626E-01	-9.56982455622E+01
7.70440881764E+10	1.51908332809E-01	-7.59082950442E+01	5.45963170513E-05	6.85339875850E+01	6.75620953650E-05	9.23757896357E+01	2.48542659603E-01	-9.66579359861E+01
7.70501002004E+10	1.52088320367E-01	-7.54345667971E+01	2.02876579556E-05	1.56819123047E+02	1.14712676648E-04	4.76473893193E+01	2.45543837189E-01	-9.61893627427E+01
7.70561122244E+10	1.53377203098E-01	-7.53290019557E+01	3.67599136771E-05	1.32494489752E+02	1.27664737615E-04	6.58575087074E+01	2.42468756978E-01	-9.47808098485E+01
7.70621242485E+10	1.52739146553E-01	-7.57905771902E+01	1.00660416137E-04	-5.52488647489E+00	5.74671375721E-05	3.54901848642E+01	2.43352529978E-01	-9.61959828879E+01
7.70681362725E+10	1.51526263281E-01	-7.64904890953E+01	4.27988651363E-05	-5.47885908410E+01	4.80985905029E-05	-1.78510375919E+01	2.48657385650E-01	-9.81543200461E+01
7.70741482966E+10	1.51520067626E-01	-7.64897652716E+01	7.59631004130E-05	-1.44058742869E+02	5.31126950285E-05	-4.31165052665E+01	2.46923276589E-01	-9.69996436475E+01
7.70801603206E+10	1.49582983246E-01	-7.42058838815E+01	5.36697964273E-05	9.38210011232E+01	1.82606746572E-05	1.35359328250E+02	2.44843728949E-01	-9.63834889153E+01
7.70861723447E+10	1.49485220430E-01	-7.62980699791E+01	1.10622068684E-04	9.44557761200E+01	1.70114725738E-05	1.59181738798E+02	2.46049869389E-01	-9.75253456513E+01
7.70921843687E+10	1.50098850984E-01	-7.70918293616E+01	5.53007341332E-05	8.46206232598E+01	1.73967565074E-05	1.40102766806E+02	2.45939579191E-01	-9.86034064809E+01
7.70981963928E+10	1.53550132486E-01	-7.78778739919E+01	4.66097577618E-05	1.29712331946E+02	2.39879273128E-05	8.39641369495E+01	2.47437318860E-01	-9.94167360647E+01
7.71042084168E+10	1.53457119764E-01	-7.82122098435E+01	9.93407131311E-05	2.38186087786E+01	8.86443650374E-05	1.37399531822E+01	2.46183614929E-01	-9.91694845970E+01
7.71102204409E+10	1.52343806841E-01	-7.69492041088E+01	7.32855654303E-05	-4.19432149230E+01	4.13282377713E-05	-3.72866310116E+00	2.42207011227E-01	-9.72504541028E+01
7.71162324649E+10	1.50380387693E-01	-7.71191745848E+01	3.16002236103E-05	-1.89344452481E+01	7.59164886063E-05	-2.78456787624E+01	2.44008656852E-01	-9.92304381448E+01
7.71222444890E+10	1.48402047082E-01	-7.83624240156E+01	1.19299608443E-04	-7.80470251428E+01	4.23634276434E-05	2.77875128286E+01	2.47410799065E-01	-1.00736590583E+02
7.71282565130E+10	1.49374390932E-01	-7.80003623875E+01	6.65674206741E-05	-8.16650772514E+01	6.57820215535E-05	-8.10501848878E+00	2.44941937689E-01	-1.00677070050E+02
7.71342685371E+10	1.49518918055E-01	-7.82399471023E+01	9.84560886097E-05	-8.29360733439E+00	8.25775579079E-06	-2.93860212644E+01	2.44639984580E-01	-1.01174303111E+02
7.71402805611E+10	1.53636049122E-01	-8.01163894006E+01	4.23970678264E-05	-1.34528844624E+01	3.97508547557E-05	-9.16272162038E+01	2.42641946147E-01	-9.93254407947E+01
7.71462925852E+10	1.48263354176E-01	-7.97084787748E+01	9.51478706115E-05	3.46404970300E+01	7.83041594713E-05	-8.98423753481E+01	2.46258093692E-01	-1.01465446438E+02
7.71523046092E+10	1.48553110000E-01	-7.88428342718E+01	5.26764007763E-05	6.60107503609E+00	1.01099571929E-04	-6.53515121722E+01	2.43663953889E-01	-1.01941174712E+02
7.71583166333E+10	1.50902510838E-01	-7.89520477882E+01	7.93584010831E-05	-1.21975558168E+02	7.76578338043E-05	-7.70180863241E+01	2.45445478504E-01	-1.02232029057E+02
7.71643286573E+10	1.48962799536E-01	-7.88155706611E+01	1.78646023451E-05	1.73809716634E+02	4.02819088379E-05	1.24011828601E+02	2.43284343446E-01	-1.00672978656E+02
7.71703406814E+10	1.47398450199E-01	-7.92831071752E+01	4.32570124344E-05	8.73084618406E+01	5.07422587360E-05	1.76242469898E+02	2.41014734395E-01	-1.01569319003E+02
7.71763527054E+10	1.46584143640E-01	-7.85347950128E+01	2.92939584071E-05	1.34315383603E+02	3.12850887943E-05	-3.32208238962E+01	2.46038951481E-01	-1.02424246090E+02
7.71823647295E+10	1.47001451632E-01	-7.86312946974E+01	7.20414111699E-05	2.13013851248E+01	5.11568219827E-05	-1.53780104778E+01	2.40924126195E-01	-1.01283859623E+02
7.71883767535E+10	1.47255651988E-01	-7.91135151683E+01	3.77901729043E-05	-6.23612678465E+01	6.95119525216E-05	-1.24836910548E+02	2.39876107110E-01	-1.01725133306E+02
7.71943887776E+10	1.46648215553E-01	-8.06951473061E+01	8.18794545175E-05	-7.66452675778E+01	4.28156743108E-05	-1.65675864581E+02	2.40960503950E-01	-1.02345638100E+02
7.72004008016E+10	1.45935347659E-01	-7.98655491264E+01	1.24912665746E-04	-1.43564179764E+02	4.00021308916E-05	-1.31818874475E+02	2.44235932978E-01	-1.04161011786E+02
7.72064128257E+10	1.46462475763E-01	-7.93974118317E+01	7.89971149106E-05	-1.18858914369E+02	2.80212360694E-05	-7.76488206382E+01	2.41432346512E-01	-1.03558261839E+02
7.72124248497E+10	1.46360192770E-01	-7.97424693974E+01	5.49632546423E-05	4.15894099870E+01	5.13802323955E-05	-1.12578021420E+02	2.39484138768E-01	-1.03991233121E+02
7.72184368737E+10	1.48210838339E-01	-8.21091384996E+01	7.35078330733E-05	-8.38355837557E+01	5.58011905403E-05	-1.47665169433E+01	2.36689021950E-01	-1.02692610288E+02
7.72244488978E+10	1.48260734710E-01	-8.17089894349E+01	3.35248186055E-05	-8.02554617799E+01	7.93651441938E-05	4.96827086492E+00	2.44554901158E-01	-1.05423063877E+02
7.72304609218E+10	1.46021164107E-01	-7.93281767606E+01	6.17052475507E-05	-1.13594402381E+02	7.32254521013E-05	-3.38344829435E+01	2.41225122182E-01	-1.04058544253E+02
7.72364729459E+10	1.47297037250E-01	-8.15347312116E+01	7.27838957335E-05	-1.36399964184E+02	2.26172300127E-05	1.66236119936E+02	2.38918522372E-01	-1.03973490174E+02
7.72424849699E+10	1.47691283601E-01	-8.23258146927E+01	4.63538312412E-05	1.20340404335E+02	3.97798000169E-05	-7.60700814789E+01	2.41196926115E-01	-1.04560785205E+02
7.72484969940E+10	1.47106563590E-01	-8.29639090486E+01	2.11668693247E-05	-1.38555999766E+02	9.82600481696E-05	-1.66083549653E+02	2.39530460116E-01	-1.05061716491E+02
7.72545090180E+10	1.46494718356E-01	-8.28532646412E+01	3.93960358865E-05	-1.77708350761E+02	7.10428608762E-05	-1.55931365729E+02	2.41596291665E-01	-1.06237530521E+02
7.72605210421E+10	1.44770702513E-01	-8.21137225095E+01	3.38741468776E-05	-1.55690490910E+02	5.86435032318E-05	-1.16918542941E+02	2.40138920158E-01	-1.06657941540E+02
7.72665330661E+10	1.46992786662E-01	-8.25477458111E+01	7.39215361733E-05	-9.07449802551E+01	1.11319497202E-04	-1.27046849093E+02	2.41401704393E-01	-1.06252916592E+02
7.72725450902E+10	1.45716783010E-01	-8.19176515400E+01	4.36832434699E-05	-1.59462183485E+02	3.27699989195E-05	1.60354744225E+02	2.38949064960E-01	-1.05880384701E+02
7.72785571142E+10	1.46923647437E-01	-8.20502164220E+01	4.35917905632E-05	1.56921108212E+02	1.23388683034E-04	1.45631124151E+02	2.38305735066E-01	-1.06160383553E+02
7.72845691383E+10	1.44649883001E-01	-8.29073500162E+01	4.33685672156E-05	3.44343561664E+01	4.09907681628E-05	1.09995092390E+02	2.38017813813E-01	-1.07087216978E+02
7.72905811623E+10	1.44000913056E-01	-8.31287456418E+01	3.19643465117E-05	4.93486471481E+01	1.53129607722E-05	-1.04926669520E+02	2.42376395890E-01	-1.08980607392E+02
7.72965931864E+10	1.43748775220E-01	-8.23966986798E+01	2.18974719080E-05	7.81191893069E+01	3.40530737976E-05	2.13711905820E+01	2.40560027234E-01	-1.09174006707E+02
7.73026052104E+10	1.43656899724E-01	-8.18795866024E+01	3.14616497428E-05	-6.14962504856E+01	5.13691710492E-06	-1.50491077943E+02	2.36527659046E-01	-1.07200501827E+02
7.73086172345E+10	1.43697501156E-01	-8.19376737311E+01	7.99898373731E-05	1.38109758459E+02	8.51593846107E-05	1.50280409329E+02	2.34370329551E-01	-1.06712366649E+02
7.73146292585E+10	1.44323287332E-01	-8.22041779598E+01	4.92427747786E-05	1.74889779746E+02	7.44419848116E-05	1.37513819401E+02	2.37188958795E-01	-1.08547283574E+02
7.73206412826E+10	1.45387471879E-01	-8.27186679595E+01	9.15150092327E-05	1.09392077527E+02	6.36744628323E-05	1.68994079777E+02	2.40541861312E-01	-1.10416970625E+02
7.73266533066E+10	1.42431338197E-01	-8.32914764194E+01	3.32000966741E-05	5.44011400117E+01	9.65728431355E-05	9.59384265901E+01	2.37796808409E-01	-1.09117608426E+02
7.73326653307E+10	1.44585538266E-01	-8.44037416179E+01	2.32523876483E-05	1.79103769105E+02	2.96424513659E-05	5.10157045352E+01	2.33304814007E-01	-1.07589534675E+02
7.73386773547E+10	1.45222615298E-01	-8.50743479731E+01	1.88888837336E-05	-9.68137015015E+01	1.42939796204E-05	-6.68126670689E+01	2.35310190547E-01	-1.09973329509E+02
7.73446893788E+10	1.43303597179E-01	-8.54472986053E+01	6.01835791732E-05	1.62716708981E+02	2.75755313022E-05	-1.80532489617E+01	2.34661709154E-01	-1.10097925900E+02
7.73507014028E+10	1.44854479562E-01	-8.62663947555E+01	6.88710219370E-05	1.39443505602E+02	6.05533528866E-05	1.21419155428E+02	2.38771291011E-01	-1.10689098664E+02
7.73567134269E+10	1.41552888670E-01	-8.53485344223E+01	2.75015723975E-05	9.64360647172E+01	1.09451150334E-05	-2.65062776987E+01	2.32802812524E-01	-1.09036717893E+02
7.73627254509E+10	1.40615272111E-01	-8.32166284324E+01	6.77650854074E-05	7.81621431590E+01	2.98150418434E-05	-1.01986624347E+02	2.36136910649E-01	-1.11050317539E+02
7.73687374749E+10	1.44167627490E-01	-8.42347039400E+01	3.74446951490E-05	1.00931679200E+01	4.50658442715E-05	-6.76607634424E+01	2.38249649412E-01	-1.12493190983E+02
7.73747494990E+10	1.43124089536E-01	-8.50138910730E+01	2.47511653955E-05	-3.18255765076E+01	1.20107192087E-05	2.02428842743E+00	2.35823802107E-01	-1.12017194050E+02
7.73807615230E+10	1.40869209944E-01	-8.52256154545E+01	2.80912778929E-05	1.41367496501E+02	1.99503456238E-05	-4.71634524872E-01	2.34261133337E-01	-1.10795218460E+02
7.73867735471E+10	1.41902772203E-01	-8.40887096190E+01	4.71223298149E-05	-1.59429682708E+02	5.35060180709E-05	1.10206628311E+02	2.34693791383E-01	-1.12195415055E+02
7.73927855711E+10	1.42697823873E-01	-8.47954515202E+01	9.13446364202E-05	-2.27025273209E+01	3.16016106293E-05	-5.99042214122E+01	2.33308558528E-01	-1.12867218471E+02
7.73987975952E+10	1.41812194874E-01	-8.58913058640E+01	6.30104308505E-05	4.76433601859E+00	6.85237304529E-05	-6.18592691678E+01	2.30374233302E-01	-1.11600136787E+02
7.74048096192E+10	1.41410704896E-01	-8.34439589475E+01	5.50931639194E-05	-3.03475567672E+01	5.70134101098E-05	-4.91060315781E+01	2.30502622032E-01	-1.11549471061E+02
7.74108216433E+10	1.41916536585E-01	-8.57303105487E+01	3.07258481833E-05	-5.51193496448E+01	5.79305842755E-05	-1.17105406277E+02	2.34728824763E-01	-1.13662048193E+02
7.74168336673E+10	1.41129815117E-01	-8.68128731070E+01	6.08931626285E-05	-3.96419244640E+01	5.91005712613E-05	-1.14296578467E+02	2.32796793503E-01	-1.13478212340E+02
7.74228456914E+10	1.40721164916E-01	-8.73942304070E+01	1.49889329587E-05	-1.27176297173E+02	7.15157676205E-05	-1.68319236760E+02	2.30623697054E-01	-1.12812006228E+02
7.74288577154E+10	1.41432466454E-01	-8.77388221599E+01	4.74564878636E-05	-1.44672968351E+02	4.19311516391E-05	-4.13501992161E+01	2.31005678089E-01	-1.13904107181E+02
7.74348697395E+10	1.40159196056E-01	-8.67027502540E+01	6.97182781557E-05	1.52987431887E+02	2.56286200584E-05	1.49001086914E+02	2.34208963204E-01	-1.15202976023E+02
7.74408817635E+10	1.39945172197E-01	-8.63084261638E+01	4.97920577651E-05	1.44837629944E+02	1.79257521282E-05	6.62950502320E+01	2.31419059003E-01	-1.14428149470E+02
7.74468937876E+10	1.39610426535E-01	-8.64467942583E+01	1.92641972407E-05	-7.19414540354E+00	5.11263935729E-05	-1.73882397082E+01	2.28696604254E-01	-1.13562411985E+02
7.74529058116E+10	1.39159693186E-01	-8.52954901889E+01	2.47315258606E-05	1.94975833635E+01	8.62789664542E-05	1.68579137221E+02	2.30428835648E-01	-1.14392041332E+02
7.74589178357E+10	1.38884107078E-01	-8.77211164593E+01	4.77802634846E-05	8.84372844385E+01	3.24308171978E-06	1.61878662827E+02	2.31855199341E-01	-1.15712144593E+02
7.74649298597E+10	1.38394598156E-01	-8.75425298861E+01	4.76414541912E-05	-6.80877890152E+00	3.20322816762E-05	1.53287941931E+02	2.32267476122E-01	-1.16341617302E+02
7.74709418838E+10	1.40939495551E-01	-8.63612987004E+01	7.74681274861E-05	6.16673253115E+01	7.10824546526E-05	1.58349668482E+02	2.28409545185E-01	-1.15391618375E+02
7.74769539078E+10	1.43377758590E-01	-8.81394696714E+01	2.61690054010E-05	1.03871539871E+02	5.25043765275E-05	9.03181133195E+01	2.29469960941E-01	-1.16303889880E+02
7.74829659319E+10	1.39239717640E-01	-8.65913461640E+01	6.27434337272E-05	-2.43610940495E+01	2.47287376347E-05	1.63569639320E+02	2.33044805933E-01	-1.17444561262E+02
7.74889779559E+10	1.38952391604E-01	-8.69173107640E+01	7.76850613494E-05	-5.38344398334E+01	3.93464614533E-05	-1.74504552275E+02	2.32048629074E-01	-1.17531299734E+02
7.74949899800E+10	1.38057587506E-01	-8.71105009751E+01	5.65166163427E-05	-1.06238467290E+02	4.50343476631E-05	6.81641103460E+01	2.26313728731E-01	-1.16330750288E+02
7.75010020040E+10	1.36626975761E-01	-8.77882349223E+01	4.62831903347E-05	3.61987805074E+01	6.55989339521E-05	8.13725929432E+01	2.27470167307E-01	-1.16711320570E+02
7.75070140281E+10	1.40232464071E-01	-8.90482612463E+01	6.99159514415E-05	4.24573720296E+01	4.64792473233E-05	7.91975584889E+01	2.29945714310E-01	-1.18590498626E+02
7.75130260521E+10	1.39193390627E-01	-8.80123745596E+01	6.15342340710E-05	-1.75968081099E+01	6.49011901342E-05	-1.75474903332E+02	2.27167055854E-01	-1.17746002441E+02
7.75190380762E+10	1.37596933242E-01	-8.79507706233E+01	9.79754925891E-06	1.55446519945E+02	6.25299445095E-05	-1.36061313479E+01	2.27922330727E-01	-1.18199627129E+02
7.75250501002E+10	1.39649991850E-01	-8.71252008130E+01	4.30859149289E-05	1.63299473726E+02	6.28360014913E-05	1.19098379749E+02	2.28038473215E-01	-1.19138093394E+02
7.75310621242E+10	1.37286624504E-01	-8.87472727184E+01	9.47500603417E-05	1.64110183541E+02	6.16007330896E-05	1.44714607339E+02	2.26914330049E-01	-1.18065596735E+02
7.75370741483E+10	1.37061753789E-01	-8.99415129146E+01	7.47094770781E-06	2.10780062469E+01	4.58393544488E-05	9.92422744277E+00	2.28112906456E-01	-1.18686189604E+02
7.75430861723E+10	1.38686148459E-01	-8.95503516911E+01	3.73704121443E-05	-3.53509386130E+01	5.74928146268E-05	4.67686805683E+01	2.26174375146E-01	-1.18953298399E+02
7.75490981964E+10	1.40037431954E-01	-9.00897024998E+01	3.39664200146E-05	-2.51366653077E+01	6.64072800820E-05	1.48089314685E+01	2.28438176090E-01	-1.20374811146E+02
7.75551102204E+10	1.38785655210E-01	-8.99394285703E+01	1.13836554282E-05	4.35344848433E+01	8.59568136163E-05	-9.21587596908E-01	2.26355212624E-01	-1.19902467683E+02
7.75611222445E+10	1.37528954480E-01	-8.74445245742E+01	6.98291965966E-05	-1.00617774276E+02	5.04074675822E-05	-8.72798376467E+01	2.26427190124E-01	-1.20286729506E+02
7.75671342685E+10	1.37649283135E-01	-8.81812290494E+01	3.78912493772E-05	1.52637660120E+02	1.26757843747E-05	-1.45904346134E+02	2.26218550040E-01	-1.20595793947E+02
7.75731462926E+10	1.35994706296E-01	-9.05468968865E+01	2.95949038249E-05	-9.95910701773E+01	4.38642463606E-05	-6.19560812339E+01	2.26463522439E-01	-1.21049973851E+02
7.75791583166E+10	1.36583165624E-01	-9.07910625233E+01	7.56919057293E-05	1.55782604025E+02	7.76949016633E-05	9.77333974039E+00	2.27314592953E-01	-1.21581902855E+02
7.75851703407E+10	1.36203916131E-01	-9.09866075744E+01	3.29921259169E-05	-9.55249646225E+01	9.54961287044E-06	-1.60229936417E+01	2.26351919005E-01	-1.22034642146E+02
7.75911823647E+10	1.37684069813E-01	-9.16127061690E+01	2.61708245855E-05	-4.57789709908E+01	3.53257126418E-05	5.61234470431E+01	2.22146451028E-01	-1.21151519690E+02
7.75971943888E+10	1.34958358091E-01	-9.01314727821E+01	6.10809730630E-05	9.25232631515E+01	5.44541899383E-05	1.73615291204E+00	2.24442047135E-01	-1.21917962246E+02
7.76032064128E+10	1.34123496580E-01	-8.89043528146E+01	2.36861638249E-05	7.10703756213E+01	5.38803665248E-05	-8.83420206237E+01	2.26791284645E-01	-1.23136238989E+02
7.76092184369E+10	1.35306328062E-01	-8.90223697884E+01	4.29260343845E-05	-1.28645206295E+02	5.23787978105E-05	-7.80242427350E+01	2.24054741784E-01	-1.22543912684E+02
7.76152304609E+10	1.37822678100E-01	-9.03323261003E+01	2.61411562206E-05	-1.23119268179E+02	5.29092362792E-05	-1.02099523939E+02	2.24823008791E-01	-1.23709994303E+02
7.76212424850E+10	1.35829327141E-01	-9.14440532485E+01	8.01755751641E-06	5.76758635269E+01	4.78649405986E-05	1.48643482552E+02	2.26469377762E-01	-1.24387130208E+02
7.76272545090E+10	1.36293486103E-01	-9.31744509226E+01	7.59127227553E-05	9.38739271113E+01	2.43309640971E-05	1.47744217313E+02	2.22464815484E-01	-1.22648536721E+02
7.76332665331E+10	1.37250844491E-01	-9.28314482853E+01	4.61972663366E-05	-7.56812448342E+01	2.78004934493E-05	-1.19201839340E+02	2.23101635945E-01	-1.23462617641E+02
7.76392785571E+10	1.35089413213E-01	-8.93797217494E+01	5.91749214414E-05	-1.41330839352E+02	3.17881813540E-05	7.81360532869E+01	2.23181681232E-01	-1.24592578523E+02
7.76452905812E+10	1.35528859578E-01	-9.08881530407E+01	3.87463867845E-05	4.88205030165E+01	8.26619587211E-06	1.75550813638E+02	2.25216042285E-01	-1.26237394429E+02
7.76513026052E+10	1.35094289055E-01	-9.17549459513E+01	1.28242814321E-05	1.37805360503E+02	4.38479873790E-05	5.28896949078E+01	2.22995137295E-01	-1.24983929833E+02
7.76573146293E+10	1.37158099994E-01	-9.04597720669E+01	7.62333121280E-05	2.43248513170E+00	6.54226794933E-05	-8.35267004250E+00	2.21089015136E-01	-1.24641745634E+02
7.76633266533E+10	1.35720092332E-01	-9.09107066843E+01	4.81208593572E-05	-2.78483062052E+01	6.02754477098E-05	-6.40831935644E+01	2.21773878935E-01	-1.25213066628E+02
7.76693386774E+10	1.36161009558E-01	-9.17379391883E+01	3.28709061149E-05	-2.35937673436E+01	1.42148176087E-04	-9.48954614375E+01	2.23326474574E-01	-1.26078376272E+02
7.76753507014E+10	1.35741553464E-01	-9.43390239078E+01	6.23242310578E-05	-6.43219220006E+00	1.17722943516E-04	-1.04308988827E+02	2.22659356716E-01	-1.27127512167E+02
7.76813627255E+10	1.34785548640E-01	-9.20663681542E+01	2.42459652576E-05	1.78762828412E+00	1.15627592637E-04	-1.79594311753E+02	2.17847239281E-01	-1.25582698170E+02
7.76873747495E+10	1.38551330583E-01	-9.33336789792E+01	5.06636235804E-05	6.68110743331E+01	4.63128608521E-05	1.74941346786E+02	2.20723596328E-01	-1.26577971730E+02
7.76933867735E+10	1.34351881533E-01	-9.25815825232E+01	2.75503557237E-05	-8.66989270835E+00	4.28334448176E-05	1.51523270972E+02	2.19976006012E-01	-1.26871027902E+02
7.76993987976E+10	1.35595846979E-01	-9.18308154675E+01	2.23268150240E-05	-1.50190818157E+02	2.10749322288E-05	1.18486160986E+02	2.20989060862E-01	-1.27905879990E+02
7.77054108216E+10	1.34604588700E-01	-9.26378201990E+01	7.39718854422E-05	-6.59398194089E+01	2.32104903850E-05	-5.70131155139E+01	2.17908995318E-01	-1.27291595828E+02
7.77114228457E+10	1.36796694858E-01	-9.50808747944E+01	1.27215231731E-04	-9.93654390258E+01	4.50243207729E-05	-9.29495253051E+01	2.17358806163E-01	-1.27451208052E+02
7.77174348697E+10	1.33998192062E-01	-9.38449950599E+01	6.60417649432E-05	-9.69879231301E+01	3.77934242997E-05	-1.40783649238E+02	2.20216505855E-01	-1.28319734804E+02
7.77234468938E+10	1.33235796435E-01	-9.47149835568E+01	4.11848941590E-05	-7.43861467481E+01	6.60245719153E-05	1.78992064518E+02	2.19568932194E-01	-1.28739644976E+02
7.77294589178E+10	1.35600819158E-01	-9.45073291751E+01	4.35260240262E-05	-1.17571611797E+02	3.14359025586E-05	-1.17617490133E+02	2.19552140869E-01	-1.29410587075E+02
7.77354709419E+10	1.32349580753E-01	-9.26551073045E+01	6.09464745506E-05	-1.18462369257E+02	5.40399176066E-05	-1.35113763625E+02	2.15100976688E-01	-1.28482103752E+02
7.77414829659E+10	1.33079447529E-01	-9.31571021259E+01	6.36355514360E-05	-1.59265938695E+02	6.80978730552E-05	-1.42059463650E+02	2.17076849728E-01	-1.29655726968E+02
7.77474949900E+10	1.34082296046E-01	-9.50349494855E+01	1.05286736358E-04	-1.70223981873E+02	8.84428314501E-05	-1.76480577228E+02	2.17703512114E-01	-1.29591557510E+02
7.77535070140E+10	1.34517954702E-01	-9.57033539755E+01	7.14920124956E-05	-1.75912552960E+02	1.04575270778E-04	-1.57750926480E+02	2.18118247616E-01	-1.30487882511E+02
7.77595190381E+10	1.34299030718E-01	-9.67370641599E+01	3.76010794783E-05	9.39574963168E+01	1.08640157678E-04	1.47469706137E+02	2.17125662036E-01	-1.30897716209E+02
7.77655310621E+10	1.32697833290E-01	-9.54445968639E+01	7.49475220034E-06	-6.26449498279E+01	9.53562812265E-05	1.35819474763E+02	2.17401622345E-01	-1.31511195115E+02
7.77715430862E+10	1.31989593493E-01	-9.38826414925E+01	1.35940737528E-05	1.59166383899E+02	6.59350321822E-05	8.59745246929E+01	2.15784014629E-01	-1.31730232818E+02
7.77775551102E+10	1.33667724476E-01	-9.56145562582E+01	2.13983561809E-05	1.09243407065E+02	6.56139357616E-05	1.28695659148E+02	2.13309597362E-01	-1.30771646685E+02
7.77835671343E+10	1.33108693917E-01	-9.47125076552E+01	6.37742812885E-05	-1.77897932929E+02	2.25922354087E-05	-1.43323732188E+02	2.17456603973E-01	-1.32504600064E+02
7.77895791583E+10	1.32905798769E-01	-9.60521365680E+01	1.27876692312E-04	1.75574986414E+02	4.70870585235E-05	1.63268503628E+02	2.17299757455E-01	-1.32898470376E+02
7.77955911824E+10	1.33990863943E-01	-9.71533294828E+01	1.04931660983E-04	1.05849468142E+02	6.00088223635E-05	8.52735397502E+01	2.15258860353E-01	-1.33335384606E+02
7.78016032064E+10	1.31528742612E-01	-9.62544309874E+01	8.08903007252E-05	9.33279466501E+01	8.15191678323E-05	9.04481312962E+01	2.12209356260E-01	-1.32136245643E+02
7.78076152305E+10	1.31305420131E-01	-9.57179083981E+01	4.25184599316E-05	1.08070153206E+02	8.40944971951E-05	5.57275355324E+01	2.13137046870E-01	-1.32755171388E+02
7.78136272545E+10	1.32668428521E-01	-9.58031476419E+01	8.48034292874E-05	6.98837216103E+01	8.03888160423E-05	9.74605003000E+01	2.15664523857E-01	-1.33512268525E+02
7.78196392786E+10	1.32474222620E-01	-9.56290321236E+01	6.28659527194E-05	7.91764957276E+01	2.67808671303E-05	2.56111299522E+01	2.11223391365E-01	-1.32823029545E+02
7.78256513026E+10	1.32161356019E-01	-9.52728347739E+01	4.43734205150E-05	5.34658400411E+01	6.29452771644E-05	9.19154934800E+01	2.11727261341E-01	-1.34183703215E+02
7.78316633267E+10	1.30776836147E-01	-9.71685113136E+01	2.83422087401E-05	5.92760710609E+01	7.55235051617E-05	9.96957926997E+01	2.15076842523E-01	-1.35472876162E+02
7.78376753507E+10	1.32126294299E-01	-9.76885299977E+01	6.52775402633E-05	2.29174012713E+01	8.09319229025E-05	1.16769697109E+01	2.13028446447E-01	-1.34991491566E+02
7.78436873747E+10	1.32651279598E-01	-9.76960289662E+01	8.74397023988E-05	1.33944021653E+02	9.70943532682E-05	1.92079154633E+01	2.12596816380E-01	-1.34903786735E+02
7.78496993988E+10	1.32623681427E-01	-9.74911140726E+01	4.73529725650E-05	9.35735574883E+01	6.59568829010E-05	1.95874545930E+01	2.11504149061E-01	-1.35031577315E+02
7.78557114228E+10	1.28450842916E-01	-9.55884136343E+01	9.92500538501E-05	3.87888868716E+01	7.57901255534E-05	3.32097550713E+01	2.11425373400E-01	-1.36013537554E+02
7.78617234469E+10	1.30093424405E-01	-9.71444505483E+01	3.77787994851E-05	-1.92278759354E+01	1.11447995238E-04	1.46497803045E+01	2.13290781517E-01	-1.37117683546E+02
7.78677354709E+10	1.31098160887E-01	-9.76775846869E+01	5.67934200540E-05	-2.03046731423E+01	8.16698649371E-05	-4.98893613199E+01	2.10585042936E-01	-1.36798317674E+02
7.78737474950E+10	1.30786716241E-01	-9.71644323126E+01	6.32573121410E-05	-7.02489571426E+00	8.06512918411E-05	1.86444385177E+01	2.09373136448E-01	-1.36821224931E+02
7.78797595190E+10	1.30817996348E-01	-9.81838389800E+01	7.06876814135E-05	3.43868961376E+00	9.91906647837E-05	1.14109040613E+00	2.08709076954E-01	-1.37182666491E+02
7.78857715431E+10	1.28865683545E-01	-9.88846500858E+01	7.00456700619E-05	5.16643612083E+01	1.04965512630E-04	-2.85067023931E+01	2.08470360332E-01	-1.37566272845E+02
7.78917835671E+10	1.30461027387E-01	-9.82601919208E+01	1.21370345112E-04	1.10755349281E+01	8.15981729849E-05	-3.53422691575E+01	2.08954042248E-01	-1.38157739579E+02
7.78977955912E+10	1.29914428912E-01	-9.78979702454E+01	5.75000927924E-05	-3.84191513302E+01	7.02867207301E-05	-9.11721417373E+01	2.09536250967E-01	-1.37953774566E+02
7.79038076152E+10	1.29368737098E-01	-9.83003840720E+01	8.38874689373E-05	-7.63766200233E+01	5.57595051270E-05	-1.27686073174E+02	2.08075486629E-01	-1.38096737445E+02
7.79098196393E+10	1.29354440178E-01	-9.72598288841E+01	1.13856798334E-04	-6.82647629394E+01	1.00932909068E-04	-1.10698414690E+02	2.07263484888E-01	-1.39265773787E+02
7.79158316633E+10	1.30115026408E-01	-9.86906374757E+01	4.14885644816E-05	5.58442500380E+01	5.08132262449E-05	1.52502919803E+02	2.07766109929E-01	-1.39483145225E+02
7.79218436874E+10	1.29365699088E-01	-9.87427562511E+01	3.38868241972E-05	1.10727349202E+02	1.05474327864E-04	-2.35660289864E+01	2.08875979714E-01	-1.39866885201E+02
7.79278557114E+10	1.29817846268E-01	-9.93945471597E+01	2.15670873179E-05	6.62792855844E+01	5.31014384327E-05	-8.89108624630E+01	2.07285155862E-01	-1.39395611022E+02
7.79338677355E+10	1.32037828802E-01	-9.95798002693E+01	2.07542212304E-05	-1.55032717770E+01	7.25883739833E-05	-1.33208572552E+02	2.06443396378E-01	-1.40531872302E+02
7.79398797595E+10	1.28400726369E-01	-9.79900890230E+01	8.38011176648E-05	-3.96648191111E+01	7.70583284303E-05	-3.64986136379E+01	2.05641728035E-01	-1.40680962597E+02
7.79458917836E+10	1.28412763659E-01	-9.80766725744E+01	1.38177176733E-04	-7.77411697036E+01	1.29799203194E-04	-8.86325366548E+01	2.04611515532E-01	-1.40880308946E+02
7.79519038076E+10	1.27545522132E-01	-9.95629896131E+01	7.21611201575E-05	-6.11004706033E+01	4.24288300733E-05	-1.52713619441E+02	2.04498022618E-01	-1.41719341441E+02
7.79579158317E+10	1.29341288393E-01	-9.96657989870E+01	3.86416887890E-05	1.49075702661E+02	8.25346622987E-05	-1.49041229914E+02	2.06717626760E-01	-1.42613827675E+02
7.79639278557E+10	1.30381666287E-01	-1.00622142591E+02	3.69159169592E-05	-1.06446017476E+02	1.98615934667E-05	1.18956572610E+02	2.05037225805E-01	-1.42218712164E+02
7.79699398798E+10	1.27525907495E-01	-9.96093554829E+01	7.81703595353E-05	-9.50967707742E+01	7.52650200708E-05	-7.16758630903E+01	2.02881692776E-01	-1.42105045679E+02
7.79759519038E+10	1.26327688489E-01	-9.87387239266E+01	6.66926277045E-05	-1.50869835252E+02	1.25166907253E-04	-1.53809085707E+02	2.04663157242E-01	-1.43205625898E+02
7.79819639279E+10	1.30339433655E-01	-1.01632516487E+02	9.31123028952E-05	-1.35422369071E+02	8.62941604324E-05	1.50853069069E+02	2.02046181026E-01	-1.41758554226E+02
7.79879759519E+10	1.26590509028E-01	-9.87600837073E+01	1.44420072388E-05	-5.55543003312E+00	3.96424109971E-05	-8.96597061762E+01	2.04301744993E-01	-1.43898899971E+02
7.79939879760E+10	1.28670204351E-01	-1.00159034450E+02	1.16020335329E-05	8.81323435702E+01	2.00879373137E-05	-1.56750034381E+02	2.03321782140E-01	-1.44370873930E+02
7.80000000000E+10	1.28261354648E-01	-1.01357838791E+02	5.32756742350E-05	-3.04185952091E+01	5.30171694980E-05	-2.63385392829E+01	2.00672705074E-01	-1.43357601916E+02
