# Hz S MA R 50
! CMT, C4420, 21421029, 25.1.2/3
! Date: 8/7/2025 11:59:01 AM
! Data: Format (Calibration Info)
! Freq	S33:Mag/Ang(F2)	S43:Mag/Ang(F2)	S34:Mag/Ang(F2)	S44:Mag/Ang(F2)
7.50000000000E+10	2.13269543034E-01	5.65681924077E+00	8.10707674110E-04	6.29526566844E+01	6.92585778948E-04	4.87390629839E+01	2.44143085355E-01	4.55842391188E+01
7.50060120240E+10	2.15834668294E-01	4.69508174316E+00	8.52100785032E-04	6.49246931113E+01	7.57306620497E-04	5.28551373426E+01	2.43484040768E-01	4.46881351626E+01
7.50120240481E+10	2.19289323028E-01	4.55016442035E+00	8.30211590830E-04	5.51301521714E+01	7.00066005792E-04	4.50198008727E+01	2.45287163069E-01	4.28640588941E+01
7.50180360721E+10	2.19705347338E-01	2.65694674111E+00	8.41153996858E-04	5.80980797007E+01	7.54432641296E-04	4.01893779658E+01	2.44752114879E-01	4.31142641323E+01
7.50240480962E+10	2.20199955001E-01	2.62376446598E+00	8.55948125354E-04	5.53095143892E+01	7.92168518157E-04	3.54007644563E+01	2.43039576792E-01	4.32131013210E+01
7.50300601202E+10	2.21621856895E-01	1.83878708217E+00	8.26618518960E-04	5.40042869767E+01	7.94564444513E-04	3.47674095661E+01	2.44167711339E-01	4.34291187791E+01
7.50360721443E+10	2.23455176526E-01	2.55704899537E+00	8.43856963972E-04	4.92957628369E+01	7.32931253974E-04	3.92566875957E+01	2.44904452567E-01	4.31458452160E+01
7.50420841683E+10	2.23490517127E-01	2.56253641703E+00	8.42702646311E-04	4.90669756905E+01	6.86989143628E-04	3.57152039060E+01	2.43556999865E-01	4.24798478153E+01
7.50480961924E+10	2.23807153069E-01	-4.88578891576E-01	7.95740744241E-04	5.18861827365E+01	7.18906430751E-04	3.51290223619E+01	2.41123342189E-01	4.32611419258E+01
7.50541082164E+10	2.22273213845E-01	-1.10980612710E-01	8.28394922517E-04	5.73203246613E+01	7.72978609787E-04	3.98766219998E+01	2.45124522181E-01	4.09723926932E+01
7.50601202405E+10	2.27468164925E-01	-4.90180027939E-02	9.62046396612E-04	5.70493266683E+01	8.39495310997E-04	3.95365816160E+01	2.47458901214E-01	4.27090422978E+01
7.50661322645E+10	2.28633822537E-01	1.01987709839E+00	1.01757359083E-03	4.68012446604E+01	8.30319584082E-04	3.73019957156E+01	2.45736973164E-01	4.07062258286E+01
7.50721442886E+10	2.27393236964E-01	-8.33528088796E-01	9.53222610683E-04	4.75958663566E+01	8.95217785935E-04	2.98706607824E+01	2.44502555870E-01	4.17576357578E+01
7.50781563126E+10	2.28050546475E-01	-1.51358341537E+00	1.05398356807E-03	4.67775104720E+01	8.96937773772E-04	3.14960159201E+01	2.46047638020E-01	4.02940457728E+01
7.50841683367E+10	2.25628623245E-01	-2.35501614355E-01	1.02154474439E-03	4.61121945500E+01	9.02688256132E-04	2.48517960754E+01	2.48616701375E-01	4.18984213314E+01
7.50901803607E+10	2.30662259863E-01	-2.62564063909E+00	9.80950349846E-04	3.73601109825E+01	8.78488357134E-04	2.35608398845E+01	2.49786382405E-01	4.00470882783E+01
7.50961923848E+10	2.33709752556E-01	-2.91062975017E+00	9.77507599512E-04	3.66535028898E+01	8.53299039453E-04	2.67163845128E+01	2.46631580367E-01	3.85215933353E+01
7.51022044088E+10	2.30702076484E-01	-2.61661788246E+00	9.60915583539E-04	3.63346522977E+01	8.86998979729E-04	2.24162733675E+01	2.48551928148E-01	3.92387987675E+01
7.51082164329E+10	2.27552067955E-01	-1.02344115150E+00	9.89579566570E-04	3.55902595209E+01	8.86102290128E-04	2.32413568582E+01	2.49178174318E-01	4.02633547103E+01
7.51142284569E+10	2.29721091596E-01	-3.43557097266E+00	1.01125258912E-03	4.04675951152E+01	9.20915625958E-04	1.99811596983E+01	2.49386049424E-01	3.94705801083E+01
7.51202404810E+10	2.31755494449E-01	-3.10147885053E+00	1.07925643120E-03	3.91130543335E+01	9.54132633538E-04	2.22741030839E+01	2.49174286408E-01	3.80470929864E+01
7.51262525050E+10	2.31909660737E-01	-5.17718581144E+00	1.05579791098E-03	3.37964253845E+01	9.50398205941E-04	1.98719729539E+01	2.47206854298E-01	3.80567379255E+01
7.51322645291E+10	2.32442489968E-01	-4.51014349488E+00	1.13071141806E-03	3.18386317512E+01	9.57772334837E-04	2.29215915314E+01	2.49814479173E-01	3.87667286399E+01
7.51382765531E+10	2.31131888692E-01	-3.37812595467E+00	1.12377581214E-03	2.93295446843E+01	1.02514295272E-03	1.84953068889E+01	2.48532056708E-01	3.79366318082E+01
7.51442885772E+10	2.30430831052E-01	-3.23173894183E+00	1.12293253863E-03	2.69864355920E+01	1.04863190423E-03	1.38426694199E+01	2.51976204077E-01	3.84052859856E+01
7.51503006012E+10	2.32237632567E-01	-5.69390270446E+00	1.13032623707E-03	2.75019809893E+01	1.01541372583E-03	1.66954967836E+01	2.49550036973E-01	3.62040610049E+01
7.51563126253E+10	2.29103791746E-01	-4.91119271704E+00	1.18383373914E-03	2.55987878411E+01	1.11866958488E-03	1.26124666713E+01	2.49078782161E-01	3.78055897779E+01
7.51623246493E+10	2.36985616965E-01	-7.89636520208E+00	1.23665091855E-03	2.54350099252E+01	1.08116996448E-03	1.30417738742E+01	2.51187405270E-01	3.78054148429E+01
7.51683366733E+10	2.32361317478E-01	-7.17169594097E+00	1.28877894959E-03	2.11822762410E+01	1.16146786753E-03	1.00573577152E+01	2.55310453540E-01	3.74624279739E+01
7.51743486974E+10	2.37238276671E-01	-7.10844744543E+00	1.33623113869E-03	1.90311891788E+01	1.14855813847E-03	4.86639968137E+00	2.53305095435E-01	3.51697571191E+01
7.51803607214E+10	2.34714642635E-01	-6.42210347371E+00	1.26395731243E-03	1.70713023444E+01	1.07057128485E-03	3.06326364537E+00	2.49681775854E-01	3.72277330017E+01
7.51863727455E+10	2.39353452550E-01	-9.48301419510E+00	1.32563716185E-03	1.30904014121E+01	1.12733306671E-03	9.21910930653E-01	2.52930731673E-01	3.57150707490E+01
7.51923847695E+10	2.32527892898E-01	-7.56256337390E+00	1.28484638502E-03	1.37989456901E+01	1.13322537523E-03	-2.47121112402E+00	2.56725965731E-01	3.72081785740E+01
7.51983967936E+10	2.35761042569E-01	-8.78360220480E+00	1.35415690645E-03	1.33614317015E+01	1.15865765797E-03	-1.86814957719E+00	2.55795270238E-01	3.59338505593E+01
7.52044088176E+10	2.40919491188E-01	-1.04921880982E+01	1.36218841155E-03	8.00506300187E+00	1.18342026699E-03	-5.31389026929E+00	2.54881253839E-01	3.52136145092E+01
7.52104208417E+10	2.35568412264E-01	-8.98633075751E+00	1.35670839206E-03	9.01026850077E+00	1.19701370303E-03	-3.90126210396E+00	2.53192993018E-01	3.61568039331E+01
7.52164328657E+10	2.37668463545E-01	-9.86511652457E+00	1.37980347339E-03	6.10859612077E+00	1.18530597560E-03	-5.32740738791E+00	2.57631120010E-01	3.32322414082E+01
7.52224448898E+10	2.36523738319E-01	-1.05782371051E+01	1.40094869258E-03	5.64263500591E+00	1.22026567628E-03	-6.44572702402E+00	2.54470503862E-01	3.60923215485E+01
7.52284569138E+10	2.40471625768E-01	-1.03636313892E+01	1.38235774493E-03	3.61601249248E+00	1.25044864527E-03	-8.08374121940E+00	2.53523907041E-01	3.49489177691E+01
7.52344689379E+10	2.36068325139E-01	-1.08157552292E+01	1.46040838930E-03	1.83129420711E+00	1.33773815660E-03	-1.22943591774E+01	2.57505738215E-01	3.29502340598E+01
7.52404809619E+10	2.41968576149E-01	-1.24596425005E+01	1.42700535844E-03	-2.20123737726E+00	1.27861804969E-03	-1.73815384366E+01	2.55871358878E-01	3.49669983152E+01
7.52464929860E+10	2.37752081875E-01	-1.07130707275E+01	1.48805935002E-03	-3.06988025265E+00	1.34497723134E-03	-1.67690033688E+01	2.56915972468E-01	3.41287153571E+01
7.52525050100E+10	2.36897371183E-01	-1.35309146172E+01	1.56539820994E-03	-4.79605388729E+00	1.35361132985E-03	-1.49884120238E+01	2.56894649702E-01	3.29449736421E+01
7.52585170341E+10	2.36665855081E-01	-1.25684945711E+01	1.54212411419E-03	-1.02750560194E+01	1.40067732863E-03	-2.41594950247E+01	2.58037205607E-01	3.33633106537E+01
7.52645290581E+10	2.40062832255E-01	-1.29126106256E+01	1.58171348564E-03	-1.31711018442E+01	1.41290377071E-03	-2.77145883066E+01	2.60587712680E-01	3.25243848772E+01
7.52705410822E+10	2.37816052418E-01	-1.29803729279E+01	1.58486438298E-03	-1.62746818987E+01	1.39995810876E-03	-3.43382586824E+01	2.57831891923E-01	3.36626875715E+01
7.52765531062E+10	2.37115100377E-01	-1.35028794685E+01	1.57380801623E-03	-1.78812843853E+01	1.35637611176E-03	-3.36514022584E+01	2.56146126663E-01	3.24099628243E+01
7.52825651303E+10	2.34487354005E-01	-1.35672310566E+01	1.49650910628E-03	-2.03564448534E+01	1.33772575243E-03	-3.27788393766E+01	2.57662913062E-01	3.15998673070E+01
7.52885771543E+10	2.37252978492E-01	-1.35061491572E+01	1.54033354460E-03	-2.31640769526E+01	1.37049025956E-03	-3.73144812392E+01	2.62453415762E-01	3.07129873713E+01
7.52945891784E+10	2.41866907157E-01	-1.52649926364E+01	1.53594089584E-03	-2.20719234647E+01	1.32380673335E-03	-3.85717732645E+01	2.62303990272E-01	3.12883897828E+01
7.53006012024E+10	2.38346735056E-01	-1.42427097963E+01	1.49755498693E-03	-2.80519940043E+01	1.34646831483E-03	-4.09220497032E+01	2.59479278222E-01	3.25123463925E+01
7.53066132265E+10	2.36909738686E-01	-1.58813101506E+01	1.51979399791E-03	-2.73111551584E+01	1.34903442416E-03	-4.24857294986E+01	2.60439675511E-01	3.04071595922E+01
7.53126252505E+10	2.37347113291E-01	-1.68084214432E+01	1.53924682440E-03	-2.74850325819E+01	1.34601741584E-03	-4.74010726811E+01	2.57071949636E-01	3.20038696557E+01
7.53186372745E+10	2.42501308009E-01	-1.83476501018E+01	1.52652107813E-03	-2.92903884193E+01	1.34954168138E-03	-4.49307198734E+01	2.61302094850E-01	2.94916531088E+01
7.53246492986E+10	2.41003533113E-01	-1.77194446601E+01	1.56385814908E-03	-3.10859866354E+01	1.33357335173E-03	-4.90185935655E+01	2.63147222987E-01	3.11941873760E+01
7.53306613226E+10	2.37587650853E-01	-1.60775447004E+01	1.60067877978E-03	-3.59828681620E+01	1.39126096373E-03	-5.27574016710E+01	2.65834111684E-01	3.02275892402E+01
7.53366733467E+10	2.34670794587E-01	-1.71396909498E+01	1.60033333118E-03	-3.47685356685E+01	1.30943039756E-03	-5.12561692504E+01	2.61163808156E-01	2.86178378049E+01
7.53426853707E+10	2.37104636307E-01	-1.79434059124E+01	1.61735034136E-03	-3.85434742609E+01	1.45302777706E-03	-5.63372216093E+01	2.62081500455E-01	3.05636867681E+01
7.53486973948E+10	2.40988650885E-01	-1.77708491640E+01	1.63769955525E-03	-4.41020733396E+01	1.44466391458E-03	-6.20825240351E+01	2.62347833196E-01	3.02906396172E+01
7.53547094188E+10	2.37343637243E-01	-1.77807567479E+01	1.61845943017E-03	-4.96129093929E+01	1.36636824065E-03	-6.35897225799E+01	2.65390267269E-01	2.86628275379E+01
7.53607214429E+10	2.37041743409E-01	-1.83031960286E+01	1.59143737571E-03	-5.24537725424E+01	1.36980569547E-03	-6.65889511258E+01	2.65585918612E-01	2.75267836313E+01
7.53667334669E+10	2.36855438561E-01	-1.88791867894E+01	1.48811643700E-03	-5.39199751071E+01	1.26675488729E-03	-7.25521277284E+01	2.63666448136E-01	2.78918636140E+01
7.53727454910E+10	2.40523213653E-01	-2.07179514147E+01	1.41400358986E-03	-5.21870312829E+01	1.20951685020E-03	-7.68714554848E+01	2.63320226618E-01	2.93679033478E+01
7.53787575150E+10	2.37927984091E-01	-2.13782684241E+01	1.27363204131E-03	-5.70312463341E+01	1.12541193278E-03	-7.22194050044E+01	2.63780262427E-01	2.88348769332E+01
7.53847695391E+10	2.39409721632E-01	-2.17492819912E+01	1.36264146097E-03	-5.36538288839E+01	1.17118669020E-03	-7.08889289750E+01	2.66339354900E-01	2.72372184760E+01
7.53907815631E+10	2.34289611977E-01	-1.94327330318E+01	1.33056316703E-03	-5.40357764847E+01	1.18843456522E-03	-7.11263246408E+01	2.64873565276E-01	2.70817845363E+01
7.53967935872E+10	2.37759808939E-01	-2.17698510877E+01	1.39706474858E-03	-5.69284624437E+01	1.21365908800E-03	-7.48314944071E+01	2.67898691118E-01	2.80647409941E+01
7.54028056112E+10	2.37208796709E-01	-2.23387551321E+01	1.46448102261E-03	-5.73345709009E+01	1.25174414354E-03	-7.66681992471E+01	2.69266836504E-01	2.70261747694E+01
7.54088176353E+10	2.33405525814E-01	-2.20960420327E+01	1.46127445536E-03	-6.32651719253E+01	1.30231626004E-03	-7.67914448314E+01	2.66010629813E-01	2.76887030930E+01
7.54148296593E+10	2.34607529239E-01	-2.19024246620E+01	1.42158426385E-03	-6.34608699415E+01	1.24471234665E-03	-8.23193001618E+01	2.62338580230E-01	2.68708729755E+01
7.54208416834E+10	2.39709049125E-01	-2.34984687312E+01	1.39727315498E-03	-7.07086581912E+01	1.19336651776E-03	-8.74388978229E+01	2.68108667031E-01	2.65684579693E+01
7.54268537074E+10	2.35857641965E-01	-2.30774054297E+01	1.29390751522E-03	-7.24480111800E+01	1.11231180078E-03	-8.95989360151E+01	2.70184447423E-01	2.68730817918E+01
7.54328657315E+10	2.32872681369E-01	-2.35824231620E+01	1.28348949542E-03	-7.06774416084E+01	1.15635231958E-03	-8.84752637859E+01	2.68698064642E-01	2.58744613852E+01
7.54388777555E+10	2.31548884073E-01	-2.35124614232E+01	1.26079658678E-03	-7.25582176717E+01	1.07846882938E-03	-8.81463676549E+01	2.66900776194E-01	2.48043655440E+01
7.54448897796E+10	2.30248805002E-01	-2.44496200431E+01	1.23257652309E-03	-7.52888437797E+01	1.06513433451E-03	-9.49795483573E+01	2.67656137474E-01	2.51380784896E+01
7.54509018036E+10	2.39017853193E-01	-2.67968138438E+01	1.26025008244E-03	-7.55282863018E+01	1.03727157650E-03	-9.39773683835E+01	2.67581219294E-01	2.58652231093E+01
7.54569138277E+10	2.33878165625E-01	-2.57439174226E+01	1.23474904430E-03	-7.72507064160E+01	1.04955078494E-03	-9.39005188151E+01	2.69465429528E-01	2.34787437323E+01
7.54629258517E+10	2.35935128565E-01	-2.66478919466E+01	1.21972485752E-03	-7.67897525019E+01	1.00333966627E-03	-9.65773519532E+01	2.71325810829E-01	2.40742244749E+01
7.54689378758E+10	2.33664883107E-01	-2.81370390394E+01	1.18929900483E-03	-7.76892555214E+01	9.80902424461E-04	-9.25899160191E+01	2.71012283349E-01	2.53172375956E+01
7.54749498998E+10	2.34430921279E-01	-2.75063066309E+01	1.13220696641E-03	-8.04092905987E+01	9.81106276903E-04	-9.66010478334E+01	2.71686993073E-01	2.40851900988E+01
7.54809619238E+10	2.30203242024E-01	-2.56891947653E+01	1.15171141011E-03	-7.80764489311E+01	9.69884471375E-04	-9.24034261567E+01	2.71900578847E-01	2.32845018496E+01
7.54869739479E+10	2.31961526818E-01	-2.68944664560E+01	1.16125704461E-03	-7.66709840957E+01	9.49340639867E-04	-9.61994275425E+01	2.68957642469E-01	2.40797362582E+01
7.54929859719E+10	2.29544580809E-01	-2.73862046102E+01	1.16464511846E-03	-8.10822226235E+01	9.86996194047E-04	-9.72043627057E+01	2.73053616567E-01	2.28187072031E+01
7.54989979960E+10	2.26001533175E-01	-2.73202557173E+01	1.19626147601E-03	-8.33028897363E+01	9.51635729265E-04	-9.84557000818E+01	2.72516812538E-01	2.38970229216E+01
7.55050100200E+10	2.28156642792E-01	-2.82005201590E+01	1.18155301630E-03	-8.22720151563E+01	9.83269478816E-04	-1.00564366920E+02	2.75954231902E-01	2.22284757847E+01
7.55110220441E+10	2.28682539055E-01	-2.77419219527E+01	1.16925389360E-03	-8.49058340814E+01	1.00871069371E-03	-1.00263027130E+02	2.73250192247E-01	2.22274856172E+01
7.55170340681E+10	2.26695005609E-01	-2.87931972926E+01	1.19282910072E-03	-8.58924536218E+01	9.55185122699E-04	-1.02617748840E+02	2.73708837703E-01	2.23853508145E+01
7.55230460922E+10	2.26812503863E-01	-2.96398764071E+01	1.22052905723E-03	-8.83481782356E+01	9.24733634656E-04	-1.00536090821E+02	2.73695368269E-01	2.26831723574E+01
7.55290581162E+10	2.23695203877E-01	-2.89516687657E+01	1.17356228208E-03	-8.38942444605E+01	9.55683837059E-04	-9.89902822826E+01	2.74390644374E-01	2.16203548616E+01
7.55350701403E+10	2.28672242863E-01	-3.11247576525E+01	1.16914326090E-03	-8.90557774906E+01	9.51911786165E-04	-1.02261182267E+02	2.71229973197E-01	2.25221884789E+01
7.55410821643E+10	2.23862239732E-01	-2.92321385091E+01	1.18322624329E-03	-8.75487001037E+01	9.53474527347E-04	-1.05717807817E+02	2.75567704991E-01	2.14598965384E+01
7.55470941884E+10	2.25303404743E-01	-3.01035940638E+01	1.19543678632E-03	-9.11163799148E+01	9.97214412091E-04	-1.05357852215E+02	2.75867291156E-01	2.02615178320E+01
7.55531062124E+10	2.24434133288E-01	-3.06299007841E+01	1.27222454294E-03	-9.29284227648E+01	9.98790581932E-04	-1.08361043431E+02	2.76945663209E-01	2.15800570287E+01
7.55591182365E+10	2.19238230881E-01	-3.01445525612E+01	1.24578699241E-03	-9.56112376840E+01	9.45648911489E-04	-1.07749458552E+02	2.72485872080E-01	2.07618393357E+01
7.55651302605E+10	2.21933250423E-01	-3.15919358438E+01	1.21066531480E-03	-9.54721439219E+01	9.10505995188E-04	-1.11308302577E+02	2.74071836906E-01	2.08934600517E+01
7.55711422846E+10	2.26796662779E-01	-3.25946689438E+01	1.14926405807E-03	-9.52789187269E+01	9.79348565893E-04	-1.12391781767E+02	2.77913862321E-01	2.06215309560E+01
7.55771543086E+10	2.22169770543E-01	-3.19850590088E+01	1.18443538278E-03	-9.59297608954E+01	9.80114402834E-04	-1.11078583740E+02	2.78272036214E-01	1.98747218487E+01
7.55831663327E+10	2.15103657187E-01	-3.07192941831E+01	1.19091370773E-03	-9.23158325931E+01	9.69881286410E-04	-1.09395405850E+02	2.76321518678E-01	1.91568454357E+01
7.55891783567E+10	2.18448462674E-01	-3.12816752158E+01	1.29710696575E-03	-9.34197735561E+01	1.09731891399E-03	-1.08722359725E+02	2.77452784665E-01	1.85469492373E+01
7.55951903808E+10	2.21900859660E-01	-3.41786988233E+01	1.42224652797E-03	-9.84156255088E+01	1.11661593437E-03	-1.15069662608E+02	2.80913932669E-01	1.85782398589E+01
7.56012024048E+10	2.22738307735E-01	-3.30912096391E+01	1.45752032975E-03	-1.05820225650E+02	1.14313117315E-03	-1.15627525348E+02	2.78701804259E-01	2.00875580489E+01
7.56072144289E+10	2.17341852774E-01	-3.17770799834E+01	1.46666786541E-03	-1.05701091514E+02	1.13258648218E-03	-1.22710758227E+02	2.76465412573E-01	1.77232707435E+01
7.56132264529E+10	2.18814245992E-01	-3.35597306208E+01	1.44265136011E-03	-1.10304060775E+02	1.16287407506E-03	-1.22099228231E+02	2.79623390561E-01	1.80989050252E+01
7.56192384770E+10	2.16926694634E-01	-3.43014364567E+01	1.46065921696E-03	-1.12199886818E+02	1.14609638060E-03	-1.24911957954E+02	2.79720187483E-01	1.90854949426E+01
7.56252505010E+10	2.17906318535E-01	-3.44616092987E+01	1.43419657445E-03	-1.10891122427E+02	1.13810840235E-03	-1.25286823292E+02	2.81069008249E-01	1.74826079325E+01
7.56312625251E+10	2.21031944685E-01	-3.52988850999E+01	1.45157135749E-03	-1.16062889979E+02	1.12582247762E-03	-1.31717013437E+02	2.76077456214E-01	1.80547331946E+01
7.56372745491E+10	2.16610446314E-01	-3.41372104089E+01	1.44766110183E-03	-1.19332901586E+02	1.12948717740E-03	-1.34264024359E+02	2.78771532363E-01	1.87081909270E+01
7.56432865731E+10	2.12286960116E-01	-3.39531119780E+01	1.44362980858E-03	-1.18906477324E+02	1.15269303437E-03	-1.32815887831E+02	2.83794889643E-01	1.75077964994E+01
7.56492985972E+10	2.13222407680E-01	-3.40682097481E+01	1.45479147025E-03	-1.22825560373E+02	1.12910417066E-03	-1.33634474860E+02	2.80863913521E-01	1.59434257508E+01
7.56553106212E+10	2.15808136361E-01	-3.46720397702E+01	1.52750351717E-03	-1.21176743723E+02	1.20522273375E-03	-1.38164062266E+02	2.80766535444E-01	1.56312195333E+01
7.56613226453E+10	2.16384946314E-01	-3.46331538010E+01	1.52592202847E-03	-1.25821205311E+02	1.19667623198E-03	-1.42297539088E+02	2.81400826995E-01	1.64123490776E+01
7.56673346693E+10	2.15058226929E-01	-3.54258348477E+01	1.55433531659E-03	-1.31597385738E+02	1.20955846599E-03	-1.43570465217E+02	2.84129081253E-01	1.69555583691E+01
7.56733466934E+10	2.12625539742E-01	-3.55108832651E+01	1.53579072872E-03	-1.31485910926E+02	1.23078059247E-03	-1.44752816447E+02	2.82177579083E-01	1.48687044335E+01
7.56793587174E+10	2.10596259549E-01	-3.51063142580E+01	1.59103112922E-03	-1.35812412048E+02	1.19419632159E-03	-1.46284090396E+02	2.79329632006E-01	1.61084095760E+01
7.56853707415E+10	2.13021984289E-01	-3.68388014001E+01	1.62280196409E-03	-1.35138063667E+02	1.25242190341E-03	-1.52622467210E+02	2.85942337307E-01	1.54089280316E+01
7.56913827655E+10	2.12036221927E-01	-3.62380939214E+01	1.65736383453E-03	-1.41543923357E+02	1.29931247055E-03	-1.52941043312E+02	2.83433157953E-01	1.48756950517E+01
7.56973947896E+10	2.13841187937E-01	-3.72659951422E+01	1.67476316859E-03	-1.45883217225E+02	1.33734376994E-03	-1.62117941883E+02	2.79405150713E-01	1.56235845005E+01
7.57034068136E+10	2.13921454192E-01	-3.65049151454E+01	1.70266917108E-03	-1.53552036197E+02	1.29042283467E-03	-1.63986739940E+02	2.81497868466E-01	1.39125762761E+01
7.57094188377E+10	2.09008212775E-01	-3.66595691999E+01	1.63082072173E-03	-1.55614782906E+02	1.25764036525E-03	-1.66068848594E+02	2.83807196025E-01	1.36320718996E+01
7.57154308617E+10	2.11011039883E-01	-3.78641687129E+01	1.59326753451E-03	-1.60079082126E+02	1.23252945700E-03	-1.72350731696E+02	2.85479199994E-01	1.51902564144E+01
7.57214428858E+10	2.10574969633E-01	-3.62795255041E+01	1.48773465416E-03	-1.58338223880E+02	1.17898064116E-03	-1.70802026259E+02	2.89366129108E-01	1.33819638673E+01
7.57274549098E+10	2.12807649420E-01	-3.78286601807E+01	1.51787092820E-03	-1.62407157068E+02	1.16280739275E-03	-1.73986888925E+02	2.84359458854E-01	1.26219063054E+01
7.57334669339E+10	2.10160278344E-01	-3.87695014680E+01	1.48694329646E-03	-1.64228675001E+02	1.17648624464E-03	-1.73682152750E+02	2.87226890049E-01	1.23075733298E+01
7.57394789579E+10	2.07193538604E-01	-3.82270431484E+01	1.57456744561E-03	-1.67044303165E+02	1.26966191708E-03	-1.79047378811E+02	2.86839902996E-01	1.29288567092E+01
7.57454909820E+10	2.07474924540E-01	-3.77987051203E+01	1.58019424016E-03	-1.68194048410E+02	1.29440337749E-03	1.78823167667E+02	2.84723199752E-01	1.32928170472E+01
7.57515030060E+10	2.10470380172E-01	-3.84137731649E+01	1.59914802243E-03	-1.73880551021E+02	1.26969910903E-03	1.72825456406E+02	2.91408358008E-01	1.12600192552E+01
7.57575150301E+10	2.08817592052E-01	-3.90046697039E+01	1.63714059592E-03	1.78132809591E+02	1.29327702050E-03	1.69019601996E+02	2.86029824294E-01	1.26980420721E+01
7.57635270541E+10	2.05607851537E-01	-3.90523963360E+01	1.55795869316E-03	1.76491302018E+02	1.18126776187E-03	1.62846367482E+02	2.85214483611E-01	1.11687128108E+01
7.57695390782E+10	2.05570509070E-01	-3.88091148279E+01	1.52981646653E-03	1.72542382181E+02	1.19826530317E-03	1.61949090734E+02	2.92305112931E-01	1.10994372426E+01
7.57755511022E+10	2.07968579989E-01	-4.07125606851E+01	1.49115770490E-03	1.72398221650E+02	1.14114010645E-03	1.58161323534E+02	2.89359234260E-01	1.23027882365E+01
7.57815631263E+10	2.05418197226E-01	-3.97366577174E+01	1.46120627565E-03	1.71537658935E+02	1.18279375956E-03	1.56772504038E+02	2.87899616399E-01	1.09646651989E+01
7.57875751503E+10	2.02526161014E-01	-3.90688899887E+01	1.47218390671E-03	1.65679034952E+02	1.14264084113E-03	1.54850034622E+02	2.87244426522E-01	1.03419507683E+01
7.57935871743E+10	2.08678321073E-01	-4.13929880572E+01	1.50021526600E-03	1.63308744269E+02	1.15529142594E-03	1.49607212822E+02	2.90232273031E-01	1.12653726485E+01
7.57995991984E+10	2.00197692745E-01	-4.00117162280E+01	1.49559836651E-03	1.59916697228E+02	1.17405812481E-03	1.46060777144E+02	2.92042557575E-01	1.02265646740E+01
7.58056112224E+10	2.02987532090E-01	-3.97696528989E+01	1.41845447803E-03	1.52128550795E+02	1.12695336422E-03	1.43969860272E+02	2.90542744719E-01	8.68905143704E+00
7.58116232465E+10	2.06350836320E-01	-4.11899951960E+01	1.34916984591E-03	1.53024716098E+02	1.13519391388E-03	1.39455657066E+02	2.88457942350E-01	1.04246732894E+01
7.58176352705E+10	2.01674529219E-01	-4.05977421240E+01	1.37832983592E-03	1.47547220492E+02	1.08429057829E-03	1.31556874721E+02	2.88603787406E-01	9.08152115402E+00
7.58236472946E+10	2.04874584503E-01	-4.31329747444E+01	1.43082861413E-03	1.44142693618E+02	1.10193095550E-03	1.30814703316E+02	2.90433886245E-01	9.49205905160E+00
7.58296593186E+10	2.02704989004E-01	-4.25235438987E+01	1.36877126168E-03	1.37458068189E+02	1.05914334399E-03	1.25410840194E+02	2.94315601969E-01	9.30386395978E+00
7.58356713427E+10	2.01964870839E-01	-4.21127768385E+01	1.32147468696E-03	1.38821011863E+02	1.00941021377E-03	1.25828298183E+02	2.91542629465E-01	7.88794943946E+00
7.58416833667E+10	2.00714808069E-01	-4.16394941986E+01	1.35523568123E-03	1.38845378538E+02	1.02611122228E-03	1.22297219385E+02	2.88850084341E-01	9.43549146989E+00
7.58476953908E+10	1.99527012590E-01	-4.27733048166E+01	1.30622955536E-03	1.33707556593E+02	1.06983161276E-03	1.18663772743E+02	2.87633536831E-01	8.79550642394E+00
7.58537074148E+10	2.00650861741E-01	-4.15591107665E+01	1.28280817596E-03	1.25617260856E+02	1.04136299845E-03	1.15710440171E+02	2.95335093209E-01	7.25025192070E+00
7.58597194389E+10	2.00846002386E-01	-4.18909894421E+01	1.28804815609E-03	1.24696019288E+02	1.06685595418E-03	1.10488873811E+02	2.91126863661E-01	7.63119599900E+00
7.58657314629E+10	2.00178029465E-01	-4.28862688275E+01	1.26638660319E-03	1.21664619084E+02	9.81263701946E-04	1.10654702092E+02	2.95650277938E-01	6.59722611923E+00
7.58717434870E+10	1.97075369293E-01	-4.38587972896E+01	1.26783249518E-03	1.17058370504E+02	9.45300245534E-04	1.06304845125E+02	2.94173159744E-01	8.05700096614E+00
7.58777555110E+10	1.95602565039E-01	-4.08804074544E+01	1.24210478141E-03	1.14810164509E+02	9.63794084652E-04	1.01730129857E+02	2.98317894136E-01	5.69587978543E+00
7.58837675351E+10	1.94222114393E-01	-4.22929176614E+01	1.19932551714E-03	1.05491777024E+02	9.10707118514E-04	9.90021948535E+01	2.93828184388E-01	5.51356703611E+00
7.58897795591E+10	1.97426675121E-01	-4.35529804472E+01	1.17272447858E-03	1.02968463619E+02	9.29804263952E-04	9.25843853742E+01	2.93244263488E-01	6.70999430668E+00
7.58957915832E+10	1.98138077661E-01	-4.49383412214E+01	1.16050707344E-03	1.02145930612E+02	8.85453717424E-04	9.46828699398E+01	2.91591384172E-01	5.54331429862E+00
7.59018036072E+10	1.97859915106E-01	-4.39574800421E+01	1.20977093453E-03	9.81330350505E+01	9.46512174353E-04	8.64981642949E+01	2.95269247944E-01	4.04266319272E+00
7.59078156313E+10	1.94781184385E-01	-4.20855466590E+01	1.15542931066E-03	9.36241769632E+01	9.70665052296E-04	8.29489717909E+01	2.97472794810E-01	4.14785817465E+00
7.59138276553E+10	1.95139664588E-01	-4.41197113432E+01	1.17170602418E-03	9.07541596336E+01	8.89692830837E-04	7.87720348481E+01	2.95102037564E-01	4.37643769938E+00
7.59198396794E+10	1.99307045896E-01	-4.46230481865E+01	1.14471246125E-03	8.35844858438E+01	9.02546197202E-04	7.66090752040E+01	2.95237307389E-01	4.72025796371E+00
7.59258517034E+10	1.95376232068E-01	-4.28372775244E+01	1.06453091882E-03	8.48190464381E+01	8.94361539056E-04	7.27845955652E+01	2.97976249314E-01	3.77808970764E+00
7.59318637275E+10	1.95235807626E-01	-4.38891790288E+01	1.12006779343E-03	8.17703337832E+01	8.58155778380E-04	7.25339939902E+01	2.98888229486E-01	4.45710216105E+00
7.59378757515E+10	1.92886366901E-01	-4.40642993760E+01	1.08355237812E-03	7.92868606646E+01	9.09769540902E-04	6.46513166207E+01	2.97041086743E-01	3.83418462509E+00
7.59438877756E+10	1.96523053378E-01	-4.42331037666E+01	1.05379783796E-03	7.56991292089E+01	8.57373275787E-04	6.66733549786E+01	3.00584663774E-01	2.24311458415E+00
7.59498997996E+10	1.96664823683E-01	-4.40389462161E+01	1.13478712262E-03	6.96096647860E+01	8.98286351267E-04	6.11255298130E+01	2.99226520755E-01	1.38563541586E+00
7.59559118236E+10	1.96128961398E-01	-4.45084567711E+01	1.11948684022E-03	7.12643794768E+01	8.41280715194E-04	6.09099465160E+01	2.98155435734E-01	2.39244214588E+00
7.59619238477E+10	1.94446255936E-01	-4.51997498317E+01	1.08613083854E-03	6.64585033933E+01	8.85174267368E-04	5.35406568420E+01	2.95903306976E-01	3.05372861903E+00
7.59679358717E+10	1.94374345376E-01	-4.41849368433E+01	1.15087026320E-03	5.78155170003E+01	8.90142458459E-04	5.04657596042E+01	2.96127187325E-01	1.75729952568E+00
7.59739478958E+10	1.96710410361E-01	-4.43770095060E+01	1.11061566231E-03	5.74186986552E+01	8.68713379587E-04	4.52002179816E+01	2.97888270396E-01	1.99424294998E+00
7.59799599198E+10	1.96919447296E-01	-4.46922305543E+01	1.10168397379E-03	5.15828126261E+01	8.83942315286E-04	3.83724656306E+01	3.01440982369E-01	1.58667364156E+00
7.59859719439E+10	1.91723156213E-01	-4.42431624445E+01	1.10492417068E-03	4.57184308233E+01	8.09737136160E-04	3.79202648052E+01	2.98296410762E-01	7.60762675062E-01
7.59919839679E+10	1.96052414693E-01	-4.51895724149E+01	9.58652814802E-04	4.42408610548E+01	8.11356473322E-04	3.25109681645E+01	3.01972601039E-01	-5.94379649895E-01
7.59979959920E+10	1.97891930547E-01	-4.58260750386E+01	9.76173205986E-04	4.19660352544E+01	7.92192595882E-04	3.21637784124E+01	2.95716805807E-01	1.19421900755E+00
7.60040080160E+10	1.96014880711E-01	-4.64185910556E+01	1.06697484143E-03	4.02754575287E+01	8.25835544711E-04	2.70834393903E+01	3.03271778158E-01	-1.25387930937E+00
7.60100200401E+10	1.96943024879E-01	-4.77138145697E+01	1.02170636157E-03	3.77842673271E+01	8.09628894579E-04	2.01811987429E+01	2.96619679001E-01	7.43651948032E-01
7.60160320641E+10	1.94367141346E-01	-4.59468018379E+01	1.02456134306E-03	3.25897369031E+01	8.27543709339E-04	2.39354321469E+01	3.04421810506E-01	-1.22343275292E+00
7.60220440882E+10	1.94438498251E-01	-4.62707341765E+01	1.07703824868E-03	3.37403845483E+01	8.33366987036E-04	2.18372786743E+01	3.02004074676E-01	1.03259009585E-01
7.60280561122E+10	1.95877434128E-01	-4.69105186774E+01	1.07872799423E-03	2.81536019759E+01	8.84471041533E-04	1.80492942175E+01	2.97077550482E-01	-1.56274233908E+00
7.60340681363E+10	1.95273241116E-01	-4.61566265604E+01	1.03985430624E-03	2.06491989104E+01	8.98378674057E-04	1.10774371953E+01	2.96668684583E-01	-1.38245780359E+00
7.60400801603E+10	1.94078214145E-01	-4.49904168049E+01	1.06422390773E-03	1.72865297367E+01	8.57298140142E-04	8.59029083252E+00	3.00942954018E-01	-2.49288240057E+00
7.60460921844E+10	1.95290315446E-01	-4.69165242777E+01	1.17560246510E-03	1.13860352506E+01	9.54403940996E-04	3.25490971329E+00	3.01010765170E-01	-2.10346480391E+00
7.60521042084E+10	1.93105828926E-01	-4.61664625954E+01	1.11144639857E-03	9.54649808287E+00	9.07733247339E-04	-1.03495741483E-01	3.01339613995E-01	-2.94689407878E+00
7.60581162325E+10	1.95409464994E-01	-4.77730520297E+01	1.10059379682E-03	4.35065749575E+00	8.60272290601E-04	-8.33500626060E+00	3.03266245891E-01	-2.82465333698E+00
7.60641282565E+10	1.97291906540E-01	-4.72842127148E+01	1.09881587110E-03	-2.85171745305E+00	8.11218748652E-04	-8.40034004134E+00	2.98965404760E-01	-3.02112631186E+00
7.60701402806E+10	1.94276801332E-01	-4.64512875578E+01	1.06691834046E-03	7.40932105383E-01	8.02236168340E-04	-1.17718937288E+01	3.00876844825E-01	-3.41395662414E+00
7.60761523046E+10	1.96645842033E-01	-4.95451387582E+01	9.47884968397E-04	-2.65258757761E+00	8.27641372878E-04	-1.33151750166E+01	3.01123856655E-01	-4.00345432527E+00
7.60821643287E+10	1.98458667183E-01	-4.86471241041E+01	1.01148441504E-03	-6.73887627567E+00	8.07978335754E-04	-1.91372103226E+01	2.99927494501E-01	-2.93426570262E+00
7.60881763527E+10	1.98078093688E-01	-4.94469806959E+01	1.08963363989E-03	-1.12267352995E+01	8.17262409711E-04	-1.47142507384E+01	3.02554709859E-01	-4.95869601348E+00
7.60941883768E+10	1.94302088144E-01	-4.92622523767E+01	1.04052779234E-03	-1.20804169128E+01	8.44530843984E-04	-2.15124827291E+01	3.01031430274E-01	-5.33627840547E+00
7.61002004008E+10	1.95748507220E-01	-4.93266092432E+01	1.08047383371E-03	-1.74950864877E+01	8.24148822729E-04	-2.78022779774E+01	3.00435997850E-01	-4.93332008853E+00
7.61062124248E+10	1.98197494672E-01	-4.93509300095E+01	1.12631120906E-03	-2.33951003895E+01	8.62105036738E-04	-3.19534681563E+01	2.98644650100E-01	-3.62833357447E+00
7.61122244489E+10	1.95100965888E-01	-5.10880569908E+01	1.11116496336E-03	-2.26288973866E+01	7.78031763753E-04	-3.43507996478E+01	2.99895827085E-01	-5.38617408969E+00
7.61182364729E+10	1.98833582848E-01	-5.15133262736E+01	1.07692449271E-03	-2.80420164811E+01	8.28404881556E-04	-3.33222412757E+01	3.03858698766E-01	-6.86331846086E+00
7.61242484970E+10	1.93299238711E-01	-5.01113062605E+01	1.03715965055E-03	-3.28807126620E+01	8.27583297563E-04	-4.11632222750E+01	3.03489267952E-01	-6.39405316250E+00
7.61302605210E+10	1.94500109301E-01	-4.99305580676E+01	1.01967362134E-03	-3.55653019395E+01	8.28425790468E-04	-4.81821220892E+01	3.01031832492E-01	-5.04683209895E+00
7.61362725451E+10	1.94738933259E-01	-5.14184341885E+01	1.01831098255E-03	-3.90298851342E+01	7.50550929062E-04	-5.16723089816E+01	3.00540130037E-01	-7.28323999642E+00
7.61422845691E+10	1.97718842067E-01	-5.25688975674E+01	9.17898651382E-04	-4.26993290219E+01	7.14160591884E-04	-5.03403031550E+01	2.99715682896E-01	-6.38926479517E+00
7.61482965932E+10	1.93418234615E-01	-5.24132161124E+01	8.88456947137E-04	-4.66716138026E+01	7.30926937000E-04	-4.95633920400E+01	3.04605634032E-01	-6.88148460197E+00
7.61543086172E+10	1.98313160223E-01	-5.25836559759E+01	9.05114811224E-04	-4.27334617813E+01	7.00565575066E-04	-5.19406612480E+01	3.03927212018E-01	-7.90055997431E+00
7.61603206413E+10	1.95491763591E-01	-5.29784556741E+01	9.24542976632E-04	-4.43332385981E+01	7.65926799042E-04	-5.27826899485E+01	3.07417049350E-01	-8.76030918213E+00
7.61663326653E+10	1.93475190472E-01	-5.14054284735E+01	9.73223213590E-04	-4.75078985685E+01	7.12042567737E-04	-5.85522919021E+01	3.02276645900E-01	-6.98462660561E+00
7.61723446894E+10	1.96707226898E-01	-5.44509575770E+01	8.88032271593E-04	-4.80880228614E+01	7.10641006082E-04	-6.24177780937E+01	3.02733662584E-01	-8.20236267246E+00
7.61783567134E+10	1.96382315421E-01	-5.47214150719E+01	8.63585397329E-04	-5.42153358459E+01	7.12785150032E-04	-6.55835890452E+01	3.02485574603E-01	-7.63517310619E+00
7.61843687375E+10	1.93135666698E-01	-5.35434283994E+01	7.71043157671E-04	-5.20325599245E+01	6.50206339785E-04	-5.81716509815E+01	3.03498761530E-01	-9.44209588898E+00
7.61903807615E+10	1.94030182567E-01	-5.56293027174E+01	8.10350234307E-04	-5.33150181412E+01	6.35028345500E-04	-6.45390903824E+01	3.02738989408E-01	-8.88194150476E+00
7.61963927856E+10	1.94838216906E-01	-5.52365944509E+01	8.07251402923E-04	-5.19367376775E+01	6.28232816542E-04	-6.37326535418E+01	3.02584344166E-01	-8.37470280898E+00
7.62024048096E+10	1.91432387364E-01	-5.66903597426E+01	7.78252751070E-04	-5.25010845794E+01	6.44567636038E-04	-6.67806233999E+01	3.03769769180E-01	-9.19910727994E+00
7.62084168337E+10	1.91023379504E-01	-5.60172117926E+01	8.74775438097E-04	-6.30533813215E+01	7.01707254330E-04	-6.56259303543E+01	3.03905456375E-01	-9.93605179646E+00
7.62144288577E+10	1.92201201845E-01	-5.61398210359E+01	7.78079373477E-04	-5.87388941453E+01	6.18951549953E-04	-7.10956315230E+01	3.05676253904E-01	-1.02582228061E+01
7.62204408818E+10	1.92705824320E-01	-5.70335935856E+01	7.96292964130E-04	-5.58486861757E+01	6.16234630429E-04	-7.17824428384E+01	3.03825146205E-01	-1.00584079618E+01
7.62264529058E+10	1.91961031839E-01	-5.69487416582E+01	7.29388626690E-04	-5.78266127106E+01	5.72601407972E-04	-6.58468138635E+01	3.03424783171E-01	-1.09653199148E+01
7.62324649299E+10	1.89847507844E-01	-5.64776760785E+01	8.48586081569E-04	-5.44225885138E+01	6.35385099565E-04	-6.57113046353E+01	3.02710881321E-01	-1.01296264139E+01
7.62384769539E+10	1.89057395087E-01	-5.66466888086E+01	8.73304974583E-04	-5.57602105213E+01	6.56305557600E-04	-6.67031124745E+01	3.02267967647E-01	-1.09153374206E+01
7.62444889780E+10	1.88201999237E-01	-5.69319417976E+01	8.99024720389E-04	-5.89664336959E+01	6.83466178289E-04	-6.85086424858E+01	3.04796453952E-01	-1.14203540139E+01
7.62505010020E+10	1.89637061674E-01	-5.70620603428E+01	9.61023202954E-04	-6.10370733066E+01	7.10908675998E-04	-6.99465137072E+01	3.08077820172E-01	-1.27832519157E+01
7.62565130261E+10	1.89254318579E-01	-5.78280587383E+01	9.52436098334E-04	-6.22012637669E+01	6.87748368863E-04	-7.44402680740E+01	3.03582253937E-01	-1.11930088902E+01
7.62625250501E+10	1.88193415045E-01	-5.92818314357E+01	8.88788566682E-04	-6.44496190770E+01	7.17229543179E-04	-7.26896337099E+01	3.10593891153E-01	-1.31860486921E+01
7.62685370741E+10	1.86651561068E-01	-5.81162833676E+01	9.23865676577E-04	-6.46939218827E+01	7.61602140491E-04	-7.44755991041E+01	3.06862366647E-01	-1.31337189616E+01
7.62745490982E+10	1.86482272195E-01	-6.00494635669E+01	9.09674823140E-04	-6.56800676035E+01	7.63539953565E-04	-7.44215321861E+01	3.10152744756E-01	-1.33271003226E+01
7.62805611222E+10	1.87744824448E-01	-6.03211692332E+01	9.98019202816E-04	-7.31339265155E+01	7.48850597175E-04	-7.78299339618E+01	3.05734315900E-01	-1.35719785328E+01
7.62865731463E+10	1.85425916854E-01	-5.80132561398E+01	9.51747626477E-04	-7.10388275797E+01	7.83630195131E-04	-7.74943447014E+01	3.04040928502E-01	-1.32972172538E+01
7.62925851703E+10	1.83334858517E-01	-5.92118225819E+01	9.87817890607E-04	-6.76358595740E+01	7.72283670957E-04	-8.13311281362E+01	3.04472478835E-01	-1.33230933289E+01
7.62985971944E+10	1.84467207779E-01	-5.95813433263E+01	1.02314383008E-03	-6.77071956839E+01	7.59211594956E-04	-7.64655181358E+01	3.05479194317E-01	-1.34004716959E+01
7.63046092184E+10	1.82427378699E-01	-6.07912753841E+01	1.04886713596E-03	-6.62253096884E+01	8.29559647364E-04	-7.84824651210E+01	3.06522118862E-01	-1.36915973993E+01
7.63106212425E+10	1.82402815925E-01	-6.00439793969E+01	1.10137410046E-03	-7.47765169698E+01	8.65105883943E-04	-8.15665340848E+01	3.08475389259E-01	-1.50054145676E+01
7.63166332665E+10	1.79429319456E-01	-5.97562141258E+01	1.14140011976E-03	-7.91816931791E+01	8.71164124153E-04	-8.70634567952E+01	3.05593617470E-01	-1.49491651473E+01
7.63226452906E+10	1.83704710604E-01	-6.10345604475E+01	1.10146150965E-03	-7.92909331852E+01	8.94133816544E-04	-8.73882231082E+01	3.06794628977E-01	-1.64154746288E+01
7.63286573146E+10	1.79228198794E-01	-6.05907759626E+01	1.12500278801E-03	-7.69993897591E+01	8.89446504791E-04	-9.06347134187E+01	3.05267440317E-01	-1.56691644924E+01
7.63346693387E+10	1.78180786063E-01	-6.17928218817E+01	1.12245445233E-03	-8.53770601123E+01	9.06444058017E-04	-8.93589963044E+01	3.09341872555E-01	-1.59724616652E+01
7.63406813627E+10	1.77522560633E-01	-6.04890302029E+01	1.17611605003E-03	-8.76670714026E+01	9.10024986976E-04	-9.15865057673E+01	3.07009202931E-01	-1.72615151758E+01
7.63466933868E+10	1.81871687974E-01	-6.33172472640E+01	1.21673969909E-03	-8.60377244414E+01	8.96616072747E-04	-9.50700992400E+01	3.06203935528E-01	-1.70487808447E+01
7.63527054108E+10	1.77676999273E-01	-6.21999084101E+01	1.18739025039E-03	-8.90167165174E+01	9.64384498646E-04	-9.59091535887E+01	3.08685526307E-01	-1.68527056392E+01
7.63587174349E+10	1.75224797565E-01	-6.03585567678E+01	1.24257922110E-03	-9.10524054990E+01	9.63169872111E-04	-9.85870931923E+01	3.08263725594E-01	-1.65800468185E+01
7.63647294589E+10	1.77137015863E-01	-6.21092431905E+01	1.22478510450E-03	-9.42875467753E+01	9.44025840594E-04	-9.93722908763E+01	3.09039882367E-01	-1.82540558257E+01
7.63707414830E+10	1.76798258462E-01	-6.26111064989E+01	1.23214948990E-03	-9.77472917666E+01	1.00631531972E-03	-1.00992435154E+02	3.07906301681E-01	-1.94009941927E+01
7.63767535070E+10	1.75771775895E-01	-6.27955362687E+01	1.24012439398E-03	-9.61931139243E+01	1.02046527312E-03	-1.04027251317E+02	3.07912952020E-01	-1.89062673955E+01
7.63827655311E+10	1.74841759294E-01	-6.37318713517E+01	1.24137216285E-03	-9.89810419225E+01	9.82650264161E-04	-1.05181735713E+02	3.06692317898E-01	-1.85453201136E+01
7.63887775551E+10	1.74094282778E-01	-6.25424372689E+01	1.34070046213E-03	-1.02456798691E+02	1.09773917724E-03	-1.05197804502E+02	3.07077478719E-01	-1.92025109036E+01
7.63947895792E+10	1.72615416647E-01	-6.23527902713E+01	1.34558771003E-03	-1.04108426086E+02	9.90429663522E-04	-1.06515215818E+02	3.05179921156E-01	-1.88719584543E+01
7.64008016032E+10	1.69810289918E-01	-6.34930871998E+01	1.34019760379E-03	-1.06661009510E+02	1.06344929456E-03	-1.09927545092E+02	3.02534973902E-01	-1.93638668972E+01
7.64068136273E+10	1.73946479724E-01	-6.34500946108E+01	1.27157337728E-03	-1.06210823940E+02	1.03493232176E-03	-1.12704976925E+02	3.05880584582E-01	-2.14246529715E+01
7.64128256513E+10	1.72893374239E-01	-6.49082928033E+01	1.33840470246E-03	-1.10577186834E+02	1.04240810397E-03	-1.13180217020E+02	3.05892020938E-01	-2.09852980206E+01
7.64188376754E+10	1.70359259163E-01	-6.36658088933E+01	1.33143268894E-03	-1.11606221060E+02	1.09835816338E-03	-1.17159316832E+02	3.05424399496E-01	-2.01709017215E+01
7.64248496994E+10	1.68639838208E-01	-6.23641372873E+01	1.37546478531E-03	-1.13538991174E+02	1.06144476644E-03	-1.16455867760E+02	3.03669624351E-01	-2.17924886388E+01
7.64308617234E+10	1.70466467625E-01	-6.36187498402E+01	1.39662950470E-03	-1.16778187521E+02	1.12654003336E-03	-1.22042734391E+02	3.05331456729E-01	-2.24956675221E+01
7.64368737475E+10	1.69665513427E-01	-6.41773014448E+01	1.44326249820E-03	-1.16076040780E+02	1.14281432779E-03	-1.21626258534E+02	3.09015116929E-01	-2.27916371045E+01
7.64428857715E+10	1.69356613996E-01	-6.39728239811E+01	1.45846238791E-03	-1.18525808774E+02	1.15247052281E-03	-1.27003259919E+02	3.03221769980E-01	-2.11524863228E+01
7.64488977956E+10	1.69327165406E-01	-6.64348286209E+01	1.40922523482E-03	-1.23617996855E+02	1.15133398058E-03	-1.29395610785E+02	3.03939221100E-01	-2.21391630821E+01
7.64549098196E+10	1.66781805929E-01	-6.54168933318E+01	1.36118125532E-03	-1.25725603459E+02	1.08652731284E-03	-1.33924265570E+02	3.01889841850E-01	-2.15073277175E+01
7.64609218437E+10	1.66459479179E-01	-6.56595196650E+01	1.25127585971E-03	-1.27170307493E+02	1.09527805672E-03	-1.36283602990E+02	3.03957505559E-01	-2.34891295710E+01
7.64669338677E+10	1.66509276608E-01	-6.55249905886E+01	1.28963483476E-03	-1.30744558175E+02	1.07152608270E-03	-1.34755659964E+02	3.05248688072E-01	-2.49246923287E+01
7.64729458918E+10	1.66391610471E-01	-6.43643785882E+01	1.31552504413E-03	-1.26853719329E+02	1.07825865561E-03	-1.32508315947E+02	3.02025314092E-01	-2.29159945847E+01
7.64789579158E+10	1.67860707456E-01	-6.58675115914E+01	1.35510779083E-03	-1.29880314791E+02	1.08327630577E-03	-1.36711601816E+02	3.02387930433E-01	-2.37954833669E+01
7.64849699399E+10	1.67847750547E-01	-6.60765680288E+01	1.35230701007E-03	-1.35316253934E+02	1.11104492252E-03	-1.36147807415E+02	3.04327735064E-01	-2.48313935782E+01
7.64909819639E+10	1.64872112879E-01	-6.58105312787E+01	1.37853609659E-03	-1.36264525574E+02	1.13653948032E-03	-1.44358494494E+02	3.00898414224E-01	-2.42316438575E+01
7.64969939880E+10	1.65336888810E-01	-6.69802413581E+01	1.41735975069E-03	-1.38637786463E+02	1.20563755529E-03	-1.42099236157E+02	3.00207978124E-01	-2.54038263874E+01
7.65030060120E+10	1.64335909156E-01	-6.75342621779E+01	1.34118555791E-03	-1.40926893843E+02	1.15318863645E-03	-1.45213236499E+02	3.00852451958E-01	-2.57399909515E+01
7.65090180361E+10	1.65729507244E-01	-6.74023988220E+01	1.40121454663E-03	-1.42619798167E+02	1.13416252309E-03	-1.52008051370E+02	2.96852981015E-01	-2.45288663794E+01
7.65150300601E+10	1.63960066720E-01	-6.61675456250E+01	1.24607204065E-03	-1.47782324452E+02	9.87969936433E-04	-1.50817550922E+02	2.97520264748E-01	-2.56275686623E+01
7.65210420842E+10	1.61377149802E-01	-6.58343592294E+01	1.22624936163E-03	-1.45477391579E+02	1.05513818399E-03	-1.54050788622E+02	3.01605816955E-01	-2.70191545627E+01
7.65270541082E+10	1.60077627354E-01	-6.48736624967E+01	1.26396919963E-03	-1.43351056840E+02	1.01167062533E-03	-1.49451357440E+02	2.97150871716E-01	-2.52051558080E+01
7.65330661323E+10	1.62551873859E-01	-6.60788041904E+01	1.33630735097E-03	-1.48409919297E+02	1.09429394760E-03	-1.49693658913E+02	3.00013752814E-01	-2.72084151558E+01
7.65390781563E+10	1.63190633514E-01	-6.74536912660E+01	1.36794470851E-03	-1.52722056212E+02	1.09950503323E-03	-1.55556692626E+02	2.93635985376E-01	-2.60608368145E+01
7.65450901804E+10	1.64606649438E-01	-6.78846179482E+01	1.32858689867E-03	-1.53055121447E+02	1.11656069254E-03	-1.59141417625E+02	2.94489167617E-01	-2.69505153288E+01
7.65511022044E+10	1.61673382118E-01	-6.69206629086E+01	1.27160498163E-03	-1.53492480517E+02	1.06644906451E-03	-1.62836338270E+02	2.93457648239E-01	-2.71099177957E+01
7.65571142285E+10	1.58613460058E-01	-6.49198156168E+01	1.22290240921E-03	-1.59487071524E+02	1.03427087894E-03	-1.63298957633E+02	2.95104502070E-01	-2.72155867073E+01
7.65631262525E+10	1.60638571323E-01	-6.68576493860E+01	1.20446137917E-03	-1.59005860848E+02	1.02071658483E-03	-1.65250825909E+02	2.95883168158E-01	-2.77311606716E+01
7.65691382766E+10	1.61224742014E-01	-6.83420886182E+01	1.18949650552E-03	-1.56597125824E+02	1.04285227814E-03	-1.66063599940E+02	2.89980590150E-01	-2.74844021711E+01
7.65751503006E+10	1.60821070683E-01	-6.84092373732E+01	1.19894092094E-03	-1.57348303704E+02	1.01428327596E-03	-1.70604816531E+02	2.92351322280E-01	-2.76706840860E+01
7.65811623246E+10	1.59703928890E-01	-6.79892773383E+01	1.06828426609E-03	-1.61552960063E+02	9.75026840398E-04	-1.68587985776E+02	2.91036694124E-01	-2.70209462922E+01
7.65871743487E+10	1.58729540448E-01	-6.72578996033E+01	1.12084711544E-03	-1.60414275460E+02	1.00908744786E-03	-1.68036855654E+02	2.94824121428E-01	-2.98344317071E+01
7.65931863727E+10	1.56837549463E-01	-6.52736311469E+01	1.10223192706E-03	-1.66496478578E+02	9.95380941860E-04	-1.70965764653E+02	2.91987882770E-01	-2.92292527211E+01
7.65991983968E+10	1.59657262947E-01	-6.78051161878E+01	1.18552947436E-03	-1.62017456685E+02	9.42013473830E-04	-1.74731013703E+02	2.90641517644E-01	-2.85224806418E+01
7.66052104208E+10	1.57944994606E-01	-6.76476321674E+01	1.08845648238E-03	-1.67224049476E+02	9.26681064992E-04	-1.75711437641E+02	2.88715765445E-01	-2.91809610756E+01
7.66112224449E+10	1.55985317425E-01	-6.69601059908E+01	1.13871910148E-03	-1.67105220432E+02	9.05633995084E-04	-1.73244076846E+02	2.92931194129E-01	-3.08419664679E+01
7.66172344689E+10	1.56690916825E-01	-6.62774223436E+01	1.08201784467E-03	-1.69233391467E+02	8.79027790234E-04	-1.73205625554E+02	2.92556806210E-01	-3.13062896793E+01
7.66232464930E+10	1.58263366034E-01	-6.79269691949E+01	1.06782147180E-03	-1.68636284612E+02	9.39093843846E-04	-1.74881769606E+02	2.90057642563E-01	-3.07272115728E+01
7.66292585170E+10	1.59199692646E-01	-6.82899960677E+01	1.05984710353E-03	-1.69140476357E+02	9.44264684700E-04	-1.75418054912E+02	2.87235055757E-01	-3.07720909198E+01
7.66352705411E+10	1.56070066345E-01	-6.64061984262E+01	1.04835879497E-03	-1.71209754626E+02	8.72939969742E-04	1.79669503386E+02	2.84818113675E-01	-2.99841718883E+01
7.66412825651E+10	1.56204370507E-01	-6.71841019339E+01	1.13460118984E-03	-1.71181905087E+02	8.91078941462E-04	-1.75818077523E+02	2.87369127910E-01	-3.15779878286E+01
7.66472945892E+10	1.56827095809E-01	-6.82686086690E+01	1.02623024928E-03	-1.73973028591E+02	8.90127542681E-04	1.79612145158E+02	2.87691068274E-01	-3.12804879238E+01
7.66533066132E+10	1.57355286345E-01	-6.81388061223E+01	1.03572212612E-03	-1.74861647352E+02	8.79303624069E-04	1.75983621795E+02	2.86687896171E-01	-3.07945977136E+01
7.66593186373E+10	1.53312901732E-01	-6.68285556582E+01	1.02988529375E-03	-1.71117604630E+02	7.88735455404E-04	-1.76426261203E+02	2.85892062789E-01	-3.26825634887E+01
7.66653306613E+10	1.57937251207E-01	-6.96517429956E+01	9.98618501216E-04	-1.69149647849E+02	8.28533502806E-04	-1.76085399781E+02	2.85097628193E-01	-3.17529977148E+01
7.66713426854E+10	1.56055280193E-01	-6.74403789277E+01	1.04114354721E-03	-1.71333261569E+02	8.67666855454E-04	-1.78771366291E+02	2.84176233672E-01	-3.16145097836E+01
7.66773547094E+10	1.57930372266E-01	-6.88114221407E+01	1.09747654396E-03	-1.68672497914E+02	8.54702682551E-04	-1.77224642822E+02	2.83296403803E-01	-3.35750379014E+01
7.66833667335E+10	1.56304729050E-01	-6.81612454981E+01	1.07029979043E-03	-1.68073930680E+02	8.79193295167E-04	-1.77686663367E+02	2.88386974318E-01	-3.35751540975E+01
7.66893787575E+10	1.55732596993E-01	-6.97256442426E+01	1.07719581056E-03	-1.72245641831E+02	8.90841685235E-04	-1.77422885818E+02	2.83507265631E-01	-3.32164765704E+01
7.66953907816E+10	1.55391835099E-01	-6.78908188524E+01	1.05991134420E-03	-1.72910633023E+02	8.81154933308E-04	-1.77816115293E+02	2.81219899016E-01	-3.22636686523E+01
7.67014028056E+10	1.58103619221E-01	-6.94074733479E+01	1.05145378643E-03	-1.74265928500E+02	9.13687750749E-04	-1.79148721852E+02	2.83271075562E-01	-3.44441278324E+01
7.67074148297E+10	1.56876000115E-01	-6.91192206146E+01	1.11975234522E-03	-1.75809485070E+02	9.41025944600E-04	1.73698233815E+02	2.80169054442E-01	-3.30624854789E+01
7.67134268537E+10	1.54256513523E-01	-6.83746410606E+01	1.13377424875E-03	-1.74746932840E+02	9.34746191738E-04	-1.79610682179E+02	2.79335219780E-01	-3.37097441388E+01
7.67194388778E+10	1.56448664486E-01	-6.94843323628E+01	1.10836131765E-03	-1.79999682636E+02	9.54834910697E-04	1.74377289338E+02	2.80147925585E-01	-3.42118383505E+01
7.67254509018E+10	1.56565621682E-01	-6.98385621233E+01	1.14965690218E-03	-1.77126691498E+02	9.45185074085E-04	1.75919300225E+02	2.80213176058E-01	-3.32136538390E+01
7.67314629259E+10	1.55372693819E-01	-7.02681376515E+01	1.10551843674E-03	-1.76732593380E+02	9.39716565957E-04	1.69578977681E+02	2.81860703794E-01	-3.42470124008E+01
7.67374749499E+10	1.56787631664E-01	-6.98819912592E+01	1.11045720036E-03	1.79411549182E+02	8.93749983554E-04	1.71651904325E+02	2.77447114036E-01	-3.47428982506E+01
7.67434869739E+10	1.55839807025E-01	-6.87483153949E+01	1.03958295539E-03	1.79071218935E+02	9.24303201121E-04	1.74125655955E+02	2.77161353006E-01	-3.51576370429E+01
7.67494989980E+10	1.54359636612E-01	-6.90038579662E+01	1.16951723420E-03	1.79459276174E+02	9.74107484450E-04	1.75441629967E+02	2.74952904561E-01	-3.48719455675E+01
7.67555110220E+10	1.52074790930E-01	-6.96016728398E+01	1.24856046902E-03	1.77170217286E+02	9.70116104665E-04	1.70409056846E+02	2.76245483074E-01	-3.49903735357E+01
7.67615230461E+10	1.54690790721E-01	-7.08714567534E+01	1.19436429882E-03	1.77209101412E+02	9.71158723465E-04	1.68670608571E+02	2.75803825008E-01	-3.56997926107E+01
7.67675350701E+10	1.54303931945E-01	-7.06531790210E+01	1.23836165564E-03	1.71720292330E+02	1.01619918013E-03	1.65697224783E+02	2.74585807920E-01	-3.65055642143E+01
7.67735470942E+10	1.53495147813E-01	-6.93510705282E+01	1.23744737349E-03	1.69810796999E+02	1.03507014950E-03	1.61683108279E+02	2.72737452058E-01	-3.51358354100E+01
7.67795591182E+10	1.55315735805E-01	-7.02618578156E+01	1.24954115560E-03	1.71002798240E+02	1.01897495465E-03	1.58242025068E+02	2.71389939656E-01	-3.48514070554E+01
7.67855711423E+10	1.55023014574E-01	-7.00813580284E+01	1.22081494345E-03	1.71069032740E+02	9.59413837034E-04	1.66236444262E+02	2.70021736196E-01	-3.52359999756E+01
7.67915831663E+10	1.52603286631E-01	-7.08812209784E+01	1.18979497007E-03	1.70128696762E+02	9.99969256044E-04	1.63211373200E+02	2.73109449924E-01	-3.64484938842E+01
7.67975951904E+10	1.54158516870E-01	-7.07372998638E+01	1.22077752943E-03	1.70229904953E+02	1.03262457854E-03	1.58702724816E+02	2.72289798513E-01	-3.68633588701E+01
7.68036072144E+10	1.51310869461E-01	-7.14735554504E+01	1.27462480454E-03	1.68236753013E+02	1.05654526934E-03	1.57921593878E+02	2.71466908343E-01	-3.56229391765E+01
7.68096192385E+10	1.54561314382E-01	-7.23305985638E+01	1.27597710912E-03	1.65551335052E+02	1.02780464200E-03	1.58083027090E+02	2.72254947597E-01	-3.63336837868E+01
7.68156312625E+10	1.51097942079E-01	-6.97998889172E+01	1.32844010232E-03	1.64230021616E+02	1.01853705781E-03	1.56908227783E+02	2.70634396683E-01	-3.72173062470E+01
7.68216432866E+10	1.51445913175E-01	-7.08319365109E+01	1.25169492845E-03	1.63547075825E+02	9.96713824409E-04	1.57524539856E+02	2.65683793512E-01	-3.60931283198E+01
7.68276553106E+10	1.50858223419E-01	-7.13334031771E+01	1.27202425614E-03	1.62741828483E+02	1.04166625492E-03	1.50519418717E+02	2.68700639261E-01	-3.68501372315E+01
7.68336673347E+10	1.53838203208E-01	-7.31012503044E+01	1.26635519577E-03	1.60862675971E+02	1.06224601285E-03	1.48775059076E+02	2.67862252030E-01	-3.61315068480E+01
7.68396793587E+10	1.52932244398E-01	-7.16906923294E+01	1.21722906216E-03	1.58007366322E+02	1.03016873397E-03	1.47712230017E+02	2.65735239586E-01	-3.71623585865E+01
7.68456913828E+10	1.52043655804E-01	-7.12728328667E+01	1.22404696292E-03	1.55684232853E+02	1.00683921461E-03	1.47157521004E+02	2.67138425266E-01	-3.70201491159E+01
7.68517034068E+10	1.51980923197E-01	-7.14852637554E+01	1.15672688875E-03	1.54534940895E+02	9.94151244044E-04	1.47361433807E+02	2.65526260069E-01	-3.66441403516E+01
7.68577154309E+10	1.48781455347E-01	-7.18382851036E+01	1.19320111620E-03	1.54098890050E+02	1.00987791736E-03	1.44452414946E+02	2.66906647470E-01	-3.74490261163E+01
7.68637274549E+10	1.52562351965E-01	-7.27128639260E+01	1.18926683985E-03	1.57834343523E+02	9.74758045917E-04	1.46109712715E+02	2.66331278358E-01	-3.70404797209E+01
7.68697394790E+10	1.51153572200E-01	-7.24039295280E+01	1.20278210423E-03	1.57593788661E+02	1.02030278321E-03	1.48921096937E+02	2.66543615179E-01	-3.74196916306E+01
7.68757515030E+10	1.49561399890E-01	-7.06666891061E+01	1.21354041107E-03	1.56269505072E+02	1.03982698265E-03	1.47756585623E+02	2.63869163649E-01	-3.77505303244E+01
7.68817635271E+10	1.53918880642E-01	-7.35701595505E+01	1.25352937344E-03	1.55419224091E+02	1.05627797631E-03	1.43411986267E+02	2.60788132899E-01	-3.72156924681E+01
7.68877755511E+10	1.48800707721E-01	-7.10126606231E+01	1.35772698995E-03	1.50604876888E+02	1.09719300973E-03	1.42653259446E+02	2.62560064499E-01	-3.76594202737E+01
7.68937875752E+10	1.52147187834E-01	-7.29656287710E+01	1.42836753593E-03	1.47175318618E+02	1.12970874210E-03	1.37691315434E+02	2.63298500840E-01	-3.79305799229E+01
7.68997995992E+10	1.50590782606E-01	-7.34443255535E+01	1.36424677426E-03	1.47802338749E+02	1.12613616625E-03	1.35585542136E+02	2.63847425831E-01	-3.90144312836E+01
7.69058116232E+10	1.51344826479E-01	-7.37432223624E+01	1.34266222082E-03	1.41163682960E+02	1.07901905323E-03	1.32007556700E+02	2.61598638940E-01	-3.78374687201E+01
7.69118236473E+10	1.48569320672E-01	-7.29853943014E+01	1.29609678321E-03	1.41350883128E+02	1.07727475406E-03	1.33372755989E+02	2.63304149021E-01	-3.86871168909E+01
7.69178356713E+10	1.51130352303E-01	-7.34193585616E+01	1.28549036712E-03	1.36166573309E+02	1.05159713964E-03	1.29661688810E+02	2.61357694025E-01	-3.87981866773E+01
7.69238476954E+10	1.49593292207E-01	-7.27033705081E+01	1.24471228676E-03	1.38613452666E+02	1.06594729258E-03	1.30999009909E+02	2.62802250247E-01	-3.90569871471E+01
7.69298597194E+10	1.54396652267E-01	-7.52754603936E+01	1.29339403294E-03	1.37791241195E+02	1.01520655364E-03	1.35899814385E+02	2.61651543163E-01	-3.86894339505E+01
7.69358717435E+10	1.50180376237E-01	-7.44190598261E+01	1.29694156468E-03	1.41043917822E+02	1.07127778130E-03	1.32608643470E+02	2.62454378425E-01	-3.83537513632E+01
7.69418837675E+10	1.49061168266E-01	-7.35877974415E+01	1.29978674806E-03	1.35111062090E+02	1.10384943990E-03	1.31930507240E+02	2.60779872800E-01	-3.95547079173E+01
7.69478957916E+10	1.50940090339E-01	-7.34241953477E+01	1.32624019101E-03	1.31840833219E+02	1.11518867430E-03	1.24707560172E+02	2.57355174913E-01	-3.79244342793E+01
7.69539078156E+10	1.49395611142E-01	-7.28955322815E+01	1.30951464968E-03	1.34105373169E+02	1.17133367174E-03	1.25905146018E+02	2.61808234209E-01	-3.90797727501E+01
7.69599198397E+10	1.48152194115E-01	-7.27987559945E+01	1.33637575541E-03	1.32532974268E+02	1.11272004683E-03	1.22039616626E+02	2.62590587586E-01	-3.94828936385E+01
7.69659318637E+10	1.50851607281E-01	-7.41481259600E+01	1.35264556377E-03	1.29296928059E+02	1.09767535510E-03	1.22268718045E+02	2.58653195518E-01	-3.94062636293E+01
7.69719438878E+10	1.50138730186E-01	-7.51514640533E+01	1.31918606967E-03	1.27815750781E+02	1.13657347701E-03	1.18570269893E+02	2.58091536684E-01	-3.81480518460E+01
7.69779559118E+10	1.49270174590E-01	-7.40143613954E+01	1.31776066245E-03	1.24000524814E+02	1.08868402629E-03	1.13752367732E+02	2.55635359148E-01	-3.90107512481E+01
7.69839679359E+10	1.46655280175E-01	-7.14396817554E+01	1.19048346339E-03	1.22481111044E+02	1.00815664031E-03	1.14672239571E+02	2.55776739328E-01	-3.82230648885E+01
7.69899799599E+10	1.47935964270E-01	-7.24475296849E+01	1.19964615961E-03	1.18383141720E+02	9.97234431519E-04	1.15700212495E+02	2.57234034926E-01	-3.93190824027E+01
7.69959919840E+10	1.49057356816E-01	-7.39893647100E+01	1.21845397898E-03	1.20537741275E+02	9.87443697880E-04	1.12532422899E+02	2.57096490880E-01	-3.82147997215E+01
7.70020040080E+10	1.50843570987E-01	-7.52016928536E+01	1.19905081478E-03	1.19005004974E+02	9.95076966856E-04	1.12909042542E+02	2.60493214516E-01	-3.97262136239E+01
7.70080160321E+10	1.52402642765E-01	-7.61089333914E+01	1.13359256458E-03	1.20522300317E+02	9.96957436519E-04	1.07856485404E+02	2.59031805331E-01	-3.96462993702E+01
7.70140280561E+10	1.52786471816E-01	-7.51078645728E+01	1.15645206305E-03	1.17510225695E+02	9.56351109884E-04	1.07634646653E+02	2.56902825577E-01	-3.81425386237E+01
7.70200400802E+10	1.50496475470E-01	-7.40961813126E+01	1.16460911039E-03	1.14842161221E+02	1.01482162240E-03	1.06282179861E+02	2.57409067333E-01	-3.84207703728E+01
7.70260521042E+10	1.49485176637E-01	-7.50873072116E+01	1.09759801410E-03	1.14040013580E+02	9.53057711615E-04	1.02980961473E+02	2.55371832536E-01	-3.91845338268E+01
7.70320641283E+10	1.49545780077E-01	-7.44085249316E+01	1.05635963064E-03	1.11767404785E+02	9.92974289121E-04	1.05272536831E+02	2.55790947300E-01	-3.93727355680E+01
7.70380761523E+10	1.53131216096E-01	-7.64409652291E+01	1.09667810387E-03	1.10008287097E+02	9.17985711404E-04	1.04603776099E+02	2.61534379521E-01	-4.06458535082E+01
7.70440881764E+10	1.49908827457E-01	-7.56566440812E+01	1.02609316953E-03	1.15635695824E+02	9.16436634854E-04	1.05619780058E+02	2.59901743212E-01	-4.05688986168E+01
7.70501002004E+10	1.51442103812E-01	-7.55799192274E+01	1.05337446584E-03	1.12550485094E+02	9.43350609665E-04	1.05773506520E+02	2.56744697799E-01	-3.90035194836E+01
7.70561122244E+10	1.52541640112E-01	-7.49128757678E+01	1.07410967298E-03	1.10572899421E+02	9.36814079755E-04	1.01059745299E+02	2.57217737700E-01	-3.98761569428E+01
7.70621242485E+10	1.54032451932E-01	-7.68347428798E+01	1.01263360242E-03	1.08276919359E+02	8.19047163090E-04	9.77002529982E+01	2.56512700996E-01	-4.04781189014E+01
7.70681362725E+10	1.51842821539E-01	-7.65173675878E+01	8.96645643781E-04	1.06244134121E+02	7.92471848133E-04	1.01283774052E+02	2.59754277901E-01	-3.94426288269E+01
7.70741482966E+10	1.50627285567E-01	-7.44801355065E+01	9.81560763561E-04	1.11912400278E+02	8.19496290798E-04	1.03833264474E+02	2.60771823052E-01	-3.90235324200E+01
7.70801603206E+10	1.52428237677E-01	-7.56964739651E+01	9.70892928051E-04	1.10186683251E+02	8.70386321932E-04	9.92549498089E+01	2.59573961220E-01	-3.87664837569E+01
7.70861723447E+10	1.52106581762E-01	-7.68810605492E+01	1.04906778930E-03	1.10063289114E+02	8.47379899861E-04	1.05957832276E+02	2.61366758900E-01	-4.04348998484E+01
7.70921843687E+10	1.51125709670E-01	-7.57206808752E+01	9.85821840215E-04	1.11752665906E+02	8.19516591674E-04	1.02685928457E+02	2.60377284927E-01	-4.12238763233E+01
7.70981963928E+10	1.55539716694E-01	-7.71751409797E+01	1.00699252479E-03	1.08460843319E+02	8.60036726368E-04	9.43320687395E+01	2.59862648915E-01	-3.97085813911E+01
7.71042084168E+10	1.56194148407E-01	-7.79642937077E+01	8.49099506031E-04	1.02914780587E+02	7.76684277437E-04	1.01018040617E+02	2.60072751783E-01	-4.05116264777E+01
7.71102204409E+10	1.55817402780E-01	-7.77407920386E+01	9.17542262732E-04	1.12982626895E+02	7.54380563147E-04	1.05114032605E+02	2.60685432023E-01	-4.08497526320E+01
7.71162324649E+10	1.53429350502E-01	-7.66730079346E+01	8.88286246058E-04	1.12292354955E+02	7.82632285540E-04	1.02597322775E+02	2.59601627667E-01	-4.01933236155E+01
7.71222444890E+10	1.51994152757E-01	-7.81217907591E+01	9.13331910554E-04	1.10485103198E+02	7.82790810753E-04	1.03957484864E+02	2.62614288222E-01	-4.11633464787E+01
7.71282565130E+10	1.53542840695E-01	-7.77933129243E+01	9.39194581048E-04	1.15881010982E+02	8.25583583817E-04	1.04312352299E+02	2.59683827376E-01	-4.08183737733E+01
7.71342685371E+10	1.54232211088E-01	-7.82511112990E+01	1.01911552169E-03	1.14692839094E+02	8.33177287680E-04	1.04622450421E+02	2.58663714479E-01	-4.01768409145E+01
7.71402805611E+10	1.58634950835E-01	-8.01309951717E+01	9.46574290542E-04	1.14000885810E+02	8.82270378272E-04	1.02967745034E+02	2.62922988092E-01	-4.21654459570E+01
7.71462925852E+10	1.52962777127E-01	-7.98222217315E+01	1.10587568741E-03	1.15925280967E+02	9.08670640311E-04	1.05260635580E+02	2.63781348320E-01	-4.18493563309E+01
7.71523046092E+10	1.53908214385E-01	-7.92387439167E+01	1.03591150307E-03	1.15906044927E+02	8.87357673933E-04	1.03058798389E+02	2.59533103160E-01	-4.08279409929E+01
7.71583166333E+10	1.56363894441E-01	-7.95054856590E+01	1.10540707073E-03	1.15766453161E+02	9.47262994567E-04	1.03096984712E+02	2.62919830163E-01	-4.09670898722E+01
7.71643286573E+10	1.54262494890E-01	-7.85619310287E+01	1.07445921271E-03	1.14864242444E+02	9.46750513316E-04	9.95089451684E+01	2.65731469816E-01	-4.22583900878E+01
7.71703406814E+10	1.54189341718E-01	-8.08750055448E+01	1.07616417656E-03	1.12250114087E+02	9.48369137292E-04	1.00718544965E+02	2.61785912781E-01	-4.19456606286E+01
7.71763527054E+10	1.52681331497E-01	-7.92630442404E+01	1.11783187353E-03	1.10949056723E+02	9.40141556977E-04	9.66870958080E+01	2.66933051254E-01	-4.09136167440E+01
7.71823647295E+10	1.53481621228E-01	-7.92569302202E+01	1.09998175420E-03	1.06998856483E+02	9.31310762419E-04	9.62509961086E+01	2.62713756664E-01	-4.15312175383E+01
7.71883767535E+10	1.54560521532E-01	-8.06754239397E+01	1.15309775404E-03	1.12832145689E+02	9.96756393320E-04	1.01970416014E+02	2.61351916202E-01	-4.05531148990E+01
7.71943887776E+10	1.54265271014E-01	-8.16280770275E+01	1.20978762454E-03	1.13060209391E+02	1.04011123801E-03	1.00646670578E+02	2.64436647875E-01	-4.28066392111E+01
7.72004008016E+10	1.53168812472E-01	-8.07354878576E+01	1.39189303142E-03	1.10919822125E+02	1.11738700751E-03	9.51971817582E+01	2.64571309423E-01	-4.14986350803E+01
7.72064128257E+10	1.54363983827E-01	-8.08625646019E+01	1.33394442131E-03	1.07505664810E+02	1.10382562414E-03	9.90818045847E+01	2.64688536036E-01	-4.30085784900E+01
7.72124248497E+10	1.54345188711E-01	-8.14919727937E+01	1.32394166922E-03	1.05088003175E+02	1.08870834906E-03	9.35991017354E+01	2.61674973775E-01	-4.12471282911E+01
7.72184368737E+10	1.56030877975E-01	-8.30751872910E+01	1.33610374862E-03	1.04920976532E+02	1.09806075045E-03	9.34855890366E+01	2.61966898172E-01	-4.29763006181E+01
7.72244488978E+10	1.56002896558E-01	-8.21637817370E+01	1.39686800128E-03	1.03898676864E+02	1.12131182866E-03	9.46728869643E+01	2.69037989600E-01	-4.36908994944E+01
7.72304609218E+10	1.55401204846E-01	-8.29274299002E+01	1.44958264763E-03	1.03468576214E+02	1.26713085047E-03	9.22466276341E+01	2.66287172708E-01	-4.13919507513E+01
7.72364729459E+10	1.54821320931E-01	-8.19620577332E+01	1.60349050414E-03	9.95828388813E+01	1.25665855624E-03	8.66181969663E+01	2.65051317297E-01	-4.17436466435E+01
7.72424849699E+10	1.55509115761E-01	-8.32627308607E+01	1.55320221007E-03	9.55622216218E+01	1.33479063596E-03	8.43415317912E+01	2.69442761608E-01	-4.24032655754E+01
7.72484969940E+10	1.54709455031E-01	-8.32599390281E+01	1.50059857999E-03	9.63871476918E+01	1.22353971689E-03	8.20150923525E+01	2.68158006614E-01	-4.37368188332E+01
7.72545090180E+10	1.54855468550E-01	-8.41242416416E+01	1.50565240427E-03	9.21704614328E+01	1.27241291667E-03	7.98534865997E+01	2.68283131359E-01	-4.31374793176E+01
7.72605210421E+10	1.53458764504E-01	-8.44190489303E+01	1.58971021060E-03	9.03165906251E+01	1.21771667110E-03	7.92493331789E+01	2.66747661230E-01	-4.24937987250E+01
7.72665330661E+10	1.55617224567E-01	-8.39981116217E+01	1.55257236415E-03	9.16622199068E+01	1.23728852720E-03	7.83697696629E+01	2.71984532584E-01	-4.41789057603E+01
7.72725450902E+10	1.55765765209E-01	-8.55826915461E+01	1.69812954731E-03	8.97943420339E+01	1.33850784066E-03	7.64775415077E+01	2.69413937317E-01	-4.21915354571E+01
7.72785571142E+10	1.56760570400E-01	-8.51854944088E+01	1.80456818318E-03	8.48831772596E+01	1.47485741398E-03	7.53300188755E+01	2.68946968306E-01	-4.28657896927E+01
7.72845691383E+10	1.54343979006E-01	-8.53521351655E+01	1.80615393982E-03	8.52446001850E+01	1.52900680430E-03	7.31493828497E+01	2.67952937172E-01	-4.39622316953E+01
7.72905811623E+10	1.54044552499E-01	-8.63128505945E+01	1.82047796978E-03	7.91013214557E+01	1.44979000170E-03	6.95902514728E+01	2.71070183686E-01	-4.30630138072E+01
7.72965931864E+10	1.53657784103E-01	-8.60284001757E+01	1.77740087339E-03	7.34642650193E+01	1.47190174392E-03	6.48549548054E+01	2.70647410862E-01	-4.47564972761E+01
7.73026052104E+10	1.53843968067E-01	-8.58650653012E+01	1.72523372514E-03	7.46836614533E+01	1.41852558978E-03	5.95853529279E+01	2.69736847421E-01	-4.28591034430E+01
7.73086172345E+10	1.53384911504E-01	-8.47626686440E+01	1.73172073827E-03	6.85334623092E+01	1.46216998006E-03	5.93267480080E+01	2.70041466463E-01	-4.32070263302E+01
7.73146292585E+10	1.54919865778E-01	-8.69722309129E+01	1.75004991770E-03	6.77699190773E+01	1.40037248971E-03	5.68338743803E+01	2.72265645905E-01	-4.47901060557E+01
7.73206412826E+10	1.55449877610E-01	-8.62955935342E+01	1.79969064685E-03	6.75222743934E+01	1.43775521500E-03	5.55899899181E+01	2.73230721461E-01	-4.40101452421E+01
7.73266533066E+10	1.52240750790E-01	-8.73182973088E+01	1.76350527119E-03	6.35924059764E+01	1.46018990012E-03	5.22224670373E+01	2.72612316955E-01	-4.35306555956E+01
7.73326653307E+10	1.54778538849E-01	-8.85819088194E+01	1.82739309955E-03	6.21004197752E+01	1.47220181495E-03	5.19813876007E+01	2.71732148126E-01	-4.30016822317E+01
7.73386773547E+10	1.54771473303E-01	-8.79697629613E+01	1.92073288869E-03	5.96804185805E+01	1.49748389247E-03	5.02878447656E+01	2.70666532155E-01	-4.39227684149E+01
7.73446893788E+10	1.53891864779E-01	-8.98592835529E+01	1.96096758436E-03	5.68352685643E+01	1.54720786029E-03	4.71737122569E+01	2.70912095930E-01	-4.42220569469E+01
7.73507014028E+10	1.54651205836E-01	-8.89697633187E+01	1.88695698128E-03	5.31015881500E+01	1.49957340129E-03	4.29613689820E+01	2.77744484290E-01	-4.44810618325E+01
7.73567134269E+10	1.51820016588E-01	-8.89279545262E+01	1.89751705778E-03	5.13021783729E+01	1.50964809906E-03	3.93798374741E+01	2.74424829155E-01	-4.39758289826E+01
7.73627254509E+10	1.51487459285E-01	-8.92434953167E+01	1.93719681910E-03	5.01422403598E+01	1.55920417370E-03	3.61751419456E+01	2.77480901936E-01	-4.59046821937E+01
7.73687374749E+10	1.54896001058E-01	-8.98148089823E+01	1.98341026579E-03	4.64477646984E+01	1.54208346679E-03	3.78879470548E+01	2.79288379200E-01	-4.61292678568E+01
7.73747494990E+10	1.53711975924E-01	-8.89430915011E+01	1.95766103085E-03	3.98714918789E+01	1.52488969996E-03	3.34765808926E+01	2.77160280998E-01	-4.45770013661E+01
7.73807615230E+10	1.51649557576E-01	-9.15699304757E+01	1.96090096429E-03	3.95080621226E+01	1.56514833870E-03	2.83490181731E+01	2.80888210538E-01	-4.58533790358E+01
7.73867735471E+10	1.52806379990E-01	-9.15260089478E+01	1.91729132245E-03	3.39518892194E+01	1.58355109887E-03	2.65838531832E+01	2.80118514662E-01	-4.63380398289E+01
7.73927855711E+10	1.53417285411E-01	-9.22928028587E+01	1.90235561557E-03	3.21691357160E+01	1.48055273155E-03	2.00901195584E+01	2.78093574694E-01	-4.61323275885E+01
7.73987975952E+10	1.52383166324E-01	-9.27226912634E+01	1.87555579822E-03	2.79474421515E+01	1.51558939378E-03	1.87667324288E+01	2.78409532089E-01	-4.60785057078E+01
7.74048096192E+10	1.51884759738E-01	-9.10212527043E+01	1.80211435673E-03	2.54940779895E+01	1.43061703886E-03	1.64570582496E+01	2.78302158151E-01	-4.49704521009E+01
7.74108216433E+10	1.51243390852E-01	-9.22316379022E+01	1.70845070153E-03	2.27774573996E+01	1.42046696316E-03	1.73318894781E+01	2.83131320207E-01	-4.67154590710E+01
7.74168336673E+10	1.50070283507E-01	-9.26611632471E+01	1.76752404423E-03	2.39378046569E+01	1.37617674016E-03	1.49845549961E+01	2.81898732672E-01	-4.57249988122E+01
7.74228456914E+10	1.49677311316E-01	-9.32695312438E+01	1.78852040804E-03	2.28725187355E+01	1.44042603328E-03	1.16520469776E+01	2.81008874415E-01	-4.55303040570E+01
7.74288577154E+10	1.50500814275E-01	-9.40616264048E+01	1.84021534429E-03	1.59967610409E+01	1.47818467995E-03	9.85522339887E+00	2.82643724060E-01	-4.72356668560E+01
7.74348697395E+10	1.48623891614E-01	-9.35251200628E+01	1.87901304761E-03	1.26665922472E+01	1.48708438168E-03	4.22756361393E+00	2.86549095509E-01	-4.73528693748E+01
7.74408817635E+10	1.48571307027E-01	-9.33295439729E+01	1.88225518331E-03	9.19670949563E+00	1.46220790516E-03	1.19757360400E+00	2.83677763601E-01	-4.58822454094E+01
7.74468937876E+10	1.47870138350E-01	-9.42161416541E+01	1.83320987707E-03	4.59896357336E+00	1.41087974475E-03	-4.60359852154E+00	2.84892323275E-01	-4.71669130185E+01
7.74529058116E+10	1.47047657379E-01	-9.38345196650E+01	1.79479484269E-03	-4.13398742412E-01	1.39108411796E-03	-1.03750385520E+01	2.84899843601E-01	-4.55596091739E+01
7.74589178357E+10	1.46178799522E-01	-9.45080694915E+01	1.72280074326E-03	-2.83993692817E+00	1.35916578619E-03	-1.57659158889E+01	2.87177037997E-01	-4.69281591336E+01
7.74649298597E+10	1.45761379447E-01	-9.43641975582E+01	1.58970925252E-03	-6.16013941286E+00	1.30409588225E-03	-1.76572026058E+01	2.89121265558E-01	-4.68029073834E+01
7.74709418838E+10	1.48731157450E-01	-9.56801769841E+01	1.51838144629E-03	-1.08048146017E+01	1.20219837318E-03	-2.14359479116E+01	2.86072258688E-01	-4.68354036381E+01
7.74769539078E+10	1.50794015418E-01	-9.81376964986E+01	1.53572039675E-03	-1.23267699354E+01	1.19868527803E-03	-2.10168212157E+01	2.88856027845E-01	-4.83604327738E+01
7.74829659319E+10	1.46358794172E-01	-9.74140878845E+01	1.49039063287E-03	-1.51128911651E+01	1.16861735777E-03	-2.53352456144E+01	2.92508527558E-01	-4.71421218150E+01
7.74889779559E+10	1.45809570124E-01	-9.79249902546E+01	1.48302446162E-03	-1.69999698247E+01	1.17311285601E-03	-2.60053980172E+01	2.92656658999E-01	-4.75557509174E+01
7.74949899800E+10	1.43630363391E-01	-9.60362993179E+01	1.41114134790E-03	-1.93599194110E+01	1.10957676128E-03	-2.67733283973E+01	2.90154380468E-01	-4.92994906230E+01
7.75010020040E+10	1.42274864071E-01	-9.90041804780E+01	1.46492256942E-03	-2.02998236834E+01	1.09456361665E-03	-2.97174268490E+01	2.91652497872E-01	-4.88599518314E+01
7.75070140281E+10	1.44807557000E-01	-9.75750426099E+01	1.48325113606E-03	-2.44540231798E+01	1.18243928719E-03	-2.98957573578E+01	2.93641893651E-01	-4.97738943852E+01
7.75130260521E+10	1.43909976892E-01	-9.78762190309E+01	1.47402847418E-03	-2.55546422656E+01	1.20009663659E-03	-3.78450082553E+01	2.92664949118E-01	-4.86164645491E+01
7.75190380762E+10	1.42080440850E-01	-9.90857390810E+01	1.44507720890E-03	-3.15378000987E+01	1.19064637499E-03	-4.27820721750E+01	2.94945258710E-01	-4.92035946599E+01
7.75250501002E+10	1.43867549240E-01	-9.89919998198E+01	1.46049553674E-03	-3.74795418162E+01	1.11535050353E-03	-4.61679605534E+01	2.94028495211E-01	-4.97892844183E+01
7.75310621242E+10	1.40869567746E-01	-1.00163107460E+02	1.37956205065E-03	-4.37280253377E+01	1.10579767578E-03	-5.80406338370E+01	2.97695593891E-01	-5.00445372707E+01
7.75370741483E+10	1.40220627366E-01	-1.01077093287E+02	1.30152288670E-03	-4.66651744324E+01	1.05060490584E-03	-5.41347042530E+01	3.01693754517E-01	-5.05224682270E+01
7.75430861723E+10	1.41049869957E-01	-9.99342934850E+01	1.23445706059E-03	-5.26525510263E+01	9.40507334325E-04	-6.05858854928E+01	2.95674520628E-01	-4.85907408529E+01
7.75490981964E+10	1.41030908699E-01	-1.00118472946E+02	1.17822513668E-03	-5.50016443182E+01	9.03037783690E-04	-6.41134573127E+01	3.01146532933E-01	-5.09538408484E+01
7.75551102204E+10	1.39295118208E-01	-9.95549758064E+01	1.08523854954E-03	-5.97169793025E+01	8.43336922443E-04	-6.71669883007E+01	3.00888152653E-01	-5.13295601073E+01
7.75611222445E+10	1.38562160916E-01	-1.00435570237E+02	1.08629533861E-03	-6.27967803719E+01	8.33858788370E-04	-7.41965353560E+01	2.99621978952E-01	-5.01337108214E+01
7.75671342685E+10	1.38454699076E-01	-1.01295955231E+02	9.74256152747E-04	-6.63649200124E+01	7.36449785409E-04	-7.85529214458E+01	3.01535853684E-01	-5.06733630974E+01
7.75731462926E+10	1.35117570395E-01	-1.00372170596E+02	9.04393363681E-04	-6.79242791578E+01	7.41349550297E-04	-7.82644720429E+01	3.01024742062E-01	-4.97869164141E+01
7.75791583166E+10	1.35366700251E-01	-1.01577599332E+02	8.74654323757E-04	-6.81424517683E+01	6.75997731216E-04	-7.84741924306E+01	3.04826483845E-01	-5.17770751940E+01
7.75851703407E+10	1.35751617153E-01	-1.03498015314E+02	9.05566327163E-04	-7.10263946783E+01	7.01392529456E-04	-7.69516352691E+01	3.04816380529E-01	-5.26091249729E+01
7.75911823647E+10	1.36208132643E-01	-1.04375335533E+02	8.80691538967E-04	-7.47471611796E+01	6.69376933333E-04	-8.73240394155E+01	2.99693119451E-01	-5.08577940012E+01
7.75971943888E+10	1.33121004169E-01	-1.03447190608E+02	8.33587146549E-04	-8.11994991330E+01	6.89769734597E-04	-8.72265494803E+01	3.05897680851E-01	-5.23809228606E+01
7.76032064128E+10	1.31363931989E-01	-1.02351873833E+02	7.89050799559E-04	-8.40620723589E+01	6.27060270669E-04	-8.82160456546E+01	3.08814046790E-01	-5.31994573887E+01
7.76092184369E+10	1.31653178650E-01	-1.01578760063E+02	7.89086061745E-04	-8.65623141699E+01	6.71533767107E-04	-9.54066660285E+01	3.05654680226E-01	-5.20437584401E+01
7.76152304609E+10	1.33231581743E-01	-1.02874282548E+02	8.04268557727E-04	-9.31427994687E+01	6.43969274819E-04	-1.01025781063E+02	3.09348101207E-01	-5.39543442547E+01
7.76212424850E+10	1.30964983094E-01	-1.04629611011E+02	7.76062715423E-04	-9.88510412491E+01	6.73552570695E-04	-1.10324589024E+02	3.08244721354E-01	-5.23502044547E+01
7.76272545090E+10	1.30974338485E-01	-1.06178360215E+02	7.00313644116E-04	-1.11824448927E+02	5.75360920536E-04	-1.17522226839E+02	3.09886672089E-01	-5.27960698851E+01
7.76332665331E+10	1.31363260804E-01	-1.05974647288E+02	6.74944600914E-04	-1.11869572265E+02	5.21558064676E-04	-1.20567967365E+02	3.10386992387E-01	-5.31227204640E+01
7.76392785571E+10	1.28257800900E-01	-1.02795155313E+02	6.94131215146E-04	-1.20494154361E+02	5.44590921365E-04	-1.23119817637E+02	3.09629115445E-01	-5.43280104578E+01
7.76452905812E+10	1.28196976985E-01	-1.04545813052E+02	6.05621973542E-04	-1.21427099692E+02	4.74529209603E-04	-1.26866582074E+02	3.10808515431E-01	-5.36208156792E+01
7.76513026052E+10	1.26940380323E-01	-1.05468897754E+02	5.59680185310E-04	-1.21590568504E+02	4.74420943966E-04	-1.37232972639E+02	3.12342669396E-01	-5.41569290138E+01
7.76573146293E+10	1.28158660849E-01	-1.03981356170E+02	6.72184022782E-04	-1.28359468608E+02	4.48865398614E-04	-1.33196095097E+02	3.10996597184E-01	-5.37031583109E+01
7.76633266533E+10	1.25968310511E-01	-1.03918955814E+02	5.47790935362E-04	-1.37021137717E+02	4.64884310694E-04	-1.33228341423E+02	3.13440326482E-01	-5.41387176274E+01
7.76693386774E+10	1.25331121337E-01	-1.04026204222E+02	5.44079191662E-04	-1.39274002372E+02	4.74370366716E-04	-1.45484342373E+02	3.17238367669E-01	-5.56168912961E+01
7.76753507014E+10	1.24354558824E-01	-1.05908061378E+02	5.52924806152E-04	-1.44382522416E+02	4.81628034928E-04	-1.54379425907E+02	3.14213647369E-01	-5.62311319590E+01
7.76813627255E+10	1.23489774105E-01	-1.04931058641E+02	5.53688467470E-04	-1.52807665071E+02	4.69161158135E-04	-1.58798793955E+02	3.13809486547E-01	-5.61531529599E+01
7.76873747495E+10	1.26536314800E-01	-1.06901743171E+02	5.73439931054E-04	-1.56600554256E+02	4.63646956574E-04	-1.66210203707E+02	3.17330732926E-01	-5.54595070476E+01
7.76933867735E+10	1.21470085182E-01	-1.04467083645E+02	4.27272441126E-04	-1.62419990755E+02	4.16661575514E-04	-1.68420195148E+02	3.16155214915E-01	-5.54357430284E+01
7.76993987976E+10	1.22716974817E-01	-1.05679900306E+02	5.28672309839E-04	-1.62607898307E+02	4.26347950755E-04	-1.68061696625E+02	3.16179626985E-01	-5.66329213030E+01
7.77054108216E+10	1.20764885710E-01	-1.05126605459E+02	5.95482842962E-04	-1.66250821142E+02	4.64485295182E-04	-1.67899254065E+02	3.15509015734E-01	-5.63798865555E+01
7.77114228457E+10	1.21588713911E-01	-1.06188895636E+02	5.75646940230E-04	-1.72810356306E+02	4.46482812241E-04	-1.76021195666E+02	3.14649032519E-01	-5.56691163219E+01
7.77174348697E+10	1.18651170561E-01	-1.05081245237E+02	6.18242422053E-04	-1.73329210667E+02	4.99841199953E-04	1.75251563493E+02	3.23083927362E-01	-5.76851045325E+01
7.77234468938E+10	1.17205774869E-01	-1.04847158216E+02	6.40492263879E-04	-1.78571188885E+02	4.93808304096E-04	1.79328251451E+02	3.20360654212E-01	-5.66552569648E+01
7.77294589178E+10	1.20124301082E-01	-1.06831664441E+02	6.85707720725E-04	1.69782637632E+02	5.62145672529E-04	1.61905793956E+02	3.19305107016E-01	-5.67762926230E+01
7.77354709419E+10	1.17390690620E-01	-1.06635514190E+02	7.50590487470E-04	1.60610215573E+02	5.78823967262E-04	1.53529964173E+02	3.18481261932E-01	-5.80819743723E+01
7.77414829659E+10	1.16563270919E-01	-1.04999100239E+02	6.88519015004E-04	1.56417842936E+02	5.39769181617E-04	1.46398041162E+02	3.21113110567E-01	-5.89327283664E+01
7.77474949900E+10	1.17380255068E-01	-1.06374205386E+02	6.98791874946E-04	1.48948915731E+02	5.21358342186E-04	1.42352928565E+02	3.24601073521E-01	-5.89059544101E+01
7.77535070140E+10	1.16688662160E-01	-1.05983087561E+02	6.42481131362E-04	1.38173299916E+02	5.11407137621E-04	1.32431511013E+02	3.22051781263E-01	-5.81593417636E+01
7.77595190381E+10	1.16618782525E-01	-1.06057705643E+02	6.42847356896E-04	1.38270143184E+02	4.86048758331E-04	1.34087546210E+02	3.22239578620E-01	-5.86169916529E+01
7.77655310621E+10	1.15580694381E-01	-1.07265748064E+02	6.18465626835E-04	1.36859503336E+02	5.06626167239E-04	1.28742473023E+02	3.23102264905E-01	-5.96253454754E+01
7.77715430862E+10	1.15420732011E-01	-1.06137195925E+02	5.88130288822E-04	1.35881712967E+02	4.87071646576E-04	1.29562375457E+02	3.20620631024E-01	-5.96510307265E+01
7.77775551102E+10	1.16689402375E-01	-1.07922819048E+02	6.31085855445E-04	1.35231074498E+02	5.21099671616E-04	1.34008394020E+02	3.20752715934E-01	-5.92249338072E+01
7.77835671343E+10	1.16058645271E-01	-1.08156352952E+02	7.11158470446E-04	1.38205419579E+02	5.40027280160E-04	1.38799779156E+02	3.26407643467E-01	-5.96245495723E+01
7.77895791583E+10	1.13179742808E-01	-1.05062124191E+02	7.63469207769E-04	1.38026441580E+02	6.36539616647E-04	1.29902157245E+02	3.27117626088E-01	-6.00801023081E+01
7.77955911824E+10	1.14248365350E-01	-1.06360091986E+02	8.32726204560E-04	1.25804059804E+02	6.73624166091E-04	1.25447314538E+02	3.24774478378E-01	-6.13514030000E+01
7.78016032064E+10	1.13797757458E-01	-1.07764301295E+02	9.08846584353E-04	1.22679415776E+02	7.53193194607E-04	1.13606425556E+02	3.24412775387E-01	-6.07125764158E+01
7.78076152305E+10	1.12862031753E-01	-1.07305054209E+02	9.61520668060E-04	1.12929039671E+02	7.54839871993E-04	1.07213046661E+02	3.26075625350E-01	-6.06215978103E+01
7.78136272545E+10	1.13172702232E-01	-1.06177264689E+02	9.77433342451E-04	1.04868112011E+02	7.70785556158E-04	1.02785488551E+02	3.30195247116E-01	-6.07137030652E+01
7.78196392786E+10	1.13001606389E-01	-1.06143398949E+02	1.00621508099E-03	1.02142910726E+02	8.14818557151E-04	9.74277937489E+01	3.27508583345E-01	-6.17636012277E+01
7.78256513026E+10	1.12789647768E-01	-1.05846631826E+02	9.59854158100E-04	9.66636970694E+01	7.81535921697E-04	9.07138068213E+01	3.23880562913E-01	-6.12599293953E+01
7.78316633267E+10	1.12018612073E-01	-1.08702859401E+02	1.00361612404E-03	9.09922365607E+01	7.51879713122E-04	8.89628130667E+01	3.28941633518E-01	-6.21249452899E+01
7.78376753507E+10	1.12045617905E-01	-1.07925386396E+02	9.56297734710E-04	8.83297410507E+01	7.60548426939E-04	8.20051186676E+01	3.31194337521E-01	-6.26390350290E+01
7.78436873747E+10	1.12379105619E-01	-1.07465972825E+02	8.90661469334E-04	8.52175338224E+01	7.01565246822E-04	7.90375985949E+01	3.33242654226E-01	-6.31377801025E+01
7.78496993988E+10	1.11859314114E-01	-1.07233001194E+02	8.43394310468E-04	8.22299115999E+01	6.77201940529E-04	7.42881903406E+01	3.33014667912E-01	-6.31556727871E+01
7.78557114228E+10	1.09085458245E-01	-1.07177521968E+02	8.81694998340E-04	8.62708016074E+01	7.30186403270E-04	7.95392871874E+01	3.31285551088E-01	-6.35403600519E+01
7.78617234469E+10	1.08906593741E-01	-1.06645346625E+02	9.42963130518E-04	7.87238767022E+01	7.50718998146E-04	7.78712871828E+01	3.33404441988E-01	-6.34719414856E+01
7.78677354709E+10	1.09135357480E-01	-1.06637904604E+02	9.80009463981E-04	7.33767808143E+01	7.17895088529E-04	6.67614852012E+01	3.30967943984E-01	-6.37026285019E+01
7.78737474950E+10	1.09405185902E-01	-1.07238941737E+02	9.29404394086E-04	7.65025442571E+01	7.31010711403E-04	7.18821030165E+01	3.31509548921E-01	-6.41316580454E+01
7.78797595190E+10	1.09073789053E-01	-1.08056249269E+02	8.96460497055E-04	7.55856172131E+01	7.69491405030E-04	6.69835771318E+01	3.29927003421E-01	-6.38848808802E+01
7.78857715431E+10	1.08193297903E-01	-1.09465820411E+02	1.00746892071E-03	7.31108442854E+01	8.17460611318E-04	6.47470466543E+01	3.30585188872E-01	-6.40875732932E+01
7.78917835671E+10	1.07555614261E-01	-1.06851296227E+02	1.09763890811E-03	6.97445813531E+01	8.18009085705E-04	6.28399624292E+01	3.34074019693E-01	-6.54031265321E+01
7.78977955912E+10	1.09098049513E-01	-1.09325985487E+02	1.06455242442E-03	6.31676987277E+01	8.84490943539E-04	5.50545806502E+01	3.36570038369E-01	-6.47459407959E+01
7.79038076152E+10	1.06530195606E-01	-1.07448118469E+02	1.03485103024E-03	5.54396285675E+01	8.40240068706E-04	5.02387870275E+01	3.35172886301E-01	-6.48992001142E+01
7.79098196393E+10	1.06383081347E-01	-1.06497602389E+02	1.02076049329E-03	5.62754370614E+01	8.96527188137E-04	4.74610361300E+01	3.34556032984E-01	-6.68042976558E+01
7.79158316633E+10	1.07185477050E-01	-1.08299934239E+02	1.04486876796E-03	4.61903129730E+01	8.37401102032E-04	4.04016106939E+01	3.33107890009E-01	-6.52468358083E+01
7.79218436874E+10	1.07342706804E-01	-1.09866737731E+02	9.89277360193E-04	4.50977719492E+01	7.81625228496E-04	3.84704950827E+01	3.36558702142E-01	-6.56913376820E+01
7.79278557114E+10	1.06961099247E-01	-1.09938721796E+02	9.16002824014E-04	4.28992367384E+01	7.47181516016E-04	3.75133978515E+01	3.40468138946E-01	-6.64317114777E+01
7.79338677355E+10	1.08806204319E-01	-1.10616156208E+02	8.90606278167E-04	4.04593251573E+01	7.12034354472E-04	3.36835804020E+01	3.39619874474E-01	-6.80901127565E+01
7.79398797595E+10	1.05334673531E-01	-1.08653421038E+02	8.77618162384E-04	4.23453315272E+01	6.79408886595E-04	3.60572473478E+01	3.35146535420E-01	-6.63275937140E+01
7.79458917836E+10	1.05017975428E-01	-1.08275738099E+02	8.73457610737E-04	4.35178665547E+01	6.78641294194E-04	3.73758337314E+01	3.38331758289E-01	-6.78029245073E+01
7.79519038076E+10	1.04035961409E-01	-1.09460685980E+02	8.32982711557E-04	4.75357149818E+01	6.98515609331E-04	4.19394474087E+01	3.37649595223E-01	-6.84637182642E+01
7.79579158317E+10	1.02964269476E-01	-1.07086255491E+02	9.14055698103E-04	4.45102474364E+01	7.19527831637E-04	4.04440823949E+01	3.43715912284E-01	-6.89522838180E+01
7.79639278557E+10	1.04981890237E-01	-1.09473456593E+02	9.76563291870E-04	4.05432498472E+01	7.81429269064E-04	3.45647124216E+01	3.38953580850E-01	-6.75050353544E+01
7.79699398798E+10	1.03106562551E-01	-1.09621836614E+02	1.04359371740E-03	3.65120068573E+01	8.13878802072E-04	3.32362317144E+01	3.40272745752E-01	-6.89935215588E+01
7.79759519038E+10	1.02796888531E-01	-1.09193143003E+02	1.05982478490E-03	3.59169872107E+01	8.29199897339E-04	2.81810837637E+01	3.42977394646E-01	-6.93300279359E+01
7.79819639279E+10	1.03534056483E-01	-1.09103283977E+02	1.05488737403E-03	2.76041661396E+01	8.73708993524E-04	2.41453947895E+01	3.41030140347E-01	-6.83908846557E+01
7.79879759519E+10	1.00945917179E-01	-1.07273271905E+02	1.00281251408E-03	2.13204040936E+01	7.87171813722E-04	1.70759384154E+01	3.43937386081E-01	-6.96334282132E+01
7.79939879760E+10	1.02194539893E-01	-1.08662835010E+02	9.48490877772E-04	2.36156800359E+01	7.46867486298E-04	1.71612488113E+01	3.42627678897E-01	-7.05523444775E+01
7.80000000000E+10	1.01401508469E-01	-1.09626679207E+02	9.13482564291E-04	2.25335421335E+01	7.31668136816E-04	2.12541040115E+01	3.41787853855E-01	-7.02312394868E+01
