# Hz S MA R 50
! CMT, C4420, 21421029, 25.1.2/3
! Date: 8/7/2025 12:57:24 PM
! Data: Format (Calibration Info)
! Freq	S33:Mag/Ang(F2)	S43:Mag/Ang(F2)	S34:Mag/Ang(F2)	S44:Mag/Ang(F2)
7.50000000000E+10	1.97015344576E-01	-1.19782803593E+01	1.52650953254E-04	-1.25794262906E+02	5.67390385256E-05	8.43791839301E+01	2.22558087015E-01	-8.60458264827E+00
7.50060120240E+10	1.98924830172E-01	-1.37462121646E+01	1.58687646405E-04	-1.60874783575E+02	7.09977084335E-05	5.16524229085E+01	2.21812373672E-01	-8.94304373833E+00
7.50120240481E+10	2.01648767232E-01	-1.49249517528E+01	1.42476645828E-04	-1.61295205303E+02	8.36604573061E-05	2.74593457184E+01	2.22397559973E-01	-9.17577714257E+00
7.50180360721E+10	1.98867457646E-01	-1.33411066531E+01	1.01532482013E-04	-1.67956343753E+02	1.28771379429E-04	4.17687743939E+01	2.19961567039E-01	-8.26062501312E+00
7.50240480962E+10	2.00257786335E-01	-1.60573783476E+01	1.69956418768E-04	-1.65059877011E+02	1.16191210828E-04	4.24033013727E+01	2.19447463296E-01	-9.22524023405E+00
7.50300601202E+10	1.99352277391E-01	-1.48879330151E+01	1.64103589291E-04	-1.69443985776E+02	1.14889940924E-04	2.29900135332E+01	2.19992452536E-01	-9.45223172420E+00
7.50360721443E+10	2.00552897830E-01	-1.50214039277E+01	7.05939958018E-05	1.74482422931E+02	1.22618172757E-04	8.21095743687E+00	2.17314885276E-01	-7.67355311506E+00
7.50420841683E+10	2.00942440719E-01	-1.50076519593E+01	3.85186991599E-05	-1.13517377332E+02	1.53934357811E-04	1.01150882405E+01	2.18866338002E-01	-9.32903740061E+00
7.50480961924E+10	1.96869480760E-01	-1.43342192047E+01	1.16154239868E-04	-1.62075620734E+02	1.49701980459E-04	1.08140095104E+01	2.13570118374E-01	-8.59983284039E+00
7.50541082164E+10	1.95990874143E-01	-1.47481469445E+01	5.49272645692E-05	-1.51158294168E+02	9.81973394810E-05	6.60947099058E+00	2.15973003956E-01	-8.83299253012E+00
7.50601202405E+10	1.99823308951E-01	-1.49542441638E+01	6.62880288352E-05	1.65449365288E+02	9.54646567269E-05	1.29457324654E+01	2.20823620316E-01	-1.13516525848E+01
7.50661322645E+10	2.01595695429E-01	-1.56012515438E+01	6.94599020908E-05	1.57300070228E+02	1.49337693216E-04	3.94121593185E+00	2.18914838391E-01	-1.19551174311E+01
7.50721442886E+10	1.97898694289E-01	-1.58210946015E+01	2.17142251961E-05	1.17254892200E+02	2.55552321396E-04	-1.59628899983E+01	2.16631726611E-01	-1.11402036371E+01
7.50781563126E+10	1.99441246828E-01	-1.82997237766E+01	7.13970717360E-05	-1.79865733488E+02	2.48691346281E-04	-1.05141767581E+01	2.14804787564E-01	-9.84071611638E+00
7.50841683367E+10	1.96005088533E-01	-1.67816736070E+01	1.12809319323E-05	1.40204048268E+02	2.12823294379E-04	-1.74189338594E+01	2.17995985957E-01	-1.10531176172E+01
7.50901803607E+10	1.98051015306E-01	-1.67873732802E+01	6.18866381260E-05	-1.25745840966E+02	2.49760238457E-04	-2.98731934463E+01	2.17743003671E-01	-1.07523743835E+01
7.50961923848E+10	1.98751008316E-01	-1.61661483158E+01	5.54779889533E-05	1.54285481256E+02	2.35738364581E-04	-5.03965353685E+01	2.15333492783E-01	-1.22348366878E+01
7.51022044088E+10	1.95818201483E-01	-1.55857787249E+01	8.31076397528E-05	1.17012037103E+02	1.97469359706E-04	-5.79600053028E+01	2.16381085811E-01	-1.24044727947E+01
7.51082164329E+10	1.94972158485E-01	-1.73924294813E+01	5.86858157485E-05	1.33614709109E+02	2.49361479146E-04	-5.73760382953E+01	2.13448876991E-01	-1.10361687181E+01
7.51142284569E+10	1.94479738945E-01	-1.72490346923E+01	3.84360578285E-05	6.21656989403E+01	1.57756125424E-04	-5.37114577098E+01	2.15135803457E-01	-1.31053707885E+01
7.51202404810E+10	1.96446116858E-01	-1.71877153254E+01	1.67029530424E-05	6.55242269521E+01	1.99760240539E-04	-5.67274994090E+01	2.14259186736E-01	-1.29135936087E+01
7.51262525050E+10	1.95064612178E-01	-1.76194009940E+01	5.26374364644E-05	6.09163889067E+01	2.19400141432E-04	-7.16180125264E+01	2.10238974884E-01	-1.26857491480E+01
7.51322645291E+10	1.96948266492E-01	-1.81815388410E+01	1.73650771651E-05	-1.01533804115E+02	2.99629773947E-04	-7.44124611287E+01	2.13878189545E-01	-1.37111401338E+01
7.51382765531E+10	1.96170802539E-01	-1.81793025109E+01	5.78644949309E-05	1.53033568241E+02	2.11572389523E-04	-9.21765286543E+01	2.12873348328E-01	-1.49102777913E+01
7.51442885772E+10	1.95725505789E-01	-1.83158419635E+01	5.10046726547E-05	-1.78691218972E+02	2.64000195543E-04	-9.82443958837E+01	2.12504264783E-01	-1.33382370319E+01
7.51503006012E+10	1.94889030501E-01	-1.85803381288E+01	7.85709185522E-05	1.34955037362E+02	2.82979506552E-04	-9.40182998630E+01	2.08844602560E-01	-1.35364092885E+01
7.51563126253E+10	1.91904472565E-01	-1.73332323094E+01	3.10042451167E-05	1.65683783184E+02	2.85156380562E-04	-1.01338871808E+02	2.10184182511E-01	-1.43478185275E+01
7.51623246493E+10	1.97245625548E-01	-1.95852856500E+01	6.38498991405E-05	1.48012920882E+02	3.17051067007E-04	-1.19987251687E+02	2.09640331818E-01	-1.39927590824E+01
7.51683366733E+10	1.92894169676E-01	-1.81986613222E+01	4.98671634235E-05	1.39037072323E+02	3.12575633991E-04	-1.18733992980E+02	2.10265956786E-01	-1.32210627995E+01
7.51743486974E+10	1.96523032857E-01	-1.88218251540E+01	4.39513586036E-05	1.27942252033E+02	3.29067949279E-04	-1.33275914803E+02	2.09570331555E-01	-1.44841521407E+01
7.51803607214E+10	1.95683054311E-01	-2.00800137498E+01	8.28406691840E-05	8.30638408399E+01	3.06843249381E-04	-1.44138223096E+02	2.06070835642E-01	-1.39949284527E+01
7.51863727455E+10	1.97363652009E-01	-2.14978004083E+01	3.50596003675E-05	1.14159183235E+02	2.26628467239E-04	-1.40740881689E+02	2.05816229683E-01	-1.32084706564E+01
7.51923847695E+10	1.93279280470E-01	-2.09496378631E+01	5.54214070502E-05	-3.48911206059E+01	2.78425782768E-04	-1.43646292486E+02	2.10523408331E-01	-1.45902910917E+01
7.51983967936E+10	1.91107104559E-01	-1.75162572588E+01	5.00447034816E-05	1.36505203175E+02	2.67701796556E-04	-1.46496519870E+02	2.10041845870E-01	-1.49484530036E+01
7.52044088176E+10	1.95679667842E-01	-1.97846935758E+01	7.02787012140E-05	-1.66627635567E+02	2.87841438775E-04	-1.70322142461E+02	2.05816165008E-01	-1.31036435247E+01
7.52104208417E+10	1.93277021962E-01	-1.98463148976E+01	2.69935834896E-05	9.93310121276E+01	2.95710460184E-04	-1.65212780179E+02	2.04768888536E-01	-1.33200337097E+01
7.52164328657E+10	1.94088075911E-01	-1.99063674207E+01	1.10792378026E-04	1.05216196347E+02	2.08453744378E-04	-1.72970249095E+02	2.09682440801E-01	-1.56344548855E+01
7.52224448898E+10	1.94748126241E-01	-2.16798905175E+01	1.13742314768E-04	8.95048178052E+01	2.85125249839E-04	-1.72159717624E+02	2.04557469989E-01	-1.30189577129E+01
7.52284569138E+10	1.97685836716E-01	-2.11041144235E+01	6.95769541063E-05	8.88775037285E+01	2.57132200749E-04	1.62584169769E+02	2.05415752386E-01	-1.44789137168E+01
7.52344689379E+10	1.93901139282E-01	-2.11622479599E+01	6.01718927609E-05	3.79368654632E+01	2.20605258672E-04	1.55838401794E+02	2.09580844012E-01	-1.61682322047E+01
7.52404809619E+10	1.95489754498E-01	-1.97014656631E+01	9.36061586366E-05	5.66521695690E+01	2.83881025200E-04	1.53957963985E+02	2.07481457672E-01	-1.44988780241E+01
7.52464929860E+10	1.96048831650E-01	-2.17418113389E+01	1.13825325150E-04	6.77014337012E+01	2.71318765921E-04	1.54805530415E+02	2.06378529105E-01	-1.40418122334E+01
7.52525050100E+10	1.93447607158E-01	-2.28477105277E+01	4.52923542625E-05	1.16732363899E+02	2.10716054918E-04	1.59239605643E+02	2.09012560535E-01	-1.64479147860E+01
7.52585170341E+10	1.92884369121E-01	-2.20567845559E+01	4.42026171604E-05	-4.60790924838E+01	2.68809172285E-04	1.40236478255E+02	2.10145039532E-01	-1.64428857631E+01
7.52645290581E+10	1.93890863274E-01	-2.09843259695E+01	6.10687655507E-05	5.39468103898E+01	2.41699978840E-04	1.47561778760E+02	2.09465909943E-01	-1.57308409424E+01
7.52705410822E+10	1.92820274504E-01	-2.19729546468E+01	2.14009423352E-05	1.47284603548E+02	2.36228549168E-04	1.32405232264E+02	2.06939467697E-01	-1.54969183670E+01
7.52765531062E+10	1.92548580609E-01	-2.30083292955E+01	4.65509414711E-06	8.55720083951E+01	2.01024883131E-04	1.21982628615E+02	2.06124591860E-01	-1.59185838870E+01
7.52825651303E+10	1.88168780285E-01	-2.05920758384E+01	1.06367095673E-04	2.82958359031E+01	2.86127576443E-04	1.26587244646E+02	2.06134264132E-01	-1.56994490167E+01
7.52885771543E+10	1.93172687599E-01	-2.34955045549E+01	7.26689390510E-05	-5.48771029271E+01	2.14147539473E-04	1.12885160655E+02	2.09735534524E-01	-1.66217646279E+01
7.52945891784E+10	1.95139833755E-01	-2.34786050363E+01	8.41617706689E-05	-1.75345371436E+01	1.80606997988E-04	7.63010297000E+01	2.11046553819E-01	-1.68933490797E+01
7.53006012024E+10	1.93254749067E-01	-2.36519990128E+01	1.07312327222E-04	-3.36437486551E+01	2.43434503755E-04	9.55753513952E+01	2.08579856059E-01	-1.64842921405E+01
7.53066132265E+10	1.89050143037E-01	-2.15168092087E+01	1.22469271313E-04	-4.17478419726E+01	1.66343891664E-04	9.38243290361E+01	2.07440403937E-01	-1.63684671350E+01
7.53126252505E+10	1.88910812059E-01	-2.19517358171E+01	6.11819056917E-05	-4.39059260980E+01	1.34230506488E-04	6.24063791595E+01	2.04639614947E-01	-1.61693883632E+01
7.53186372745E+10	1.93917194205E-01	-2.42816427679E+01	1.34954400782E-04	-4.73633395405E+01	1.82185275289E-04	7.92438218766E+01	2.09476340529E-01	-1.82558004618E+01
7.53246492986E+10	1.93959920861E-01	-2.44557787821E+01	1.66050708014E-04	-9.10157813401E+01	1.51119595315E-04	7.54509865459E+01	2.11535597031E-01	-1.80691898087E+01
7.53306613226E+10	1.92043555723E-01	-2.25928641408E+01	7.95704781162E-05	-9.24928255012E+01	1.89252340971E-04	6.66725675965E+01	2.09083312103E-01	-1.65098709474E+01
7.53366733467E+10	1.88610571770E-01	-2.27293806397E+01	1.43444845514E-04	-9.25434441246E+01	1.86878332440E-04	7.28220468308E+01	2.08104010128E-01	-1.89012549938E+01
7.53426853707E+10	1.88740100935E-01	-2.18344155416E+01	9.22192291610E-05	-1.33368355756E+02	1.43849610911E-04	5.86907433363E+01	2.08650044000E-01	-1.81168076860E+01
7.53486973948E+10	1.93653585623E-01	-2.35793033013E+01	9.59221127223E-05	-1.39384594076E+02	2.47045742393E-04	5.35233562671E+01	2.08583493951E-01	-1.82905105081E+01
7.53547094188E+10	1.91567209261E-01	-2.41872290379E+01	8.72321999637E-05	-1.73271594686E+02	2.46275788073E-04	6.50641511378E+01	2.10991673722E-01	-1.94311459557E+01
7.53607214429E+10	1.91289793498E-01	-2.46799560124E+01	9.86440024786E-05	1.75011604337E+02	1.74760785081E-04	4.87352721536E+01	2.10501777109E-01	-1.94968699857E+01
7.53667334669E+10	1.89160722153E-01	-2.34736869497E+01	1.06338571286E-04	-1.61950562131E+02	1.68982738007E-04	3.69796843814E+01	2.06960945549E-01	-1.82939190318E+01
7.53727454910E+10	1.94061630647E-01	-2.64956166785E+01	1.09465484308E-04	-1.63433480939E+02	1.27314864804E-04	3.73519400373E+01	2.06997997265E-01	-1.78768169393E+01
7.53787575150E+10	1.91314718545E-01	-2.69886863744E+01	9.27702995410E-05	1.73124262197E+02	1.53099408137E-04	3.07165076937E+01	2.06242535171E-01	-1.77839755212E+01
7.53847695391E+10	1.91502095839E-01	-2.62098342736E+01	1.12360360388E-04	1.58446441908E+02	8.74379783358E-05	4.07772411757E+01	2.09724991647E-01	-1.97485990973E+01
7.53907815631E+10	1.85226311280E-01	-2.11804679215E+01	1.48974054554E-04	-1.77302783654E+02	1.36179456274E-04	4.06487247190E+01	2.07476264012E-01	-1.94291013450E+01
7.53967935872E+10	1.90359784627E-01	-2.52572203857E+01	1.78504642041E-04	1.74197268178E+02	1.49729959198E-04	2.70907774950E+01	2.09966425578E-01	-1.93138721736E+01
7.54028056112E+10	1.92790357082E-01	-2.78559564146E+01	2.16223796496E-04	1.48001562690E+02	2.04480022722E-04	2.26950403715E+01	2.10681064917E-01	-1.99133145462E+01
7.54088176353E+10	1.89502737890E-01	-2.68230434490E+01	2.21141106706E-04	1.45311484656E+02	7.19545714488E-05	9.02302337710E+00	2.08862751149E-01	-2.02777687510E+01
7.54148296593E+10	1.87611711208E-01	-2.41059091368E+01	2.84438716280E-04	1.35386589812E+02	1.68829775327E-04	1.69697459486E+01	2.04923651169E-01	-2.00108130514E+01
7.54208416834E+10	1.93351610769E-01	-2.65589592451E+01	2.15068630124E-04	1.22503251077E+02	2.02199392909E-04	9.39990347390E+00	2.08201320511E-01	-1.97186427424E+01
7.54268537074E+10	1.90619633087E-01	-2.60519958479E+01	1.94103562045E-04	1.08087251772E+02	2.47914162152E-04	8.91610728193E+00	2.11516311566E-01	-2.15071055568E+01
7.54328657315E+10	1.88232559709E-01	-2.60538506333E+01	1.78659453532E-04	9.69328360116E+01	1.45349287252E-04	-1.56175333315E+01	2.08561318787E-01	-2.09626285145E+01
7.54388777555E+10	1.89360358242E-01	-2.74965211679E+01	2.14038356845E-04	1.02573574966E+02	8.39028690763E-05	7.59455259846E+00	2.06008009768E-01	-2.11811823843E+01
7.54448897796E+10	1.88373916078E-01	-2.81050143436E+01	2.20317912369E-04	8.79902340925E+01	2.09934135158E-04	-3.29566109135E+00	2.06835418605E-01	-2.14759119026E+01
7.54509018036E+10	1.93137066547E-01	-2.89102479718E+01	1.87263453154E-04	9.19235054394E+01	1.89307968510E-04	-5.85830756915E+00	2.08041101435E-01	-2.24951824677E+01
7.54569138277E+10	1.88505716734E-01	-2.72059504459E+01	1.69662779952E-04	8.58463605767E+01	1.07432311267E-04	1.05812388792E+01	2.08678770404E-01	-2.39497246848E+01
7.54629258517E+10	1.90206173237E-01	-2.77787467424E+01	2.32013669529E-04	5.99055735068E+01	1.92485295075E-04	-1.03036974889E+01	2.08773806802E-01	-2.32458289987E+01
7.54689378758E+10	1.88463366678E-01	-2.87409198104E+01	2.01236320041E-04	7.59984007940E+01	1.75656580867E-04	-2.93917676135E+01	2.08071439019E-01	-2.27762861692E+01
7.54749498998E+10	1.87662925050E-01	-2.69811940651E+01	1.47215831652E-04	4.66746592479E+01	1.76562623222E-04	-1.39934270198E+01	2.06709477899E-01	-2.25616316454E+01
7.54809619238E+10	1.89058307476E-01	-2.81812650857E+01	1.98643007264E-04	3.72399316231E+01	2.09227993839E-04	-2.80377081983E+01	2.05173196032E-01	-2.27604399575E+01
7.54869739479E+10	1.91233082505E-01	-2.91492484427E+01	2.40646647211E-04	4.34303809092E+01	2.34910990688E-04	-3.32491718724E+01	2.06026924535E-01	-2.49762203819E+01
7.54929859719E+10	1.88026359683E-01	-2.82641296194E+01	2.20260651314E-04	2.54053430257E+01	2.13323404500E-04	-4.93540654928E+01	2.07225125647E-01	-2.51738552803E+01
7.54989979960E+10	1.84729883896E-01	-2.81850891954E+01	2.55415513560E-04	2.64963071894E+01	1.44878350582E-04	-5.46709813869E+01	2.04596799142E-01	-2.40883291007E+01
7.55050100200E+10	1.87290623476E-01	-2.86053127367E+01	2.57743175717E-04	2.42141767492E+01	1.54474631788E-04	-7.27422875421E+01	2.04175037252E-01	-2.35734571779E+01
7.55110220441E+10	1.90558669533E-01	-2.96216161258E+01	1.90685084344E-04	6.05208404112E+00	1.74297971664E-04	-6.74574324741E+01	2.03568053653E-01	-2.50321086827E+01
7.55170340681E+10	1.86824397717E-01	-2.86325333821E+01	1.64861765337E-04	-1.18204304111E+01	1.59796657260E-04	-5.72417915718E+01	2.03214689775E-01	-2.48761906679E+01
7.55230460922E+10	1.87282581444E-01	-2.94350893020E+01	1.67061458407E-04	2.34930467244E+01	1.86473516000E-04	-6.39948436751E+01	2.01550859449E-01	-2.37928365866E+01
7.55290581162E+10	1.87151831534E-01	-3.00084651854E+01	2.36942770612E-04	-7.59878981828E+00	2.11497918681E-04	-5.95727058427E+01	2.01422590269E-01	-2.42072868546E+01
7.55350701403E+10	1.91042714741E-01	-3.17656680200E+01	1.68076578606E-04	-1.65884244915E+01	1.89900410214E-04	-7.30523101058E+01	1.99721002748E-01	-2.48027744165E+01
7.55410821643E+10	1.86062731183E-01	-2.88869913743E+01	1.33587789139E-04	-3.41427921864E+01	1.89025591406E-04	-8.44637829596E+01	2.03129843371E-01	-2.60438238593E+01
7.55470941884E+10	1.86257530052E-01	-2.86863567930E+01	2.16841365594E-04	-3.05737228094E+01	1.68483642639E-04	-7.80912148038E+01	2.02306834403E-01	-2.60984802461E+01
7.55531062124E+10	1.87607498220E-01	-3.03206716327E+01	2.55971327765E-04	-4.09128281923E+01	1.52571516412E-04	-1.07205122204E+02	2.01919946631E-01	-2.46947252369E+01
7.55591182365E+10	1.86599173281E-01	-3.19036413570E+01	2.35918403099E-04	-3.97184791636E+01	1.95779962708E-04	-1.07068448596E+02	1.98650824632E-01	-2.47311579289E+01
7.55651302605E+10	1.87201544148E-01	-3.18899458091E+01	1.91737199548E-04	-6.42013088836E+01	1.95405711468E-04	-1.10549669466E+02	1.98578846556E-01	-2.39238054793E+01
7.55711422846E+10	1.89105363493E-01	-3.14433684299E+01	2.48315262793E-04	-6.55708870189E+01	2.09145721407E-04	-1.30910810850E+02	2.02932245789E-01	-2.58807317295E+01
7.55771543086E+10	1.85244051569E-01	-3.02441249407E+01	1.87690129822E-04	-5.96302817327E+01	1.73684707855E-04	-1.23013954946E+02	2.02484817031E-01	-2.64410287916E+01
7.55831663327E+10	1.82943643573E-01	-3.10913312442E+01	2.46113728879E-04	-7.49885148859E+01	1.63897407775E-04	-1.39072908231E+02	1.99543391837E-01	-2.53190692857E+01
7.55891783567E+10	1.85132338494E-01	-3.11129696480E+01	1.94719796587E-04	-6.88243389760E+01	1.36332987606E-04	-1.49349316169E+02	1.99591855139E-01	-2.49164697208E+01
7.55951903808E+10	1.87720382226E-01	-3.34910518841E+01	2.11811403672E-04	-9.57688122295E+01	1.76562303962E-04	-1.43749846207E+02	2.01870753776E-01	-2.52044014339E+01
7.56012024048E+10	1.91238657755E-01	-3.40202751275E+01	1.80576897317E-04	-8.36993478636E+01	1.69750383932E-04	-1.34724223978E+02	2.01620711220E-01	-2.57840183436E+01
7.56072144289E+10	1.85616038857E-01	-3.15494677829E+01	1.66197288448E-04	-1.02765079993E+02	1.87806796490E-04	-1.54475844550E+02	1.99233728555E-01	-2.65762423907E+01
7.56132264529E+10	1.85378421176E-01	-3.16515902148E+01	1.21713643377E-04	-1.13464069488E+02	1.47775515138E-04	-1.41975512648E+02	2.01618125519E-01	-2.62550760750E+01
7.56192384770E+10	1.83412576788E-01	-3.21146684901E+01	6.47883177116E-05	-1.05565522946E+02	1.37830742690E-04	-1.65736938306E+02	2.00824864150E-01	-2.53359539615E+01
7.56252505010E+10	1.84411502119E-01	-3.22341613263E+01	1.21155947683E-04	-1.12827222329E+02	9.50845535211E-05	-1.54035629979E+02	2.02725147783E-01	-2.70819022987E+01
7.56312625251E+10	1.89248985855E-01	-3.44482102193E+01	1.66512646328E-04	-1.11164038448E+02	8.65094802394E-05	-1.57985532709E+02	2.00018062465E-01	-2.70094317642E+01
7.56372745491E+10	1.86025129242E-01	-3.34868482514E+01	1.70817556787E-04	-1.13386915057E+02	1.68705799443E-04	-1.38148549393E+02	2.00216509005E-01	-2.58293735732E+01
7.56432865731E+10	1.82887518919E-01	-3.36386217674E+01	1.42835212032E-04	-1.13194852164E+02	1.62996702855E-04	-1.42745486199E+02	2.02916930922E-01	-2.65829406318E+01
7.56492985972E+10	1.82518399907E-01	-3.26618895097E+01	1.63541188769E-04	-1.25449889872E+02	2.28352562436E-04	-1.60772418442E+02	2.00964788844E-01	-2.72467446016E+01
7.56553106212E+10	1.88190050642E-01	-3.51352388439E+01	1.93584290147E-04	-1.27004950594E+02	2.62294728194E-04	-1.75153320723E+02	2.01007166133E-01	-2.77720419378E+01
7.56613226453E+10	1.86495676430E-01	-3.37226165377E+01	2.03565976142E-04	-1.50156018178E+02	1.82303309203E-04	1.74584725056E+02	2.00320239080E-01	-2.68337934989E+01
7.56673346693E+10	1.83370200664E-01	-3.31237507351E+01	2.20607447086E-04	-1.61202246018E+02	1.61472203637E-04	1.62595518128E+02	2.02089665474E-01	-2.67477979365E+01
7.56733466934E+10	1.82254468026E-01	-3.35225100225E+01	1.63914054110E-04	-1.75581952801E+02	1.66839215923E-04	1.69283894215E+02	2.01067677358E-01	-2.79712117673E+01
7.56793587174E+10	1.83642757510E-01	-3.54120900414E+01	1.64665164627E-04	-1.52984740654E+02	1.70341129882E-04	1.72372006390E+02	1.99120235969E-01	-2.78428634197E+01
7.56853707415E+10	1.83395661193E-01	-3.56666205574E+01	1.79529366325E-04	-1.63608836245E+02	1.44439753489E-04	1.41102846759E+02	2.03476702477E-01	-2.84374126650E+01
7.56913827655E+10	1.84919283711E-01	-3.59863242187E+01	1.32413396106E-04	-1.64404312568E+02	1.42554467505E-04	1.40519702128E+02	2.00194688820E-01	-2.65749981105E+01
7.56973947896E+10	1.84109232815E-01	-3.55809173424E+01	1.71347606128E-04	-1.63926564281E+02	1.80171645272E-04	1.61981817602E+02	1.99609604758E-01	-2.78475789402E+01
7.57034068136E+10	1.81271028263E-01	-3.21562088451E+01	1.60979857503E-04	-1.78383124375E+02	1.65229049353E-04	1.51214663597E+02	1.98757703081E-01	-2.72668809420E+01
7.57094188377E+10	1.80742369921E-01	-3.47670910633E+01	1.37061618668E-04	-1.70896838035E+02	1.38102406871E-04	1.59629937420E+02	2.00582522310E-01	-2.88620377379E+01
7.57154308617E+10	1.83806579761E-01	-3.64543729474E+01	1.42103516890E-04	1.65596155593E+02	1.14822526223E-04	1.50112754432E+02	2.02193102146E-01	-2.83207544902E+01
7.57214428858E+10	1.85806279526E-01	-3.63746025110E+01	1.72717734239E-04	-1.69848822147E+02	1.50588536930E-04	1.42230860469E+02	2.03555910233E-01	-2.77745852094E+01
7.57274549098E+10	1.85741360268E-01	-3.65898698380E+01	1.99054887229E-04	1.78837325646E+02	1.38360639284E-04	1.60024879461E+02	2.01328312010E-01	-2.92113879353E+01
7.57334669339E+10	1.82953577241E-01	-3.67763599735E+01	1.93999821955E-04	-1.60179762606E+02	1.18420697107E-04	1.40193123862E+02	2.04317395845E-01	-3.06762745058E+01
7.57394789579E+10	1.79468071214E-01	-3.56287563034E+01	2.32929314242E-04	1.77763744848E+02	1.53025335173E-04	1.11193095585E+02	2.03628525256E-01	-3.06852654345E+01
7.57454909820E+10	1.82180531657E-01	-3.67592997240E+01	2.50510339623E-04	1.59744975143E+02	1.55021701561E-04	1.41672154815E+02	2.01595804706E-01	-3.00119489638E+01
7.57515030060E+10	1.85069679640E-01	-3.75944729137E+01	2.72635838122E-04	1.70625166828E+02	1.66851843652E-04	1.23753467236E+02	2.06106523507E-01	-3.03452315894E+01
7.57575150301E+10	1.82732325410E-01	-3.71045556422E+01	2.56420163887E-04	1.50941531372E+02	1.69189460204E-04	1.28197119811E+02	2.02947666280E-01	-2.95421425535E+01
7.57635270541E+10	1.78684707177E-01	-3.60448483843E+01	2.48013269145E-04	1.44034657320E+02	2.69367081806E-04	1.15409170994E+02	2.01064978940E-01	-2.94813871049E+01
7.57695390782E+10	1.82405045577E-01	-3.85333117800E+01	2.93345156587E-04	1.34890046202E+02	2.03160281060E-04	1.03913337489E+02	2.07711060082E-01	-3.13154086090E+01
7.57755511022E+10	1.82024096040E-01	-3.83643786418E+01	2.92772087546E-04	1.16039645405E+02	2.14117628164E-04	8.43327830326E+01	2.05877681442E-01	-3.08370658057E+01
7.57815631263E+10	1.79609778238E-01	-3.71087994744E+01	1.82724077163E-04	1.07880608516E+02	3.02499578880E-04	6.67525682784E+01	2.03882579799E-01	-2.93662574187E+01
7.57875751503E+10	1.79227583477E-01	-3.75376479760E+01	1.99876671849E-04	1.00510940518E+02	2.65612966977E-04	5.94772074672E+01	2.04081015983E-01	-3.19500684818E+01
7.57935871743E+10	1.82931534636E-01	-3.81998377295E+01	1.64629029203E-04	1.02308332732E+02	2.22471271774E-04	5.43340757651E+01	2.05801259664E-01	-3.13235330098E+01
7.57995991984E+10	1.78673131260E-01	-3.89796127270E+01	1.58685756996E-04	1.14146114103E+02	1.09492740710E-04	6.95028919016E+01	2.05849952014E-01	-3.11351387445E+01
7.58056112224E+10	1.81747626942E-01	-3.90924547743E+01	2.11225729269E-04	1.07488394918E+02	1.51480637899E-04	3.80781408031E+01	2.05594665882E-01	-3.21290918669E+01
7.58116232465E+10	1.84124799803E-01	-3.94701376057E+01	1.38381531449E-04	6.86619006050E+01	2.08566231680E-04	3.99716813319E+01	2.03656870370E-01	-3.15897069717E+01
7.58176352705E+10	1.79727214518E-01	-3.82648755920E+01	2.02748954259E-04	9.34277112364E+01	1.91380392866E-04	5.41758696273E+01	2.02914443265E-01	-3.16305345020E+01
7.58236472946E+10	1.80980479918E-01	-4.00440587658E+01	2.28853802464E-04	9.02355184548E+01	1.69010408544E-04	5.53472775252E+01	2.05284525139E-01	-3.32409194983E+01
7.58296593186E+10	1.79438843168E-01	-3.92472098289E+01	2.90520786185E-04	8.21721810810E+01	1.93902484933E-04	4.58830460366E+01	2.06803519688E-01	-3.46303057286E+01
7.58356713427E+10	1.79268917058E-01	-3.89955380165E+01	2.62374096116E-04	6.31073859795E+01	2.06941857181E-04	3.03233117526E+01	2.03960788366E-01	-3.45578315035E+01
7.58416833667E+10	1.80038745030E-01	-4.00113512007E+01	2.63350277718E-04	6.36481382502E+01	2.12785323283E-04	3.23419035677E+01	2.01100493577E-01	-3.34311256405E+01
7.58476953908E+10	1.79693484048E-01	-4.13796780855E+01	2.26759700812E-04	5.89238644861E+01	1.83731193955E-04	1.83803001711E+01	1.99715486065E-01	-3.39821471075E+01
7.58537074148E+10	1.79619723963E-01	-3.90600693846E+01	2.57070943500E-04	4.52967171861E+01	2.46196018106E-04	1.62484426903E+01	2.03002716310E-01	-3.41057187240E+01
7.58597194389E+10	1.80712837829E-01	-3.98412763345E+01	2.06421201849E-04	5.67611084239E+01	2.29870684066E-04	-2.59057215553E+00	2.00448492922E-01	-3.55722512325E+01
7.58657314629E+10	1.79335682764E-01	-4.02378231784E+01	2.32809736872E-04	2.97620689446E+01	1.97776306492E-04	-5.11665307970E+00	2.02243376282E-01	-3.57937434981E+01
7.58717434870E+10	1.75719371201E-01	-4.00463944849E+01	2.16731840709E-04	4.15502914173E+01	2.48706215727E-04	3.02159174180E+00	2.00040545305E-01	-3.39252148201E+01
7.58777555110E+10	1.75329505834E-01	-3.77039187807E+01	1.23856715669E-04	1.28999551019E+01	2.26784419928E-04	-1.37061636822E+01	2.02032905212E-01	-3.58137984747E+01
7.58837675351E+10	1.76939981546E-01	-4.21625232295E+01	2.27545425169E-04	1.06949375560E+00	1.83783924860E-04	-1.51443197962E+01	1.99547273883E-01	-3.69320267831E+01
7.58897795591E+10	1.76093790035E-01	-3.96930717964E+01	1.30212189243E-04	-1.09100389383E+01	1.78617976953E-04	-5.39629808596E+01	1.98478746682E-01	-3.65162163662E+01
7.58957915832E+10	1.78903871392E-01	-4.29950396249E+01	2.52816922359E-04	-1.16875356214E+01	1.94713469031E-04	-4.21698385574E+01	1.96354710839E-01	-3.65005554679E+01
7.59018036072E+10	1.77289867173E-01	-4.06447959207E+01	1.40714125965E-04	-7.91379268546E+00	1.77473466172E-04	-4.62591650398E+01	1.97581968070E-01	-3.61817691658E+01
7.59078156313E+10	1.77322250024E-01	-4.18922098674E+01	1.08650312079E-04	-2.03340761553E+01	1.83514812215E-04	-6.75824902829E+01	1.97835684315E-01	-3.58465301510E+01
7.59138276553E+10	1.76122062727E-01	-4.20865732977E+01	1.60935692455E-04	-1.14956297760E+01	1.73748870340E-04	-8.15359589760E+01	1.97233953112E-01	-3.71375115408E+01
7.59198396794E+10	1.79100841470E-01	-4.19877306987E+01	1.91352922072E-04	4.66859898836E+00	1.36438612843E-04	-6.70336410149E+01	1.97458494075E-01	-3.74963536810E+01
7.59258517034E+10	1.77067318558E-01	-4.11399518551E+01	1.88609479851E-04	-1.01045413259E+01	1.52233879941E-04	-6.29863267073E+01	1.98915611932E-01	-3.79460025088E+01
7.59318637275E+10	1.76793244050E-01	-4.22632791523E+01	1.94364303989E-04	-2.56735888630E+01	1.40477410164E-04	-6.10170530805E+01	1.98875559965E-01	-3.74042457403E+01
7.59378757515E+10	1.74961055878E-01	-4.27872112253E+01	1.26330223066E-04	-3.20801490880E+01	1.98930138742E-04	-7.44019095197E+01	1.95726222835E-01	-3.64514768379E+01
7.59438877756E+10	1.78283449935E-01	-4.29951506070E+01	2.51036776485E-04	-1.58737288579E+01	2.34458750706E-04	-5.99623713927E+01	1.97257595818E-01	-3.65264934556E+01
7.59498997996E+10	1.78643951110E-01	-4.33195035061E+01	1.58603866024E-04	-2.94861692542E+01	2.23655450638E-04	-7.86333380559E+01	1.96749871103E-01	-3.79867651324E+01
7.59559118236E+10	1.77878603217E-01	-4.38185289594E+01	2.24384027283E-04	-3.63876474538E+01	2.13056656401E-04	-8.23222940815E+01	1.95332840330E-01	-3.63822300803E+01
7.59619238477E+10	1.76308756096E-01	-4.47762362969E+01	1.76740666686E-04	-4.52820178864E+01	2.51519335363E-04	-7.32562298916E+01	1.94384926431E-01	-3.68501630981E+01
7.59679358717E+10	1.75952245942E-01	-4.33974068293E+01	1.88216372658E-04	-6.15006296295E+01	2.51811041855E-04	-1.00313123205E+02	1.94871607162E-01	-3.81841704237E+01
7.59739478958E+10	1.77009845504E-01	-4.26008611071E+01	1.96123764636E-04	-7.02399244770E+01	1.97839506115E-04	-1.03757958248E+02	1.96260162572E-01	-3.82147123759E+01
7.59799599198E+10	1.78313586943E-01	-4.51465632327E+01	9.93637397167E-05	-6.54961091896E+01	2.08534934505E-04	-1.40909762150E+02	1.96631406458E-01	-3.68546327194E+01
7.59859719439E+10	1.72133428476E-01	-4.27249889236E+01	1.48478193105E-04	-5.24594409809E+01	2.15936774433E-04	-1.17714654847E+02	1.95794394468E-01	-3.88465722902E+01
7.59919839679E+10	1.76106747537E-01	-4.45763105909E+01	1.52258894736E-04	-7.81637961644E+01	2.26398752779E-04	-1.22979953860E+02	1.97679655295E-01	-3.96035666770E+01
7.59979959920E+10	1.76844600390E-01	-4.41031040217E+01	2.38317923285E-04	-6.51758242836E+01	2.00198481446E-04	-1.31808316652E+02	1.94061740409E-01	-3.88499060881E+01
7.60040080160E+10	1.74498490954E-01	-4.38882551309E+01	1.67812269325E-04	-8.96657954903E+01	2.03493820847E-04	-1.56018096846E+02	1.97107217067E-01	-3.91382890317E+01
7.60100200401E+10	1.75364609028E-01	-4.53845652584E+01	1.58999909860E-04	-7.50104145199E+01	1.08736019601E-04	-1.49155148200E+02	1.92614086386E-01	-3.76335086216E+01
7.60160320641E+10	1.73864644620E-01	-4.49640567594E+01	2.19391199159E-04	-9.81009205809E+01	2.06123315102E-04	-1.43425478366E+02	1.97145625450E-01	-3.88950386305E+01
7.60220440882E+10	1.73217256749E-01	-4.39781637315E+01	2.47537176327E-04	-8.48162807929E+01	2.56223110208E-04	-1.48291583220E+02	1.95063018143E-01	-3.79450390033E+01
7.60280561122E+10	1.75173598109E-01	-4.62978060815E+01	2.09312115175E-04	-1.03687880400E+02	2.01390197717E-04	-1.69820521871E+02	1.92739081153E-01	-3.87754886554E+01
7.60340681363E+10	1.74441242180E-01	-4.47352375743E+01	2.43134523478E-04	-1.12812746540E+02	2.29667507985E-04	-1.74441318934E+02	1.92652392179E-01	-3.91419344101E+01
7.60400801603E+10	1.73002449728E-01	-4.35721271041E+01	2.50863822894E-04	-1.02897114940E+02	2.02771857605E-04	-1.69359839860E+02	1.95444568081E-01	-4.07519820635E+01
7.60460921844E+10	1.73083143772E-01	-4.41159111851E+01	2.32016185790E-04	-1.01615441365E+02	2.14896282092E-04	1.78097219085E+02	1.95044453251E-01	-4.01795054976E+01
7.60521042084E+10	1.71861147071E-01	-4.51609308067E+01	2.13014419406E-04	-1.26798260628E+02	2.10733508986E-04	1.54867211922E+02	1.94766463743E-01	-3.98685336973E+01
7.60581162325E+10	1.72987136533E-01	-4.64471941515E+01	2.09650467729E-04	-1.44756465638E+02	2.59776981094E-04	1.58410828482E+02	1.96453099920E-01	-4.06993286781E+01
7.60641282565E+10	1.75349551902E-01	-4.72113508871E+01	2.01479094023E-04	-1.36522780057E+02	2.07636993391E-04	1.48281035959E+02	1.93651238414E-01	-4.03131337795E+01
7.60701402806E+10	1.72525437419E-01	-4.63274557611E+01	1.89192816011E-04	-1.27503936140E+02	2.29828426274E-04	1.33042579775E+02	1.93161005479E-01	-3.87715477563E+01
7.60761523046E+10	1.72551858361E-01	-4.62870984518E+01	2.36186501165E-04	-1.55078356845E+02	2.04015491016E-04	1.34071999308E+02	1.93584294992E-01	-3.95800319589E+01
7.60821643287E+10	1.74993293592E-01	-4.74033960558E+01	2.04425414906E-04	-1.67532394695E+02	2.18506718695E-04	1.22989575776E+02	1.95072174115E-01	-4.06326784553E+01
7.60881763527E+10	1.74061708874E-01	-4.71738448723E+01	2.45828251788E-04	-1.60792858194E+02	2.01776676877E-04	1.28880746597E+02	1.96497952779E-01	-4.17900675026E+01
7.60941883768E+10	1.71152778309E-01	-4.77174219695E+01	1.91456767468E-04	-1.77226689662E+02	1.66072277900E-04	1.15874380392E+02	1.92975254420E-01	-3.91411526932E+01
7.61002004008E+10	1.71730442052E-01	-4.67987756333E+01	2.58846487113E-04	-1.72234429241E+02	2.16300477617E-04	1.01599405751E+02	1.94267505313E-01	-4.01227348238E+01
7.61062124248E+10	1.73832422403E-01	-4.64342340446E+01	3.13907626037E-04	-1.79131099511E+02	1.75488777993E-04	1.21700635674E+02	1.94921317639E-01	-4.02396739245E+01
7.61122244489E+10	1.70478808019E-01	-4.69731253719E+01	2.76219933003E-04	-1.79312597421E+02	2.33823982673E-04	9.55069085340E+01	1.94483453330E-01	-3.95864686369E+01
7.61182364729E+10	1.74622184385E-01	-4.90077924843E+01	2.57919414104E-04	1.54823586702E+02	2.35520027871E-04	1.07245557937E+02	1.97277213608E-01	-4.07579996894E+01
7.61242484970E+10	1.69364627965E-01	-4.60445451656E+01	3.51068878036E-04	1.45300801599E+02	2.33441204321E-04	1.02295107470E+02	1.98313269331E-01	-4.10044686077E+01
7.61302605210E+10	1.70871619998E-01	-4.62166155855E+01	3.18853321122E-04	1.38794615532E+02	2.66037587630E-04	8.36232718671E+01	1.97241522595E-01	-3.97657974914E+01
7.61362725451E+10	1.71344938222E-01	-4.86869699109E+01	2.93233275801E-04	1.26640656591E+02	2.85593120850E-04	7.37442410253E+01	1.98629885707E-01	-4.22285310172E+01
7.61422845691E+10	1.74350396676E-01	-5.01855741727E+01	3.64091705331E-04	1.03310632834E+02	2.71539628354E-04	6.50347351451E+01	1.99002381776E-01	-4.21369430513E+01
7.61482965932E+10	1.69918393408E-01	-4.95420328126E+01	2.49468513955E-04	8.83379758208E+01	2.83481749745E-04	5.46509048320E+01	2.02469755285E-01	-4.33411751985E+01
7.61543086172E+10	1.73482194775E-01	-4.80493690252E+01	2.45800785313E-04	9.94648701842E+01	2.16871421747E-04	2.85802294570E+01	2.00427429104E-01	-4.25353559610E+01
7.61603206413E+10	1.70609923743E-01	-4.75016841097E+01	2.70700576703E-04	8.15800191027E+01	1.75132802930E-04	1.73176169949E+01	2.01880115885E-01	-4.34413354593E+01
7.61663326653E+10	1.70402626982E-01	-4.86341907577E+01	2.70052997112E-04	8.02693963876E+01	2.34722172664E-04	1.96593230386E+01	2.00300603786E-01	-4.39463908501E+01
7.61723446894E+10	1.72909373914E-01	-5.04015930494E+01	2.92479519058E-04	7.45287822666E+01	2.31292925011E-04	1.85158334816E+01	1.98599938987E-01	-4.34588210952E+01
7.61783567134E+10	1.72470723144E-01	-5.05324310086E+01	2.38879143546E-04	6.11132148416E+01	1.90961072798E-04	3.98488100115E+00	1.99791196161E-01	-4.47313737139E+01
7.61843687375E+10	1.69935818334E-01	-4.99295103227E+01	2.39939939691E-04	6.96887538694E+01	1.76563951123E-04	8.85302193151E+00	1.99617515358E-01	-4.57205255585E+01
7.61903807615E+10	1.70012365521E-01	-4.92614883610E+01	2.25057922721E-04	4.20600482329E+01	1.63699034205E-04	6.69101749071E+00	1.98782258521E-01	-4.53618530332E+01
7.61963927856E+10	1.70919430815E-01	-4.84143102077E+01	2.39007715996E-04	4.92754984987E+01	1.37952492821E-04	-7.61702247194E+00	1.96653458303E-01	-4.46536779391E+01
7.62024048096E+10	1.67931023277E-01	-5.03990100916E+01	2.53906791142E-04	5.15348159124E+01	8.10280961497E-05	-6.60101073008E+00	1.97111876215E-01	-4.53769088060E+01
7.62084168337E+10	1.68810342060E-01	-5.06967727049E+01	2.02985233528E-04	2.33723558330E+01	1.84070413313E-04	-7.06567477286E-01	1.97323428658E-01	-4.67823774142E+01
7.62144288577E+10	1.69600649766E-01	-5.03005536531E+01	2.08046381288E-04	2.09438885586E+01	1.80512246933E-04	3.54811733634E+00	1.98868233315E-01	-4.79038876507E+01
7.62204408818E+10	1.70112495739E-01	-4.91664497899E+01	2.13140456500E-04	1.66051979470E+00	2.05990645894E-04	-1.50142455365E+01	1.95806343025E-01	-4.74480335702E+01
7.62264529058E+10	1.70695970810E-01	-5.11040612624E+01	1.46533165385E-04	-2.96766562388E+00	2.48879875097E-04	-2.62469896153E+01	1.93299597935E-01	-4.69144529122E+01
7.62324649299E+10	1.70023591425E-01	-5.18547942286E+01	2.14158927324E-04	-6.38715057336E+00	1.68305820273E-04	-4.87385678230E+01	1.91919430185E-01	-4.62599919190E+01
7.62384769539E+10	1.69265312130E-01	-5.15996737485E+01	1.60373386284E-04	1.11420892240E+01	1.78447455252E-04	-5.12390690943E+01	1.91253219585E-01	-4.72063251544E+01
7.62444889780E+10	1.68961483267E-01	-5.14231374164E+01	7.58131642336E-05	1.33095391648E+01	1.69129804679E-04	-6.15118812179E+01	1.93133391559E-01	-4.83860844403E+01
7.62505010020E+10	1.70624523511E-01	-5.15421536125E+01	7.82182493076E-05	-1.95611159224E+01	1.52183048663E-04	-6.66682385986E+01	1.92461028106E-01	-4.81606398781E+01
7.62565130261E+10	1.69487697692E-01	-5.15649161042E+01	1.27606614180E-04	-1.41917568105E+01	1.85922648516E-04	-5.48604315386E+01	1.89788414462E-01	-4.73693317399E+01
7.62625250501E+10	1.68769086895E-01	-5.20776961262E+01	1.59496381661E-04	-3.69193986746E+01	1.33986171129E-04	-1.15461201398E+02	1.92276803553E-01	-4.76807827706E+01
7.62685370741E+10	1.68424499316E-01	-5.12232161425E+01	7.07125741797E-05	-1.57258065733E+01	1.84948019466E-04	-6.78085503983E+01	1.90362169936E-01	-4.80052037124E+01
7.62745490982E+10	1.67745149325E-01	-5.23980076953E+01	1.90656045459E-04	-1.83814614280E+01	1.04856304960E-04	-8.02142055173E+01	1.93356697463E-01	-4.89466055366E+01
7.62805611222E+10	1.70080129506E-01	-5.27620558841E+01	1.08953397014E-04	-3.92566037253E+01	1.20090873704E-04	-9.54064967767E+01	1.89700434709E-01	-4.85909194768E+01
7.62865731463E+10	1.69076697421E-01	-5.23821845552E+01	2.13846859694E-04	-4.04363677248E+01	1.07613576501E-04	-8.42060682433E+01	1.87234668029E-01	-4.77902111935E+01
7.62925851703E+10	1.67612964171E-01	-5.35854054973E+01	1.37928693795E-04	-5.53118304532E+01	1.47602788824E-04	-1.01274617259E+02	1.88192596532E-01	-4.83019096616E+01
7.62985971944E+10	1.68530740279E-01	-5.19755970536E+01	1.22774874127E-04	-6.00877427581E+01	1.09506771925E-04	-9.73890448908E+01	1.88277291020E-01	-4.84455496466E+01
7.63046092184E+10	1.67157303166E-01	-5.37170593984E+01	1.08612216445E-04	-1.07817756637E+02	1.18237727333E-04	-1.08508561970E+02	1.88429716346E-01	-4.86805181123E+01
7.63106212425E+10	1.68181735757E-01	-5.25845228303E+01	7.86943735393E-05	-6.02950986911E+01	1.10458005737E-04	-1.01399058399E+02	1.89743653186E-01	-4.97328811499E+01
7.63166332665E+10	1.65413599749E-01	-5.16417598406E+01	6.91573870788E-05	-4.53809293209E+01	9.84159650154E-05	-1.34975061595E+02	1.86644122619E-01	-4.89949353200E+01
7.63226452906E+10	1.71146603181E-01	-5.45324191317E+01	9.21638828321E-05	-3.48925378481E+01	9.75957260335E-05	-7.35761116171E+01	1.85605117086E-01	-4.88767963564E+01
7.63286573146E+10	1.66822310736E-01	-5.37077469554E+01	1.19436255993E-04	-5.82258028234E+01	9.41900784045E-05	-7.90236366327E+01	1.86212523443E-01	-4.89279998340E+01
7.63346693387E+10	1.65999216484E-01	-5.31701214792E+01	1.19489262974E-04	-8.31223967615E+01	1.01280285546E-04	-1.03129332469E+02	1.89253422165E-01	-5.00894141951E+01
7.63406813627E+10	1.66252964654E-01	-5.27926089411E+01	1.38248599387E-04	-4.54513593063E+01	1.38737771527E-04	-1.11670468301E+02	1.84716478436E-01	-4.90054362245E+01
7.63466933868E+10	1.70382117833E-01	-5.55684008846E+01	1.71598437558E-04	-7.32819488951E+01	2.07217001620E-04	-1.01620325370E+02	1.85366749968E-01	-4.91841270746E+01
7.63527054108E+10	1.66941721530E-01	-5.47623835288E+01	2.52785564231E-04	-8.37477208631E+01	1.69372101075E-04	-1.07172304097E+02	1.87809759046E-01	-4.99336707355E+01
7.63587174349E+10	1.65761744423E-01	-5.39304576238E+01	2.17779723375E-04	-9.08322304781E+01	2.37010467229E-04	-1.40066854720E+02	1.87990335065E-01	-5.00347689598E+01
7.63647294589E+10	1.67387241650E-01	-5.41557564844E+01	1.92407064130E-04	-1.02850566912E+02	2.06351395369E-04	-1.39578855805E+02	1.86805137597E-01	-5.02408262205E+01
7.63707414830E+10	1.67030228906E-01	-5.41061981242E+01	1.96728358639E-04	-1.19394623616E+02	2.28800543690E-04	-1.57433086428E+02	1.86358670193E-01	-5.12069142229E+01
7.63767535070E+10	1.66571069169E-01	-5.43952376878E+01	2.13919456764E-04	-1.15682500797E+02	1.98239725224E-04	-1.63183972290E+02	1.84889514702E-01	-4.96346764838E+01
7.63827655311E+10	1.66984281330E-01	-5.66291343502E+01	1.57117299214E-04	-1.34805508795E+02	1.89674448359E-04	-1.62776936022E+02	1.84979222966E-01	-5.00179592982E+01
7.63887775551E+10	1.66432024833E-01	-5.53950740459E+01	1.41010100295E-04	-1.29972017051E+02	2.09848689598E-04	-1.72239939353E+02	1.84428234691E-01	-4.97423709265E+01
7.63947895792E+10	1.65220440490E-01	-5.38912013835E+01	1.42509426214E-04	-1.23773298400E+02	1.79376780075E-04	1.73504105678E+02	1.85123022007E-01	-5.01451411356E+01
7.64008016032E+10	1.62931899600E-01	-5.50550182399E+01	1.62901823663E-04	-1.60120661807E+02	2.54286307907E-04	1.63104093216E+02	1.83904434325E-01	-5.04828499565E+01
7.64068136273E+10	1.67468901367E-01	-5.47671365438E+01	8.22161128828E-05	-1.39153892193E+02	1.66851202288E-04	1.51981205348E+02	1.83307691641E-01	-5.04149571842E+01
7.64128256513E+10	1.66440250348E-01	-5.54388060661E+01	1.09288097839E-04	1.68040903067E+02	1.93152305751E-04	1.46059900726E+02	1.84075250814E-01	-5.03662157224E+01
7.64188376754E+10	1.64782002105E-01	-5.45298778535E+01	6.24341597080E-05	-1.38921551847E+02	1.42593877983E-04	1.27210197237E+02	1.84543309934E-01	-4.95569491411E+01
7.64248496994E+10	1.64663462960E-01	-5.48462148769E+01	1.16283377503E-04	-1.40351496080E+02	1.57037877119E-04	1.45038218778E+02	1.84962098442E-01	-5.09214761339E+01
7.64308617234E+10	1.66733795916E-01	-5.62474582188E+01	1.67293905940E-04	-1.45531674687E+02	1.59502828112E-04	1.65268568686E+02	1.86265745550E-01	-5.10770015136E+01
7.64368737475E+10	1.65632387208E-01	-5.52610024909E+01	1.69659459328E-04	-1.61749888997E+02	1.76233041222E-04	1.52814036098E+02	1.87968233827E-01	-5.10867901706E+01
7.64428857715E+10	1.66881691213E-01	-5.80465183314E+01	2.17474169702E-04	1.78297307995E+02	2.17747490662E-04	1.50665575328E+02	1.84821477224E-01	-4.93299203668E+01
7.64488977956E+10	1.64524487334E-01	-5.68800882103E+01	2.16626658753E-04	-1.78090158241E+02	2.04207016506E-04	1.04193983668E+02	1.87260670961E-01	-5.03659523447E+01
7.64549098196E+10	1.62953614711E-01	-5.63719457853E+01	1.24397690050E-04	1.76001807022E+02	2.12463140299E-04	1.17360615802E+02	1.87299228820E-01	-5.02732768058E+01
7.64609218437E+10	1.62845120196E-01	-5.72086757129E+01	1.97382910410E-04	1.62261803991E+02	2.09395143847E-04	9.74000890438E+01	1.85986184983E-01	-4.99868993144E+01
7.64669338677E+10	1.64390960451E-01	-5.84014028913E+01	1.33046681392E-04	1.57446578705E+02	1.51286714800E-04	1.01305292287E+02	1.87669706187E-01	-5.12342699824E+01
7.64729458918E+10	1.66094173730E-01	-5.89985570696E+01	1.19003071562E-04	1.72677807807E+02	2.06132687146E-04	9.22862098470E+01	1.89865235787E-01	-5.15478803196E+01
7.64789579158E+10	1.66522624086E-01	-5.89381554920E+01	2.06693854930E-04	1.27425801559E+02	2.31881033084E-04	9.05959026191E+01	1.90454422588E-01	-5.14267988500E+01
7.64849699399E+10	1.65532227888E-01	-5.78062246403E+01	1.50224335247E-04	1.56020733497E+02	2.15915291557E-04	7.76506575540E+01	1.89325913401E-01	-5.03892917164E+01
7.64909819639E+10	1.62518205562E-01	-5.58237340325E+01	1.79023621134E-04	1.13908811469E+02	1.20270001403E-04	6.18096133327E+01	1.92209984102E-01	-5.25720765449E+01
7.64969939880E+10	1.65013964325E-01	-5.95231994927E+01	1.53982167611E-04	1.28505014013E+02	1.34906958384E-04	4.85583616548E+01	1.91914801967E-01	-5.30853602088E+01
7.65030060120E+10	1.64634429285E-01	-6.03435703034E+01	9.53952315906E-05	1.38402572793E+02	1.26334193297E-04	4.38020065527E+01	1.92128102721E-01	-5.29352645833E+01
7.65090180361E+10	1.66741659730E-01	-6.03185133308E+01	1.43113138468E-04	9.53382018987E+01	4.54742597140E-05	5.68452557775E+01	1.90869164670E-01	-5.27248966660E+01
7.65150300601E+10	1.65340282647E-01	-5.94688485755E+01	2.18512026299E-04	1.28862049691E+02	9.42380430348E-05	3.07501321825E+01	1.90530982841E-01	-5.32226505045E+01
7.65210420842E+10	1.63581974105E-01	-6.03167151938E+01	1.49487981588E-04	9.39276040402E+01	1.27550022535E-04	4.98514709434E+01	1.91847119922E-01	-5.36480923334E+01
7.65270541082E+10	1.61385530540E-01	-5.78442848155E+01	1.43118856811E-04	1.10474928588E+02	7.05710978670E-05	6.29496965022E+01	1.91364556502E-01	-5.37240805512E+01
7.65330661323E+10	1.65150006510E-01	-6.01642408695E+01	2.23139012792E-04	6.74651808076E+01	8.20367532385E-05	1.05384621931E+01	1.91832693696E-01	-5.43968677638E+01
7.65390781563E+10	1.64592665366E-01	-6.04514696228E+01	1.52244141575E-04	9.49739229054E+01	5.31043929917E-05	7.71372465435E+00	1.90822014687E-01	-5.51851094956E+01
7.65450901804E+10	1.66412424146E-01	-6.11272869826E+01	1.26225005412E-04	7.05430740023E+01	1.30793066590E-04	1.85366317061E+01	1.88341659294E-01	-5.40559168079E+01
7.65511022044E+10	1.62085688149E-01	-5.84982119402E+01	9.62812653030E-05	6.06217217021E+01	5.77188455384E-05	1.95046830559E+00	1.89477476334E-01	-5.54995032356E+01
7.65571142285E+10	1.61381213984E-01	-5.90398539784E+01	8.41845131279E-05	4.41249146068E+01	9.01624019073E-05	1.22341889759E+01	1.90867599122E-01	-5.56466924674E+01
7.65631262525E+10	1.64448233087E-01	-6.23553576162E+01	1.19913008666E-04	6.33807592296E+01	1.01042765348E-04	-1.72810686352E+02	1.91427743036E-01	-5.64529074049E+01
7.65691382766E+10	1.63968951740E-01	-6.23185665077E+01	1.23529187802E-04	4.69449722290E+01	7.91865336876E-05	6.79324091953E+01	1.86345440860E-01	-5.56445372583E+01
7.65751503006E+10	1.63696723926E-01	-6.24817436755E+01	1.63182927351E-04	4.32540118069E+01	5.31198341447E-05	4.84514096775E+01	1.88580285900E-01	-5.62478111563E+01
7.65811623246E+10	1.60947120672E-01	-5.98708698874E+01	1.65883684376E-04	4.98345547926E+01	3.37537273387E-05	7.99253254981E+01	1.88705767864E-01	-5.64415811046E+01
7.65871743487E+10	1.61652901919E-01	-6.09741407222E+01	1.59724202579E-04	3.13708832383E+01	1.06649647714E-04	-6.18400448935E+00	1.87658820403E-01	-5.69800820057E+01
7.65931863727E+10	1.61912911022E-01	-6.11328555963E+01	4.21751887785E-05	2.36447212594E+00	4.79644640428E-05	2.36906289375E+01	1.86602477645E-01	-5.69548237968E+01
7.65991983968E+10	1.61974599662E-01	-6.07920839770E+01	1.20125450785E-04	1.97119131422E+01	7.00916199836E-05	3.31053621382E+01	1.86418258923E-01	-5.65625025003E+01
7.66052104208E+10	1.62443820631E-01	-6.24868851603E+01	1.49039282335E-04	1.10642205511E+01	6.71562293850E-05	4.04099118233E+01	1.85716440595E-01	-5.71023836362E+01
7.66112224449E+10	1.61139806886E-01	-6.28655423245E+01	8.72484171830E-05	-4.83099817164E+00	5.07609885651E-05	6.80874746813E+01	1.87692902579E-01	-5.83356998865E+01
7.66172344689E+10	1.61617273860E-01	-6.19987982480E+01	4.20233454081E-05	5.60095379789E+01	1.65982607260E-04	4.78292514589E+01	1.87461002168E-01	-5.84292375679E+01
7.66232464930E+10	1.61454449901E-01	-6.17538799873E+01	9.19195923618E-05	2.95714287847E+01	1.47882717386E-04	3.96502005983E+01	1.85456418531E-01	-5.76046391847E+01
7.66292585170E+10	1.61441252347E-01	-6.16051433562E+01	1.39145596949E-04	4.18793478013E+01	1.64171432569E-04	2.32028448700E+01	1.84234584344E-01	-5.77116338461E+01
7.66352705411E+10	1.61010175024E-01	-6.22284096227E+01	6.18372253110E-05	2.10065569679E+01	1.89817782430E-04	6.68427936667E+00	1.83406198834E-01	-5.74423139466E+01
7.66412825651E+10	1.61073314969E-01	-6.27818792624E+01	1.57454372097E-04	2.95722365563E+01	1.33161337093E-04	1.85462276211E+01	1.84172118964E-01	-5.80353275486E+01
7.66472945892E+10	1.60829980984E-01	-6.35728280147E+01	1.38952010558E-04	3.72682539773E+01	1.57489752690E-04	1.46271181220E+01	1.83226531072E-01	-5.69481009249E+01
7.66533066132E+10	1.61044306887E-01	-6.31246212973E+01	1.23468175734E-04	2.47246505071E+01	1.92469665734E-04	2.30205174018E+01	1.85571087415E-01	-5.85254042762E+01
7.66593186373E+10	1.59629658196E-01	-6.43229597658E+01	1.45256452976E-04	7.80222135972E+00	2.51237279179E-04	1.08111628727E+01	1.84808949887E-01	-5.95794482151E+01
7.66653306613E+10	1.62078437780E-01	-6.50063917852E+01	1.79548361813E-04	1.39738488699E+01	2.22086930514E-04	-2.17778780063E+01	1.85814491879E-01	-5.98779669579E+01
7.66713426854E+10	1.59717504500E-01	-6.29515054879E+01	1.67466099640E-04	2.45510858001E+01	2.73500576624E-04	-1.71065385920E+01	1.83774559825E-01	-5.83621818019E+01
7.66773547094E+10	1.62099527257E-01	-6.46103768937E+01	1.76100752596E-04	-5.68635456119E-01	2.29360634933E-04	-2.41500472089E+01	1.82697556272E-01	-5.94429028991E+01
7.66833667335E+10	1.59160366819E-01	-6.36184473007E+01	2.18109815243E-04	-5.74657056997E+00	2.37917927567E-04	-3.85050830691E+01	1.84833454205E-01	-5.91239042027E+01
7.66893787575E+10	1.57794622237E-01	-6.38735908291E+01	1.68463502918E-04	-1.31855820844E+01	2.48887670048E-04	-5.33194960350E+01	1.83141220155E-01	-5.92260164797E+01
7.66953907816E+10	1.58588222432E-01	-6.33052066490E+01	1.91083017171E-04	-2.21183914125E+01	2.62093396686E-04	-4.44547267194E+01	1.83728301974E-01	-5.97830028313E+01
7.67014028056E+10	1.59170700074E-01	-6.29370768046E+01	1.98965057142E-04	-5.11377355774E+01	2.56230886014E-04	-6.79902136124E+01	1.84482465374E-01	-6.08492143438E+01
7.67074148297E+10	1.59611925100E-01	-6.41282199473E+01	1.34479528555E-04	-5.00303815619E+01	2.46146038827E-04	-7.49006604972E+01	1.83546241763E-01	-6.05337639610E+01
7.67134268537E+10	1.59634821582E-01	-6.55158405500E+01	1.60807446282E-04	-4.31759587416E+01	2.26511813393E-04	-8.70351542808E+01	1.82045556970E-01	-6.00644923608E+01
7.67194388778E+10	1.62038299022E-01	-6.69262101726E+01	1.30736702417E-04	-4.37499777468E+01	2.38903604555E-04	-8.14648419991E+01	1.81388873682E-01	-5.93383167230E+01
7.67254509018E+10	1.61138617854E-01	-6.67268381775E+01	1.40484434321E-04	-5.16610459124E+01	1.58315422462E-04	-8.95284064577E+01	1.83262544400E-01	-5.98634461418E+01
7.67314629259E+10	1.57879158676E-01	-6.52739787384E+01	1.01360235512E-04	-6.09860293470E+01	2.44677633893E-04	-7.64838985882E+01	1.83361240858E-01	-5.99248455451E+01
7.67374749499E+10	1.58475353603E-01	-6.47033016433E+01	1.90454678924E-04	-3.57324976104E+01	1.41947083482E-04	-9.41216852976E+01	1.81456235979E-01	-6.04501225136E+01
7.67434869739E+10	1.58916913061E-01	-6.46784136097E+01	2.98051403848E-04	-4.15724212168E+01	2.11933195376E-04	-8.55877189159E+01	1.81062137876E-01	-6.06692608943E+01
7.67494989980E+10	1.57960237709E-01	-6.55940414676E+01	2.25228382122E-04	-6.73048269716E+01	2.04428689486E-04	-9.14119039713E+01	1.80137901395E-01	-6.03212833895E+01
7.67555110220E+10	1.56904245355E-01	-6.73850895378E+01	2.27606474176E-04	-8.73714972300E+01	2.33871705658E-04	-1.06384358229E+02	1.81588977860E-01	-6.08015962181E+01
7.67615230461E+10	1.58175125644E-01	-6.73011374251E+01	2.82357442837E-04	-9.42141980234E+01	2.34690794675E-04	-1.14807748848E+02	1.82150429738E-01	-6.17485924842E+01
7.67675350701E+10	1.57872046563E-01	-6.73579696709E+01	3.00384525809E-04	-8.97926520105E+01	2.23474478206E-04	-1.25207013629E+02	1.79636188831E-01	-6.03413852316E+01
7.67735470942E+10	1.56251638770E-01	-6.54357661246E+01	2.15142655784E-04	-1.09085119056E+02	2.05589706533E-04	-1.22570307080E+02	1.80511982669E-01	-6.05750602615E+01
7.67795591182E+10	1.57952491566E-01	-6.62513552757E+01	2.33199757568E-04	-1.07177004852E+02	2.37724248163E-04	-1.45584986787E+02	1.81454101753E-01	-6.14656499203E+01
7.67855711423E+10	1.58864667954E-01	-6.69994178683E+01	2.96581739496E-04	-1.11955987928E+02	1.92421629660E-04	-1.45293148177E+02	1.80872910078E-01	-6.15535359842E+01
7.67915831663E+10	1.57312056836E-01	-6.88253386203E+01	3.03125486171E-04	-1.15894866311E+02	2.56542758797E-04	-1.44771257767E+02	1.82047166982E-01	-6.13392126154E+01
7.67975951904E+10	1.58523587481E-01	-6.79736951955E+01	1.78696806110E-04	-1.36032629007E+02	1.79794282097E-04	-1.58414041798E+02	1.81692524596E-01	-6.12883627731E+01
7.68036072144E+10	1.54598670049E-01	-6.77373978425E+01	2.30464079526E-04	-1.24810462053E+02	2.05564771439E-04	-1.63094279778E+02	1.82637748889E-01	-6.12797648064E+01
7.68096192385E+10	1.56635190749E-01	-6.73284001834E+01	2.96458432839E-04	-1.28010910221E+02	2.27339501718E-04	-1.58094589324E+02	1.82945831715E-01	-6.14143791281E+01
7.68156312625E+10	1.57394374804E-01	-6.80327165883E+01	2.38431633647E-04	-1.32080452045E+02	2.52694364070E-04	-1.68508140197E+02	1.83067926578E-01	-6.22780688726E+01
7.68216432866E+10	1.56898318680E-01	-6.84711105353E+01	2.90064417478E-04	-1.40793798862E+02	2.47977794921E-04	-1.65305309883E+02	1.82097572800E-01	-6.26154748523E+01
7.68276553106E+10	1.56011212643E-01	-6.89044648406E+01	2.92892220998E-04	-1.53392679104E+02	2.63574670967E-04	1.79536604960E+02	1.81792814060E-01	-6.04826222472E+01
7.68336673347E+10	1.57265350275E-01	-6.94930053889E+01	2.54502751011E-04	-1.47973056598E+02	2.30367710793E-04	1.69743339990E+02	1.83516998546E-01	-6.10936903400E+01
7.68396793587E+10	1.56536244454E-01	-6.79160833890E+01	2.24209173441E-04	-1.55158639369E+02	2.08930053059E-04	1.59616382384E+02	1.84398010082E-01	-6.30577427900E+01
7.68456913828E+10	1.56147874626E-01	-6.81144104276E+01	3.22929760904E-04	-1.77228947811E+02	1.95182701424E-04	1.63125362225E+02	1.85358257149E-01	-6.26333973053E+01
7.68517034068E+10	1.55487186697E-01	-6.81622496680E+01	3.23903637767E-04	-1.55286976038E+02	2.30463197836E-04	1.63476611924E+02	1.84454031576E-01	-6.21726215170E+01
7.68577154309E+10	1.53692545483E-01	-6.95440484018E+01	3.01850461411E-04	-1.72601404840E+02	2.58765291678E-04	1.48194418301E+02	1.85815303793E-01	-6.20908909683E+01
7.68637274549E+10	1.57774087973E-01	-7.05588388803E+01	3.91228948248E-04	-1.77145753838E+02	2.67111483579E-04	1.39981754931E+02	1.86963894665E-01	-6.28684251600E+01
7.68697394790E+10	1.55387290955E-01	-6.98228056352E+01	3.37806164924E-04	1.73918375781E+02	1.97739471673E-04	1.41037490735E+02	1.87618691605E-01	-6.37016941502E+01
7.68757515030E+10	1.56214588639E-01	-6.97290199958E+01	2.76794092364E-04	1.56356471724E+02	3.05663016696E-04	1.32573857133E+02	1.85988236803E-01	-6.34823551365E+01
7.68817635271E+10	1.58455446941E-01	-7.07772397916E+01	3.42332688100E-04	1.58574566813E+02	2.39743377441E-04	1.20577354372E+02	1.84392213246E-01	-6.31554143500E+01
7.68877755511E+10	1.53827351189E-01	-6.88723502718E+01	2.64101459264E-04	1.55581987813E+02	2.90412701301E-04	1.05408551505E+02	1.86568749738E-01	-6.47569449195E+01
7.68937875752E+10	1.55635815065E-01	-6.94835643488E+01	3.17705770107E-04	1.49491600369E+02	2.83804867435E-04	1.16588273855E+02	1.86839953738E-01	-6.41113604966E+01
7.68997995992E+10	1.54221404219E-01	-7.00376446924E+01	3.81203073900E-04	1.49559599781E+02	2.51929530763E-04	1.09569376478E+02	1.86585786875E-01	-6.47557219348E+01
7.69058116232E+10	1.56686252198E-01	-7.14976690238E+01	3.45885090342E-04	1.44815661765E+02	2.89682277496E-04	1.08057138685E+02	1.86830440468E-01	-6.55395131128E+01
7.69118236473E+10	1.55183461217E-01	-7.19304202153E+01	3.28568422410E-04	1.24950557852E+02	2.86602338325E-04	1.02140692322E+02	1.86196234113E-01	-6.46994190135E+01
7.69178356713E+10	1.57323946149E-01	-7.20894521171E+01	3.63308406056E-04	1.18126311997E+02	2.52786713291E-04	8.76290822454E+01	1.85332944898E-01	-6.53165773985E+01
7.69238476954E+10	1.54994824667E-01	-7.08365055947E+01	3.30322973251E-04	1.20587718447E+02	3.33530163519E-04	8.11717336954E+01	1.87310414709E-01	-6.65095922303E+01
7.69298597194E+10	1.57551857849E-01	-7.17896476192E+01	3.52710621213E-04	9.63669370328E+01	3.20823828911E-04	7.93109679856E+01	1.87092633262E-01	-6.74740313871E+01
7.69358717435E+10	1.53277325852E-01	-7.12558538669E+01	4.32613144484E-04	1.08417469766E+02	3.58585218727E-04	7.01856014102E+01	1.87906752615E-01	-6.78473478450E+01
7.69418837675E+10	1.54069891351E-01	-7.21165964600E+01	4.49608852423E-04	9.98127639558E+01	2.94655025510E-04	6.90168301407E+01	1.86182947488E-01	-6.82318931701E+01
7.69478957916E+10	1.54391458432E-01	-7.08537774287E+01	4.05606586740E-04	9.06926561633E+01	4.14071662895E-04	6.46530160912E+01	1.83699258011E-01	-6.69329355782E+01
7.69539078156E+10	1.55148726931E-01	-7.23932356566E+01	4.24617883499E-04	7.79890978458E+01	3.10675917129E-04	4.44179742051E+01	1.85896830237E-01	-6.70552904800E+01
7.69599198397E+10	1.51458633191E-01	-7.08127712347E+01	4.39135135494E-04	7.82195769946E+01	2.63256406369E-04	3.34917458175E+01	1.85972715176E-01	-6.72910693700E+01
7.69659318637E+10	1.53753037877E-01	-7.18592462461E+01	4.20517920309E-04	7.25610648840E+01	2.26810084275E-04	4.90786031476E+01	1.84347533891E-01	-6.92436246980E+01
7.69719438878E+10	1.53926348187E-01	-7.38453904890E+01	4.46463830443E-04	6.51245091615E+01	3.17816306830E-04	3.50374941444E+01	1.84351995074E-01	-6.88231021796E+01
7.69779559118E+10	1.53602429214E-01	-7.35039385971E+01	3.98700129889E-04	5.48236306259E+01	3.22931494820E-04	3.19433735624E+01	1.81646226251E-01	-6.75803845813E+01
7.69839679359E+10	1.52873026181E-01	-7.31455495813E+01	4.63314111934E-04	4.77321327155E+01	3.37465324683E-04	3.59047356502E+01	1.82427571487E-01	-6.89302766190E+01
7.69899799599E+10	1.50997858538E-01	-7.13438440263E+01	4.52292581035E-04	3.67718322233E+01	3.80044067337E-04	1.75581247140E+01	1.83178887698E-01	-6.91314441924E+01
7.69959919840E+10	1.50959988056E-01	-7.20785147132E+01	5.08843236341E-04	3.27948808974E+01	3.63180567939E-04	1.05190208369E+01	1.82795263812E-01	-6.90848423181E+01
7.70020040080E+10	1.52440923765E-01	-7.34172871492E+01	4.77108676030E-04	2.88606710242E+01	3.82225079690E-04	1.58112695464E+00	1.83956433873E-01	-6.94740875593E+01
7.70080160321E+10	1.54473627127E-01	-7.48683953487E+01	4.81467084660E-04	1.65566034025E+01	4.58415935789E-04	-7.56561364565E+00	1.82484425573E-01	-6.89446829022E+01
7.70140280561E+10	1.55053255152E-01	-7.42710406063E+01	4.48703467806E-04	4.63001453317E+00	3.96086585173E-04	-2.24788524640E+01	1.81544898351E-01	-6.91681613398E+01
7.70200400802E+10	1.53595851696E-01	-7.41552794818E+01	4.92229260185E-04	4.88941232656E+00	3.13446948170E-04	-2.31477574832E+01	1.81474894147E-01	-6.87855732897E+01
7.70260521042E+10	1.50721373841E-01	-7.36217781999E+01	4.52158452496E-04	-1.01566110540E+00	3.49463691292E-04	-2.87360200099E+01	1.79942044023E-01	-6.96949534218E+01
7.70320641283E+10	1.51645961308E-01	-7.41897073189E+01	4.34932046640E-04	-1.83601595791E+01	3.17400025059E-04	-3.37829562273E+01	1.80006210284E-01	-7.06336261034E+01
7.70380761523E+10	1.52820476119E-01	-7.42754665572E+01	5.22875460605E-04	-1.62958980376E+01	2.98452536186E-04	-4.66173493820E+01	1.83707829408E-01	-7.15045984765E+01
7.70440881764E+10	1.51510551462E-01	-7.54178850887E+01	4.36757030009E-04	-2.22494495236E+01	3.43689155721E-04	-5.01744775247E+01	1.81934916361E-01	-7.13026733482E+01
7.70501002004E+10	1.52533889832E-01	-7.57035161783E+01	4.58180835674E-04	-2.65281305911E+01	2.91386686947E-04	-5.10645848696E+01	1.79842495914E-01	-7.04443572783E+01
7.70561122244E+10	1.54349359071E-01	-7.63658675894E+01	4.86838072219E-04	-3.24058954557E+01	3.54450564508E-04	-6.11481564407E+01	1.78723668368E-01	-7.11001463271E+01
7.70621242485E+10	1.53524604192E-01	-7.66078750007E+01	4.66420861674E-04	-3.74392527827E+01	3.55099407503E-04	-7.33792423335E+01	1.79001138203E-01	-7.27820197543E+01
7.70681362725E+10	1.50129375743E-01	-7.51375247474E+01	5.19621559863E-04	-5.49980026561E+01	3.43278491506E-04	-7.98660859612E+01	1.80766850752E-01	-7.23896197319E+01
7.70741482966E+10	1.50706939149E-01	-7.56192577252E+01	4.36566393997E-04	-4.62882931816E+01	3.30143770694E-04	-7.94213616548E+01	1.80050952556E-01	-7.09225021035E+01
7.70801603206E+10	1.49276419696E-01	-7.35865712675E+01	3.93257636090E-04	-6.09797607989E+01	3.80529103207E-04	-7.99633800463E+01	1.79401853618E-01	-7.15550273423E+01
7.70861723447E+10	1.49223811348E-01	-7.53650015457E+01	4.77747823453E-04	-6.57543975295E+01	3.69854422846E-04	-9.05255625212E+01	1.80274656621E-01	-7.32573231599E+01
7.70921843687E+10	1.50383111736E-01	-7.68743882573E+01	4.72593879668E-04	-7.36558609239E+01	3.48156422361E-04	-1.00310454494E+02	1.77432998253E-01	-7.18546931970E+01
7.70981963928E+10	1.52840271134E-01	-7.70409125322E+01	4.57717923751E-04	-8.64807172601E+01	3.26484005345E-04	-1.12166655909E+02	1.78530690586E-01	-7.36119799620E+01
7.71042084168E+10	1.51534285425E-01	-7.53318867447E+01	4.42717798876E-04	-9.40807977620E+01	3.70807921566E-04	-1.14279908014E+02	1.77499584545E-01	-7.29343885325E+01
7.71102204409E+10	1.53817771318E-01	-7.76831571590E+01	4.52416041132E-04	-9.72675017549E+01	3.01621650024E-04	-1.25379262148E+02	1.76467390920E-01	-7.25181747657E+01
7.71162324649E+10	1.51057673012E-01	-7.69865329241E+01	4.55406351800E-04	-1.04536627174E+02	3.65437614951E-04	-1.25689378010E+02	1.75274974676E-01	-7.26785119337E+01
7.71222444890E+10	1.48332672200E-01	-7.70209677053E+01	4.14853507506E-04	-1.12332656965E+02	3.72219578837E-04	-1.30273839070E+02	1.77348407864E-01	-7.34106256150E+01
7.71282565130E+10	1.49338099875E-01	-7.63721293550E+01	4.21862816660E-04	-1.21971513585E+02	3.12448021760E-04	-1.40964792785E+02	1.74926766213E-01	-7.40633319596E+01
7.71342685371E+10	1.49398429935E-01	-7.65151134411E+01	5.08309296469E-04	-1.29921937109E+02	3.45149855417E-04	-1.53261700178E+02	1.74713501521E-01	-7.41774991746E+01
7.71402805611E+10	1.53185129470E-01	-7.81128756926E+01	3.78811454641E-04	-1.36928003881E+02	2.97869275690E-04	-1.57003022075E+02	1.76086984237E-01	-7.43531417212E+01
7.71462925852E+10	1.47871340612E-01	-7.80407412532E+01	3.69186550252E-04	-1.34523959782E+02	2.84682303843E-04	-1.60143757906E+02	1.76125676984E-01	-7.38163048087E+01
7.71523046092E+10	1.48282904832E-01	-7.78161811966E+01	3.97387006889E-04	-1.46935375296E+02	2.87312974687E-04	-1.66086071614E+02	1.73697540563E-01	-7.32136372568E+01
7.71583166333E+10	1.51468475728E-01	-7.93240316977E+01	4.06011251125E-04	-1.44549208189E+02	2.71401554744E-04	-1.65568565340E+02	1.75097458091E-01	-7.30749577499E+01
7.71643286573E+10	1.48199329674E-01	-7.72446521752E+01	3.84435693174E-04	-1.50478838700E+02	3.21775500922E-04	1.73712026428E+02	1.77098732096E-01	-7.48470158251E+01
7.71703406814E+10	1.47363120491E-01	-7.85429221896E+01	4.52559113519E-04	-1.54451962939E+02	2.36837574887E-04	-1.79800012144E+02	1.74652501907E-01	-7.46043760383E+01
7.71763527054E+10	1.47264098431E-01	-7.91991444232E+01	4.83143939723E-04	-1.69641058465E+02	4.04939810000E-04	1.74586433161E+02	1.77167908526E-01	-7.30227441961E+01
7.71823647295E+10	1.47676385907E-01	-7.90085535903E+01	4.50737804728E-04	1.73805007892E+02	3.38080154155E-04	1.50397665883E+02	1.73934999752E-01	-7.29192962747E+01
7.71883767535E+10	1.47179068554E-01	-7.83378184867E+01	4.33545611219E-04	1.71336243152E+02	3.32470280556E-04	1.51582279779E+02	1.73984803082E-01	-7.35556904114E+01
7.71943887776E+10	1.46252350747E-01	-7.89781855307E+01	4.28552100175E-04	1.67581825518E+02	2.94671094242E-04	1.38875215746E+02	1.75830179442E-01	-7.47962119713E+01
7.72004008016E+10	1.45945926587E-01	-7.86433475734E+01	4.12748762952E-04	1.56660262901E+02	2.97832145669E-04	1.29700652093E+02	1.77298608820E-01	-7.56171859875E+01
7.72064128257E+10	1.46873140698E-01	-7.82437712133E+01	3.47497753583E-04	1.39541998170E+02	3.06312303768E-04	1.39634033005E+02	1.76845585863E-01	-7.53899031281E+01
7.72124248497E+10	1.46933631585E-01	-7.91016949614E+01	3.81440347877E-04	1.42993836654E+02	2.53727244552E-04	1.41446431702E+02	1.75826779293E-01	-7.52118108283E+01
7.72184368737E+10	1.49137651241E-01	-8.14705332863E+01	3.70184489435E-04	1.33499486197E+02	2.70978499869E-04	1.22908528304E+02	1.74641900771E-01	-7.48724827287E+01
7.72244488978E+10	1.49266846341E-01	-8.11194243425E+01	3.00213419563E-04	1.34563828827E+02	2.71614635660E-04	1.11810379565E+02	1.78336825963E-01	-7.47224454672E+01
7.72304609218E+10	1.48026442129E-01	-8.06393460438E+01	3.49313305849E-04	1.36118287802E+02	2.13740237152E-04	1.09589539165E+02	1.77656679452E-01	-7.49773125965E+01
7.72364729459E+10	1.47435491310E-01	-8.02786149146E+01	2.92974614327E-04	1.22571494152E+02	2.73158345300E-04	1.17082984443E+02	1.76867337153E-01	-7.52235713972E+01
7.72424849699E+10	1.47320212934E-01	-8.01178139365E+01	3.38576133365E-04	1.15605622163E+02	2.78511350879E-04	1.07106010757E+02	1.78688197063E-01	-7.56565655119E+01
7.72484969940E+10	1.47816007182E-01	-8.26145762203E+01	3.63929393878E-04	1.04928062230E+02	3.19837186606E-04	1.01051120293E+02	1.77015339228E-01	-7.50644245529E+01
7.72545090180E+10	1.46337342684E-01	-8.17790954179E+01	3.53226060057E-04	1.03419243933E+02	3.12315193209E-04	9.13185511689E+01	1.78432062761E-01	-7.64831052774E+01
7.72605210421E+10	1.44555086397E-01	-8.08660740055E+01	3.60752806743E-04	9.20914702780E+01	3.22147151799E-04	8.98186223483E+01	1.77070893566E-01	-7.60873020293E+01
7.72665330661E+10	1.47006212859E-01	-8.11106865501E+01	3.28182312218E-04	8.32252781854E+01	2.44366625844E-04	7.27237208328E+01	1.79333749388E-01	-7.66076438211E+01
7.72725450902E+10	1.46801809498E-01	-8.26938103289E+01	2.80136333874E-04	8.86775377992E+01	2.61455822962E-04	6.68978080683E+01	1.78123741653E-01	-7.63640984906E+01
7.72785571142E+10	1.47951821836E-01	-8.29823866235E+01	2.34901666114E-04	7.31267302388E+01	2.54972474438E-04	5.01652263492E+01	1.77484751636E-01	-7.74810807779E+01
7.72845691383E+10	1.45344609694E-01	-8.23879486193E+01	2.34098164205E-04	5.82617417133E+01	2.17227788015E-04	5.41788216875E+01	1.76383822185E-01	-7.78788037452E+01
7.72905811623E+10	1.44224658461E-01	-8.11055650297E+01	2.92655485470E-04	7.36925981707E+01	1.88296396185E-04	6.87102192184E+01	1.78917444204E-01	-7.92151825670E+01
7.72965931864E+10	1.44630929436E-01	-8.24057557547E+01	2.31978573783E-04	6.67010859905E+01	1.84884332168E-04	6.20336566282E+01	1.76877207177E-01	-7.81553325237E+01
7.73026052104E+10	1.44138845332E-01	-8.03024188389E+01	3.02802498759E-04	6.03931583344E+01	2.75294338341E-04	5.41762744555E+01	1.76123331641E-01	-7.73710491355E+01
7.73086172345E+10	1.45215509513E-01	-8.24530630813E+01	3.07265108628E-04	4.82436321817E+01	2.87846753937E-04	4.31454935562E+01	1.75835068480E-01	-7.77763554106E+01
7.73146292585E+10	1.45240273581E-01	-8.14847494034E+01	2.81925155769E-04	3.87384236194E+01	2.81686694683E-04	4.35472379119E+01	1.76854693127E-01	-7.91526697183E+01
7.73206412826E+10	1.46768100500E-01	-8.27448549177E+01	2.78339821794E-04	2.54798480567E+01	2.61944176236E-04	2.82236254017E+01	1.77980841220E-01	-8.05467002256E+01
7.73266533066E+10	1.43297473609E-01	-8.27846312614E+01	2.48280797953E-04	3.33649163492E+01	2.78727777969E-04	1.25426968597E+01	1.77384100841E-01	-7.97946688642E+01
7.73326653307E+10	1.45544108241E-01	-8.42140605325E+01	1.93567721098E-04	1.41418504364E+01	2.06741506832E-04	1.10710294397E+01	1.75410285404E-01	-7.88385725925E+01
7.73386773547E+10	1.45255252509E-01	-8.36319008967E+01	2.41303331638E-04	1.55600477155E+01	2.27844646709E-04	2.04078173045E+01	1.73990478292E-01	-7.90962024805E+01
7.73446893788E+10	1.43356795779E-01	-8.48612355296E+01	1.70822654195E-04	6.24221822137E+00	1.82234651001E-04	1.24286867237E+00	1.73726487628E-01	-7.95187492639E+01
7.73507014028E+10	1.44480448146E-01	-8.49370962187E+01	1.86092056919E-04	8.22640520675E+00	2.11431796742E-04	3.22625306578E+00	1.77251723845E-01	-8.02068995568E+01
7.73567134269E+10	1.41328288865E-01	-8.34228713808E+01	1.83770222748E-04	1.46782041076E+01	2.34978708919E-04	1.27423780197E+00	1.75418894724E-01	-8.04139747237E+01
7.73627254509E+10	1.41541426774E-01	-8.45894165737E+01	2.35323769741E-04	5.15209182121E-02	2.31721790481E-04	5.71306264104E-01	1.75679559644E-01	-8.10985677724E+01
7.73687374749E+10	1.44223054226E-01	-8.31997491090E+01	2.50876179209E-04	3.10732088888E+00	2.15577203810E-04	3.84717063354E+00	1.76841193720E-01	-8.17842393744E+01
7.73747494990E+10	1.43729987896E-01	-8.51103460904E+01	2.60980694649E-04	-1.40937208797E+01	2.23085893681E-04	-1.79501362279E+01	1.75060929664E-01	-8.16357416226E+01
7.73807615230E+10	1.40817454432E-01	-8.41493508428E+01	2.46124628876E-04	-1.49448833597E+01	2.80996955754E-04	-2.24247148182E+01	1.75078188082E-01	-8.12899879014E+01
7.73867735471E+10	1.42252950496E-01	-8.39292102161E+01	1.98839908817E-04	-4.14072515960E+01	3.18422779632E-04	-2.85596948699E+01	1.74306587339E-01	-8.22696493893E+01
7.73927855711E+10	1.43229939112E-01	-8.47717391005E+01	1.81635367696E-04	-5.10122302453E+01	2.35234352521E-04	-3.86121978194E+01	1.72716065488E-01	-8.21808779290E+01
7.73987975952E+10	1.42211596761E-01	-8.55644562849E+01	1.94036387472E-04	-4.64319325687E+01	2.50811155872E-04	-3.97051313421E+01	1.72513374715E-01	-8.24150086108E+01
7.74048096192E+10	1.42190746143E-01	-8.41619849567E+01	2.23383862292E-04	-6.29576741799E+01	2.37058654899E-04	-5.02929911181E+01	1.71706041904E-01	-8.20034568377E+01
7.74108216433E+10	1.41938335931E-01	-8.42026753793E+01	1.51042823136E-04	-5.33206396058E+01	2.66467329189E-04	-4.09942019036E+01	1.72907792858E-01	-8.24563795770E+01
7.74168336673E+10	1.41613773289E-01	-8.63460076712E+01	1.19207071685E-04	-8.07779721854E+01	2.56899250022E-04	-5.57106521915E+01	1.72777199584E-01	-8.34872481507E+01
7.74228456914E+10	1.41553526119E-01	-8.74393357928E+01	1.41212439994E-04	-4.56827040179E+01	2.98321181662E-04	-5.40272462737E+01	1.71317262876E-01	-8.33873014044E+01
7.74288577154E+10	1.42175512486E-01	-8.79042051786E+01	1.80682441885E-04	-4.56845235440E+01	2.75850539347E-04	-5.44153430951E+01	1.70660423713E-01	-8.38936683798E+01
7.74348697395E+10	1.40954501459E-01	-8.67010813546E+01	1.82823500667E-04	-5.59623673908E+01	2.97989514710E-04	-6.24089497532E+01	1.71039432497E-01	-8.33397436236E+01
7.74408817635E+10	1.40508374789E-01	-8.64971838430E+01	2.47649977162E-04	-5.58952666544E+01	2.95732713567E-04	-8.55992912381E+01	1.69545369572E-01	-8.33897974743E+01
7.74468937876E+10	1.39577555896E-01	-8.54206349729E+01	2.08955761660E-04	-9.15995635738E+01	3.62153688766E-04	-9.55850953976E+01	1.68394627415E-01	-8.36328417084E+01
7.74529058116E+10	1.39276337074E-01	-8.67892879984E+01	1.79505570357E-04	-1.03213715486E+02	3.08965317020E-04	-9.84107686915E+01	1.68496347654E-01	-8.41124033430E+01
7.74589178357E+10	1.38492058970E-01	-8.77416147933E+01	2.53617707804E-04	-9.94098961850E+01	3.00363984097E-04	-1.05408484222E+02	1.66869823906E-01	-8.27283219115E+01
7.74649298597E+10	1.37663747903E-01	-8.53041681947E+01	1.90452175113E-04	-1.04864736884E+02	2.29236664357E-04	-1.09009858726E+02	1.69395998597E-01	-8.52906746193E+01
7.74709418838E+10	1.41287833026E-01	-8.68237381443E+01	2.00569293044E-04	-1.06023520514E+02	2.70799917672E-04	-1.20286919418E+02	1.66277472163E-01	-8.48173821526E+01
7.74769539078E+10	1.43269804746E-01	-8.91309565289E+01	2.20866066919E-04	-1.05317467229E+02	2.60670469501E-04	-1.15721594565E+02	1.65914000358E-01	-8.39769030531E+01
7.74829659319E+10	1.39259426030E-01	-8.59995235308E+01	1.56666700276E-04	-1.17818675782E+02	2.65278823199E-04	-1.13603509563E+02	1.67873439683E-01	-8.41021397206E+01
7.74889779559E+10	1.39333968990E-01	-8.63363805261E+01	1.65207081468E-04	-8.89918421944E+01	2.22832150512E-04	-1.24898338216E+02	1.66533423704E-01	-8.35515018642E+01
7.74949899800E+10	1.38454988015E-01	-8.70805702651E+01	2.21554502017E-04	-1.14545299272E+02	2.73689890130E-04	-1.28823735281E+02	1.64919435090E-01	-8.48817669176E+01
7.75010020040E+10	1.37454564879E-01	-8.83265573277E+01	2.25059184635E-04	-1.06009986188E+02	2.92060899512E-04	-1.44777314242E+02	1.65192847041E-01	-8.44769242475E+01
7.75070140281E+10	1.40851649543E-01	-8.87735392664E+01	2.35030384587E-04	-1.24273833848E+02	3.17123494729E-04	-1.41848262845E+02	1.65878195309E-01	-8.54540848822E+01
7.75130260521E+10	1.40260878913E-01	-8.90391974663E+01	2.16628868562E-04	-1.38392416020E+02	3.62401586523E-04	-1.51048190071E+02	1.63961218174E-01	-8.38675818298E+01
7.75190380762E+10	1.38886188654E-01	-9.03200898091E+01	2.91525318901E-04	-1.41653348936E+02	3.84557286898E-04	-1.64221788730E+02	1.65085063612E-01	-8.46909665367E+01
7.75250501002E+10	1.40325662993E-01	-8.84594234621E+01	2.57613436196E-04	-1.49189749394E+02	3.19916613104E-04	-1.67999919299E+02	1.63734988600E-01	-8.43844627363E+01
7.75310621242E+10	1.37132626214E-01	-8.78877811736E+01	2.20876945118E-04	-1.61617688937E+02	3.25825341370E-04	1.77112737318E+02	1.65808864613E-01	-8.45881425849E+01
7.75370741483E+10	1.36944144010E-01	-8.83828275068E+01	2.38759725559E-04	-1.67362889317E+02	3.62924662550E-04	1.74525486688E+02	1.67297809742E-01	-8.53235318854E+01
7.75430861723E+10	1.39449614621E-01	-8.97278984872E+01	2.65760407819E-04	1.76904232371E+02	3.65601955792E-04	1.59491020473E+02	1.64428277766E-01	-8.37707970030E+01
7.75490981964E+10	1.39751546752E-01	-8.96221683345E+01	2.64961408091E-04	-1.78219324217E+02	3.05599682332E-04	1.58387760449E+02	1.65571972658E-01	-8.39442822315E+01
7.75551102204E+10	1.38528577786E-01	-8.93788565945E+01	2.75571904871E-04	1.73220905827E+02	3.14108024857E-04	1.52618563692E+02	1.66310876576E-01	-8.45795483862E+01
7.75611222445E+10	1.37775320476E-01	-8.92023243015E+01	1.76723028516E-04	1.49038761447E+02	2.67273750832E-04	1.36361900751E+02	1.65974006052E-01	-8.42280899247E+01
7.75671342685E+10	1.37589926454E-01	-8.83987400221E+01	2.82465756675E-04	1.62095334477E+02	3.21741830678E-04	1.30214583802E+02	1.66513126464E-01	-8.42152278720E+01
7.75731462926E+10	1.35564724379E-01	-8.98611853911E+01	2.56435936664E-04	1.40321728056E+02	2.32467419965E-04	1.25573737052E+02	1.67024397769E-01	-8.45510053904E+01
7.75791583166E+10	1.36460843651E-01	-8.99881824287E+01	2.52123688163E-04	1.66072915401E+02	3.11614100442E-04	1.19371665589E+02	1.69065762320E-01	-8.60404748408E+01
7.75851703407E+10	1.36049004443E-01	-8.92192077964E+01	2.66406243422E-04	1.39793291912E+02	2.95463412891E-04	1.23272347493E+02	1.67465477652E-01	-8.55801853849E+01
7.75911823647E+10	1.37282853533E-01	-9.02753487645E+01	2.32416018305E-04	1.30330786175E+02	3.06837897831E-04	1.13451259269E+02	1.65060406891E-01	-8.48506227623E+01
7.75971943888E+10	1.35170645443E-01	-8.94864148182E+01	3.14054562215E-04	1.28355012808E+02	2.36067679975E-04	1.08654508552E+02	1.67732420273E-01	-8.60143428409E+01
7.76032064128E+10	1.35285187748E-01	-9.04944412894E+01	2.41300485527E-04	1.07296840134E+02	3.37608710689E-04	1.05829029719E+02	1.69081239721E-01	-8.68071459917E+01
7.76092184369E+10	1.36479768640E-01	-9.07787519109E+01	2.59936577741E-04	1.03990077911E+02	3.70635520763E-04	9.00479766933E+01	1.67772554261E-01	-8.63120182077E+01
7.76152304609E+10	1.37798902276E-01	-8.92464474640E+01	2.73604421822E-04	9.39843981385E+01	3.63251036695E-04	8.08183559700E+01	1.67803867220E-01	-8.64976698980E+01
7.76212424850E+10	1.35905564720E-01	-9.12378502604E+01	2.55191770277E-04	7.87126449784E+01	3.62414879380E-04	7.72717135758E+01	1.68273835553E-01	-8.65718119696E+01
7.76272545090E+10	1.36226427733E-01	-9.24341454184E+01	1.85128550141E-04	9.46659053011E+01	2.90251887743E-04	7.53944215779E+01	1.69235273228E-01	-8.70042401713E+01
7.76332665331E+10	1.37302464086E-01	-9.19935293795E+01	2.17967086073E-04	6.84527791257E+01	2.88046474921E-04	6.05642336857E+01	1.68941142212E-01	-8.69725154826E+01
7.76392785571E+10	1.35179369020E-01	-8.99632324255E+01	1.53345999747E-04	1.00430286364E+02	2.88384348173E-04	5.75390541991E+01	1.67157479840E-01	-8.66799107550E+01
7.76452905812E+10	1.35697732133E-01	-9.21706908107E+01	2.19818005361E-04	8.46678299883E+01	2.64116367833E-04	5.44875033244E+01	1.68294169321E-01	-8.75156815200E+01
7.76513026052E+10	1.35169552665E-01	-9.28669418133E+01	2.58735553137E-04	6.16130995012E+01	3.30069817933E-04	5.87247929799E+01	1.68155050367E-01	-8.70984549417E+01
7.76573146293E+10	1.36800412484E-01	-9.21548997975E+01	2.33307404637E-04	6.76323415741E+01	2.78072936704E-04	3.41946653226E+01	1.66978410730E-01	-8.65998184676E+01
7.76633266533E+10	1.34851687062E-01	-9.00840986555E+01	2.27681939695E-04	5.07715417255E+01	3.33775642760E-04	4.14454683515E+01	1.68167173658E-01	-8.74639479970E+01
7.76693386774E+10	1.34424642509E-01	-8.98398366040E+01	2.52839377852E-04	4.81590923745E+01	3.11883813063E-04	4.73161108172E+01	1.69865478493E-01	-8.84860331301E+01
7.76753507014E+10	1.34011589599E-01	-9.21313940638E+01	2.62204978763E-04	4.43467738008E+01	3.55888883665E-04	2.57498472375E+01	1.68372840111E-01	-8.87926681509E+01
7.76813627255E+10	1.33854485787E-01	-9.06406979476E+01	2.85721457751E-04	2.07344241083E+01	3.24604179601E-04	1.60276586240E+01	1.67183170652E-01	-8.83024695669E+01
7.76873747495E+10	1.38363698644E-01	-9.40727207480E+01	2.34706546615E-04	1.58982776500E+01	3.41100430765E-04	3.02396388709E+00	1.69165311293E-01	-8.83975169498E+01
7.76933867735E+10	1.34541051118E-01	-9.38476581681E+01	2.16209453064E-04	6.75269513979E+00	2.91416614692E-04	2.33938920679E+00	1.68798265093E-01	-8.86728007121E+01
7.76993987976E+10	1.35370070992E-01	-9.18187481418E+01	1.55598048952E-04	1.60106283544E+01	3.33109215255E-04	-8.46545639620E+00	1.68797582375E-01	-8.90055284807E+01
7.77054108216E+10	1.34109629091E-01	-9.18389047592E+01	1.29754131982E-04	1.53462666298E+01	1.83153268319E-04	-8.18582813879E+00	1.68807291311E-01	-8.96146711866E+01
7.77114228457E+10	1.36618439598E-01	-9.50345672798E+01	1.41378756763E-04	2.65291602056E+01	2.14540333086E-04	-7.58169000130E+00	1.68645792609E-01	-8.97896736022E+01
7.77174348697E+10	1.33778810553E-01	-9.39328760377E+01	2.46175884490E-04	1.04414095803E+01	2.83096696827E-04	-5.16396239685E+00	1.71637301353E-01	-9.05787044512E+01
7.77234468938E+10	1.31812622596E-01	-9.19024950231E+01	1.83644325265E-04	1.09476822736E+01	2.31327239242E-04	-2.12811807680E+01	1.70107219663E-01	-9.01641058694E+01
7.77294589178E+10	1.36274691402E-01	-9.55515322057E+01	2.61076460139E-04	-6.17505043867E+00	2.89707590976E-04	-2.64432109917E+01	1.68186254322E-01	-8.95179143073E+01
7.77354709419E+10	1.32326216931E-01	-9.36921329803E+01	2.27614525820E-04	-1.46033442545E+01	3.06651398155E-04	-3.22618800222E+01	1.69194903888E-01	-9.13388598049E+01
7.77414829659E+10	1.32343865974E-01	-9.25165190566E+01	2.23158194318E-04	-2.78203311379E+01	2.98708250834E-04	-3.80855052602E+01	1.70021682040E-01	-9.19905889770E+01
7.77474949900E+10	1.33570354908E-01	-9.53030872773E+01	2.70815814612E-04	-4.33181044944E+01	3.13568460629E-04	-5.22034506561E+01	1.69661321521E-01	-9.11409858249E+01
7.77535070140E+10	1.32618807630E-01	-9.32155263841E+01	1.88923285989E-04	-4.04379591563E+01	2.92995365845E-04	-5.38202166720E+01	1.69538737756E-01	-9.19674532271E+01
7.77595190381E+10	1.33917546514E-01	-9.53916052307E+01	2.15641598100E-04	-4.86277422624E+01	2.84818677173E-04	-7.80315555552E+01	1.67965709574E-01	-9.17318677198E+01
7.77655310621E+10	1.31526687636E-01	-9.48758653897E+01	2.03791857828E-04	-5.82112474870E+01	2.94426925222E-04	-7.44966128251E+01	1.67773554922E-01	-9.23006200686E+01
7.77715430862E+10	1.31109438386E-01	-9.25815721927E+01	1.89044352786E-04	-6.34236146054E+01	2.35498978593E-04	-8.34394372289E+01	1.67525647855E-01	-9.31418228772E+01
7.77775551102E+10	1.33649581273E-01	-9.49251283733E+01	1.84554939464E-04	-6.23406769266E+01	2.51426774773E-04	-1.01829906356E+02	1.67307643314E-01	-9.27506426930E+01
7.77835671343E+10	1.33531533797E-01	-9.54120346911E+01	1.25613561413E-04	-7.57578557244E+01	2.03665292432E-04	-9.25850336091E+01	1.68020697070E-01	-9.29983433019E+01
7.77895791583E+10	1.32527315595E-01	-9.49905469803E+01	1.78885124211E-04	-4.56763846695E+01	2.24063425301E-04	-8.17678903511E+01	1.67543450920E-01	-9.31090159749E+01
7.77955911824E+10	1.34453322508E-01	-9.70785031905E+01	1.58944851770E-04	-6.26690235881E+01	1.98763023897E-04	-9.86664496708E+01	1.65391693053E-01	-9.36006848454E+01
7.78016032064E+10	1.31816946176E-01	-9.54738814341E+01	1.90393156589E-04	-7.18920300149E+01	2.47235668912E-04	-8.32277811395E+01	1.65656183233E-01	-9.38110542347E+01
7.78076152305E+10	1.30833988705E-01	-9.42108706335E+01	1.90508397320E-04	-6.29790085783E+01	2.81435237817E-04	-9.01553662232E+01	1.66445194721E-01	-9.43605234880E+01
7.78136272545E+10	1.34009425614E-01	-9.71157586896E+01	1.94163705825E-04	-7.58583289262E+01	2.45784370842E-04	-1.10023607182E+02	1.65755506538E-01	-9.34222178360E+01
7.78196392786E+10	1.33132144616E-01	-9.55403432154E+01	2.68474177155E-04	-8.91995645667E+01	2.44415103810E-04	-1.16899468391E+02	1.64968755308E-01	-9.45678318471E+01
7.78256513026E+10	1.32586193750E-01	-9.51721879532E+01	2.07468822488E-04	-9.33672260883E+01	2.31224425295E-04	-1.14239621405E+02	1.63991116546E-01	-9.51724379698E+01
7.78316633267E+10	1.29894480915E-01	-9.50426034737E+01	2.07097593641E-04	-8.49465419085E+01	1.90926173286E-04	-1.14385407334E+02	1.63591425965E-01	-9.44811768801E+01
7.78376753507E+10	1.30905282916E-01	-9.54973341861E+01	2.54457008679E-04	-8.50021457450E+01	2.66133652984E-04	-1.13629314679E+02	1.63750134561E-01	-9.48406840580E+01
7.78436873747E+10	1.33155889353E-01	-9.78393210330E+01	2.62507698769E-04	-9.71934161193E+01	3.63874905241E-04	-1.24236224981E+02	1.64095086434E-01	-9.48464282319E+01
7.78496993988E+10	1.31586500454E-01	-9.60582847600E+01	3.47810031864E-04	-1.08836927414E+02	3.12460669596E-04	-1.30974974906E+02	1.63729465928E-01	-9.51153963766E+01
7.78557114228E+10	1.28913974738E-01	-9.66785492857E+01	3.85537352562E-04	-1.26933966430E+02	3.48839797683E-04	-1.37637496114E+02	1.61934217617E-01	-9.45190739142E+01
7.78617234469E+10	1.30029156987E-01	-9.70244063172E+01	3.28758244902E-04	-1.27060741971E+02	3.51008713310E-04	-1.49049275749E+02	1.62793078539E-01	-9.51458101272E+01
7.78677354709E+10	1.30907486766E-01	-9.74981534586E+01	2.95302621068E-04	-1.43155510675E+02	3.27001779080E-04	-1.57825832792E+02	1.62059854132E-01	-9.53918409926E+01
7.78737474950E+10	1.30978600397E-01	-9.74481602365E+01	2.82974612198E-04	-1.48005839387E+02	2.91893137064E-04	1.75040123281E+02	1.61192362842E-01	-9.52158204255E+01
7.78797595190E+10	1.30835545498E-01	-9.83822934725E+01	2.89956573610E-04	-1.51152015584E+02	3.06769654860E-04	1.76471265042E+02	1.60819208199E-01	-9.52487294543E+01
7.78857715431E+10	1.30156691934E-01	-9.98242437313E+01	2.05457032934E-04	-1.51880371923E+02	2.73635582152E-04	1.72894430302E+02	1.60224370007E-01	-9.45051332192E+01
7.78917835671E+10	1.31384062387E-01	-9.91175612152E+01	2.83715578546E-04	-1.67431800737E+02	3.08520369607E-04	1.69776142082E+02	1.60757077409E-01	-9.49559323942E+01
7.78977955912E+10	1.30996206580E-01	-9.88701139394E+01	2.85873083847E-04	-1.64141737590E+02	3.10140866850E-04	1.63663742401E+02	1.64076376255E-01	-9.61095049343E+01
7.79038076152E+10	1.29270459820E-01	-9.79102199614E+01	2.65104737047E-04	-1.66418122157E+02	2.62312781693E-04	1.65704548513E+02	1.62401847175E-01	-9.55654723171E+01
7.79098196393E+10	1.30394399428E-01	-9.81411256943E+01	2.79984284048E-04	-1.74690862593E+02	3.07616565348E-04	1.43795703292E+02	1.60588713895E-01	-9.59357818541E+01
7.79158316633E+10	1.30309024196E-01	-9.88655682801E+01	2.58131127928E-04	-1.78910811394E+02	2.75829102282E-04	1.48336035654E+02	1.61080808369E-01	-9.53866959012E+01
7.79218436874E+10	1.30330570088E-01	-1.00288552440E+02	2.32422326751E-04	1.72933994380E+02	2.05383619246E-04	1.32564766127E+02	1.62534547031E-01	-9.56396277878E+01
7.79278557114E+10	1.30821257297E-01	-1.00302599891E+02	2.67246347844E-04	1.62322019863E+02	2.25300490693E-04	1.25058366860E+02	1.64016936635E-01	-9.59932894778E+01
7.79338677355E+10	1.31478212429E-01	-9.95149972771E+01	2.43736335144E-04	1.63219134557E+02	2.57254721423E-04	1.21454308703E+02	1.61626819678E-01	-9.65601427781E+01
7.79398797595E+10	1.29692742278E-01	-9.99955356209E+01	3.07456918893E-04	1.69006036007E+02	2.66128117641E-04	1.27230974860E+02	1.61761930114E-01	-9.65107831246E+01
7.79458917836E+10	1.29480363681E-01	-1.00012834914E+02	2.90814588735E-04	1.53823507752E+02	2.73474230667E-04	1.28394098028E+02	1.62004196068E-01	-9.66593657519E+01
7.79519038076E+10	1.28085467596E-01	-1.01010786116E+02	2.80627551382E-04	1.47285181358E+02	2.22244921578E-04	1.21815276482E+02	1.61019606177E-01	-9.66098697161E+01
7.79579158317E+10	1.27210703928E-01	-9.83625322303E+01	2.73216292139E-04	1.30775166615E+02	2.21985938337E-04	9.93411133980E+01	1.63276629439E-01	-9.71093408343E+01
7.79639278557E+10	1.29300476936E-01	-1.00521534165E+02	3.14352235440E-04	1.25692401002E+02	2.24083917674E-04	9.15071054103E+01	1.62401657203E-01	-9.70250504988E+01
7.79699398798E+10	1.28051531471E-01	-1.01229453532E+02	3.21877154397E-04	1.17306889421E+02	1.75100286412E-04	9.03057895606E+01	1.62833988164E-01	-9.77995218558E+01
7.79759519038E+10	1.24690374353E-01	-9.80833954860E+01	3.77389876638E-04	1.08766358236E+02	2.76630396197E-04	8.04713145926E+01	1.63671363681E-01	-9.82875381899E+01
7.79819639279E+10	1.28798771759E-01	-1.00513728460E+02	2.78967047586E-04	1.02304357565E+02	2.41858645816E-04	7.64126717939E+01	1.61998701941E-01	-9.67424315194E+01
7.79879759519E+10	1.26766837961E-01	-9.94730628413E+01	2.58030287426E-04	7.98191649534E+01	1.80423666048E-04	6.04869643823E+01	1.62853304175E-01	-9.77197856879E+01
7.79939879760E+10	1.27832540137E-01	-1.00345571144E+02	2.59046771357E-04	7.81069168299E+01	1.73957224714E-04	6.08545575346E+01	1.61970736045E-01	-9.79861093964E+01
7.80000000000E+10	1.28836909162E-01	-1.02598248252E+02	2.57934942064E-04	7.19334729514E+01	1.85220414998E-04	4.18754168053E+01	1.61246473853E-01	-9.79979579216E+01
